LAMMPS data file for backmapping — generated by backmap-prep

3520 atoms
3500 bonds
6480 angles
9380 dihedrals
0 impropers

5 atom types
4 bond types
5 angle types
4 dihedral types
0 improper types

0.0 62.004000 xlo xhi
0.0 62.004000 ylo yhi
0.0 62.004000 zlo zhi

Masses

1 29.062000 # A (CG)
2 12.011000 # opls_136
3 12.011000 # opls_135
4 1.008000 # opls_140
5 28.054000 # B (CG)

Atoms # full

1 1 1 0.000000 59.720000 53.750000 42.500000 0 0 0
2 1 2 -0.120000 59.780000 53.620000 41.750000 0 0 0
3 1 3 -0.180000 59.750000 53.860000 43.160000 0 0 0
4 1 4 0.060000 59.460000 54.600000 41.250000 0 0 0
5 1 4 0.060000 58.870000 52.870000 41.580000 0 0 0
6 1 4 0.060000 60.180000 53.050000 43.840000 0 0 0
7 1 4 0.060000 58.760000 53.790000 43.450000 0 0 0
8 1 4 0.060000 60.290000 54.810000 43.420000 0 0 0
9 2 5 0.000000 61.050000 52.960000 44.680000 0 0 0
10 2 2 -0.120000 60.830000 53.660000 44.560000 0 0 0
11 2 2 -0.120000 61.250000 52.260000 44.780000 0 0 0
12 2 4 0.060000 61.610000 54.160000 44.980000 0 0 0
13 2 4 0.060000 60.860000 53.840000 43.450000 0 0 0
14 2 4 0.060000 60.380000 51.630000 44.770000 0 0 0
15 2 4 0.060000 61.700000 52.230000 45.760000 0 0 0
16 3 5 0.000000 0.016000 51.890000 46.820000 1 0 0
17 3 2 -0.120000 0.206000 52.220000 47.490000 1 0 0
18 3 2 -0.120000 61.710000 51.540000 46.200000 0 0 0
19 3 4 0.060000 0.906000 51.610000 48.040000 1 0 0
20 3 4 0.060000 1.126000 52.850000 47.270000 1 0 0
21 3 4 0.060000 0.546000 51.150000 45.560000 1 0 0
22 3 4 0.060000 60.890000 52.120000 45.740000 0 0 0
23 4 5 0.000000 1.536000 51.590000 48.980000 1 0 0
24 4 2 -0.120000 1.686000 51.990000 49.650000 1 0 0
25 4 2 -0.120000 1.356000 51.190000 48.320000 1 0 0
26 4 4 0.060000 0.756000 52.110000 50.160000 1 0 0
27 4 4 0.060000 2.346000 51.460000 50.270000 1 0 0
28 4 4 0.060000 2.376000 51.010000 47.810000 1 0 0
29 4 4 0.060000 0.956000 51.750000 47.580000 1 0 0
30 5 5 0.000000 3.296000 52.100000 50.820000 1 0 0
31 5 2 -0.120000 2.836000 52.710000 50.560000 1 0 0
32 5 2 -0.120000 3.776000 51.480000 51.030000 1 0 0
33 5 4 0.060000 2.476000 52.590000 49.600000 1 0 0
34 5 4 0.060000 1.986000 52.710000 51.170000 1 0 0
35 5 4 0.060000 3.716000 51.440000 52.080000 1 0 0
36 5 4 0.060000 4.806000 51.860000 51.000000 1 0 0
37 6 5 0.000000 3.196000 54.380000 51.400000 1 0 0
38 6 2 -0.120000 3.926000 54.600000 51.340000 1 0 0
39 6 2 -0.120000 2.456000 54.160000 51.460000 1 0 0
40 6 4 0.060000 4.596000 53.890000 51.730000 1 0 0
41 6 4 0.060000 4.136000 54.510000 50.280000 1 0 0
42 6 4 0.060000 1.856000 54.970000 51.110000 1 0 0
43 6 4 0.060000 2.186000 54.160000 52.460000 1 0 0
44 7 5 0.000000 2.756000 56.770000 51.480000 1 0 0
45 7 2 -0.120000 3.466000 57.090000 51.510000 1 0 0
46 7 2 -0.120000 1.996000 56.590000 51.410000 1 0 0
47 7 4 0.060000 3.996000 56.360000 52.180000 1 0 0
48 7 4 0.060000 4.046000 56.810000 50.590000 1 0 0
49 7 4 0.060000 1.396000 56.780000 52.230000 1 0 0
50 7 4 0.060000 2.076000 55.540000 51.460000 1 0 0
51 8 5 0.000000 0.986000 58.810000 51.800000 1 0 0
52 8 2 -0.120000 1.366000 59.310000 52.220000 1 0 0
53 8 2 -0.120000 0.576000 58.320000 51.390000 1 0 0
54 8 4 0.060000 1.986000 59.650000 51.500000 1 0 0
55 8 4 0.060000 0.866000 60.090000 52.750000 1 0 0
56 8 4 0.060000 61.970000 57.580000 51.920000 0 0 0
57 8 4 0.060000 1.386000 57.750000 50.990000 1 0 0
58 9 5 0.000000 0.356000 60.780000 50.630000 1 0 0
59 9 2 -0.120000 0.816000 61.280000 51.010000 1 0 0
60 9 2 -0.120000 61.900000 60.270000 50.230000 0 0 0
61 9 4 0.060000 1.556000 61.820000 50.380000 1 0 0
62 9 4 0.060000 0.066000 0.086000 51.420000 1 1 0
63 9 4 0.060000 61.230000 59.940000 50.990000 0 0 0
64 9 4 0.060000 0.516000 59.510000 49.850000 1 0 0
65 10 5 0.000000 61.970000 0.686000 48.940000 0 1 0
66 10 2 -0.120000 0.676000 0.886000 49.150000 1 1 0
67 10 2 -0.120000 61.290000 0.346000 48.770000 0 1 0
68 10 4 0.060000 1.406000 1.026000 48.330000 1 1 0
69 10 4 0.060000 0.446000 1.826000 49.610000 1 1 0
70 10 4 0.060000 61.090000 0.736000 47.710000 0 1 0
71 10 4 0.060000 60.490000 0.826000 49.500000 0 1 0
72 11 5 0.000000 61.850000 2.796000 47.300000 0 1 0
73 11 2 -0.120000 61.850000 3.186000 47.990000 0 1 0
74 11 2 -0.120000 61.850000 2.396000 46.610000 0 1 0
75 11 4 0.060000 60.720000 3.166000 48.170000 0 1 0
76 11 4 0.060000 0.406000 2.676000 48.780000 1 1 0
77 11 4 0.060000 0.856000 2.406000 46.260000 1 1 0
78 11 4 0.060000 61.410000 3.106000 45.930000 0 1 0
79 12 5 0.000000 60.730000 2.946000 45.000000 0 1 0
80 12 2 -0.120000 60.810000 3.426000 45.550000 0 1 0
81 12 2 -0.120000 60.600000 2.566000 44.380000 0 1 0
82 12 4 0.060000 59.860000 3.516000 46.250000 0 1 0
83 12 4 0.060000 61.410000 2.956000 46.320000 0 1 0
84 12 4 0.060000 60.690000 1.426000 44.410000 0 1 0
85 12 4 0.060000 61.540000 2.616000 43.830000 0 1 0
86 13 5 0.000000 60.510000 1.766000 42.750000 0 1 0
87 13 2 -0.120000 61.240000 1.736000 42.480000 0 1 0
88 13 2 -0.120000 59.850000 1.686000 43.110000 0 1 0
89 13 4 0.060000 61.090000 1.146000 41.690000 0 1 0
90 13 4 0.060000 61.460000 2.776000 42.130000 0 1 0
91 13 4 0.060000 59.010000 1.976000 42.490000 0 1 0
92 13 4 0.060000 59.640000 2.466000 43.700000 0 1 0
93 14 5 0.000000 60.500000 61.980000 40.780000 0 0 0
94 14 2 -0.120000 60.460000 61.970000 40.020000 0 0 0
95 14 2 -0.120000 60.530000 61.970000 41.550000 0 0 0
96 14 4 0.060000 61.000000 61.150000 39.520000 0 0 0
97 14 4 0.060000 59.390000 61.890000 39.750000 0 0 0
98 14 4 0.060000 60.250000 0.996000 41.770000 0 1 0
99 14 4 0.060000 61.560000 61.990000 41.980000 0 0 0
100 15 5 0.000000 61.890000 60.080000 39.710000 0 0 0
101 15 2 -0.120000 61.740000 60.830000 39.710000 0 0 0
102 15 2 -0.120000 0.136000 59.350000 39.690000 1 0 0
103 15 4 0.060000 60.690000 60.960000 39.560000 0 0 0
104 15 4 0.060000 61.730000 61.140000 40.830000 0 0 0
105 15 4 0.060000 0.546000 59.250000 38.650000 1 0 0
106 15 4 0.060000 61.360000 58.610000 39.960000 0 0 0
107 16 5 0.000000 60.760000 57.980000 40.240000 0 0 0
108 16 2 -0.120000 60.650000 58.740000 40.150000 0 0 0
109 16 2 -0.120000 60.830000 57.220000 40.210000 0 0 0
110 16 4 0.060000 60.270000 59.040000 41.140000 0 0 0
111 16 4 0.060000 61.630000 59.240000 40.090000 0 0 0
112 16 4 0.060000 59.920000 56.830000 40.350000 0 0 0
113 16 4 0.060000 61.630000 56.890000 40.750000 0 0 0
114 17 5 0.000000 0.546000 56.360000 41.310000 1 0 0
115 17 2 -0.120000 0.326000 57.150000 41.290000 1 0 0
116 17 2 -0.120000 0.726000 55.570000 41.320000 1 0 0
117 17 4 0.060000 1.236000 57.820000 40.980000 1 0 0
118 17 4 0.060000 61.640000 57.280000 40.540000 0 0 0
119 17 4 0.060000 0.026000 54.990000 41.960000 1 0 0
120 17 4 0.060000 1.706000 55.440000 41.760000 1 0 0
121 18 5 0.000000 2.486000 55.160000 41.110000 1 0 0
122 18 2 -0.120000 2.046000 55.750000 41.470000 1 0 0
123 18 2 -0.120000 2.926000 54.540000 40.890000 1 0 0
124 18 4 0.060000 2.046000 56.410000 40.630000 1 0 0
125 18 4 0.060000 0.966000 55.540000 41.410000 1 0 0
126 18 4 0.060000 4.036000 54.800000 41.050000 1 0 0
127 18 4 0.060000 2.846000 54.340000 39.760000 1 0 0
128 19 5 0.000000 4.416000 54.340000 39.460000 1 0 0
129 19 2 -0.120000 4.216000 54.980000 39.870000 1 0 0
130 19 2 -0.120000 4.626000 53.690000 39.060000 1 0 0
131 19 4 0.060000 3.106000 54.820000 39.980000 1 0 0
132 19 4 0.060000 4.686000 55.010000 40.780000 1 0 0
133 19 4 0.060000 5.776000 53.950000 38.770000 1 0 0
134 19 4 0.060000 4.076000 53.700000 38.110000 1 0 0
135 20 5 0.000000 5.576000 52.760000 38.320000 1 0 0
136 20 2 -0.120000 5.206000 53.430000 38.530000 1 0 0
137 20 2 -0.120000 5.936000 52.140000 37.980000 1 0 0
138 20 4 0.060000 4.256000 53.200000 38.430000 1 0 0
139 20 4 0.060000 5.446000 53.610000 39.530000 1 0 0
140 20 4 0.060000 5.646000 51.470000 38.760000 1 0 0
141 20 4 0.060000 7.066000 52.300000 37.970000 1 0 0
142 21 5 0.000000 6.736000 50.640000 38.460000 1 0 0
143 21 2 -0.120000 6.236000 51.210000 38.800000 1 0 0
144 21 2 -0.120000 7.216000 50.010000 38.150000 1 0 0
145 21 4 0.060000 6.426000 52.150000 38.110000 1 0 0
146 21 4 0.060000 5.146000 51.000000 38.860000 1 0 0
147 21 4 0.060000 7.626000 49.380000 39.040000 1 0 0
148 21 4 0.060000 7.976000 50.610000 37.590000 1 0 0
149 22 5 0.000000 8.286000 49.170000 37.870000 1 0 0
150 22 2 -0.120000 7.886000 49.740000 38.280000 1 0 0
151 22 2 -0.120000 8.726000 48.560000 37.570000 1 0 0
152 22 4 0.060000 7.776000 50.460000 37.480000 1 0 0
153 22 4 0.060000 7.026000 49.180000 38.550000 1 0 0
154 22 4 0.060000 9.626000 49.170000 37.250000 1 0 0
155 22 4 0.060000 8.186000 48.220000 36.800000 1 0 0
156 23 5 0.000000 9.836000 48.170000 35.870000 1 0 0
157 23 2 -0.120000 9.596000 48.790000 36.260000 1 0 0
158 23 2 -0.120000 10.086000 47.590000 35.490000 1 0 0
159 23 4 0.060000 8.816000 48.320000 36.820000 1 0 0
160 23 4 0.060000 10.456000 49.080000 37.010000 1 0 0
161 23 4 0.060000 10.646000 47.790000 34.580000 1 0 0
162 23 4 0.060000 9.226000 47.000000 35.020000 1 0 0
163 24 5 0.000000 11.586000 49.490000 34.550000 1 0 0
164 24 2 -0.120000 10.836000 49.410000 34.410000 1 0 0
165 24 2 -0.120000 12.346000 49.580000 34.710000 1 0 0
166 24 4 0.060000 10.616000 48.580000 33.680000 1 0 0
167 24 4 0.060000 10.296000 49.200000 35.340000 1 0 0
168 24 4 0.060000 12.476000 50.530000 35.160000 1 0 0
169 24 4 0.060000 12.776000 49.600000 33.740000 1 0 0
170 25 5 0.000000 13.536000 50.630000 33.260000 1 0 0
171 25 2 -0.120000 12.746000 50.590000 33.230000 1 0 0
172 25 2 -0.120000 14.346000 50.660000 33.190000 1 0 0
173 25 4 0.060000 12.386000 49.580000 32.780000 1 0 0
174 25 4 0.060000 12.346000 50.880000 34.150000 1 0 0
175 25 4 0.060000 14.556000 50.480000 34.280000 1 0 0
176 25 4 0.060000 14.706000 51.750000 32.970000 1 0 0
177 26 5 0.000000 15.866000 50.860000 32.080000 1 0 0
178 26 2 -0.120000 15.196000 51.060000 31.740000 1 0 0
179 26 2 -0.120000 16.526000 50.670000 32.430000 1 0 0
180 26 4 0.060000 15.396000 51.370000 30.750000 1 0 0
181 26 4 0.060000 14.616000 50.170000 31.490000 1 0 0
182 26 4 0.060000 16.226000 50.420000 33.380000 1 0 0
183 26 4 0.060000 17.246000 51.500000 32.540000 1 0 0
184 27 5 0.000000 18.236000 50.540000 30.830000 1 0 0
185 27 2 -0.120000 17.646000 50.750000 30.470000 1 0 0
186 27 2 -0.120000 18.846000 50.310000 31.210000 1 0 0
187 27 4 0.060000 17.766000 51.090000 29.480000 1 0 0
188 27 4 0.060000 16.866000 49.840000 30.480000 1 0 0
189 27 4 0.060000 18.576000 50.340000 32.310000 1 0 0
190 27 4 0.060000 19.556000 51.130000 30.920000 1 0 0
191 28 5 0.000000 20.506000 50.120000 29.800000 1 0 0
192 28 2 -0.120000 19.816000 50.320000 29.520000 1 0 0
193 28 2 -0.120000 21.196000 49.910000 30.100000 1 0 0
194 28 4 0.060000 19.976000 50.320000 28.460000 1 0 0
195 28 4 0.060000 19.186000 49.510000 29.600000 1 0 0
196 28 4 0.060000 21.126000 49.940000 31.270000 1 0 0
197 28 4 0.060000 21.866000 50.780000 29.770000 1 0 0
198 29 5 0.000000 22.336000 49.150000 28.050000 1 0 0
199 29 2 -0.120000 22.586000 49.790000 27.630000 1 0 0
200 29 2 -0.120000 22.096000 48.520000 28.460000 1 0 0
201 29 4 0.060000 23.606000 49.990000 27.820000 1 0 0
202 29 4 0.060000 22.416000 49.640000 26.530000 1 0 0
203 29 4 0.060000 21.016000 48.220000 28.450000 1 0 0
204 29 4 0.060000 22.236000 48.720000 29.630000 1 0 0
205 30 5 0.000000 21.566000 49.010000 25.320000 1 0 0
206 30 2 -0.120000 21.736000 49.630000 24.800000 1 0 0
207 30 2 -0.120000 21.416000 48.390000 25.830000 1 0 0
208 30 4 0.060000 22.726000 49.710000 24.590000 1 0 0
209 30 4 0.060000 21.156000 49.530000 23.880000 1 0 0
210 30 4 0.060000 20.306000 48.160000 25.950000 1 0 0
211 30 4 0.060000 21.716000 48.530000 26.980000 1 0 0
212 31 5 0.000000 22.486000 50.680000 23.290000 1 0 0
213 31 2 -0.120000 21.696000 50.810000 23.310000 1 0 0
214 31 2 -0.120000 23.266000 50.630000 23.360000 1 0 0
215 31 4 0.060000 21.266000 50.640000 22.370000 1 0 0
216 31 4 0.060000 21.376000 50.170000 24.100000 1 0 0
217 31 4 0.060000 23.716000 51.350000 22.680000 1 0 0
218 31 4 0.060000 23.646000 49.640000 22.990000 1 0 0
219 32 5 0.000000 23.906000 49.400000 21.750000 1 0 0
220 32 2 -0.120000 23.096000 49.480000 21.580000 1 0 0
221 32 2 -0.120000 24.696000 49.260000 21.820000 1 0 0
222 32 4 0.060000 22.636000 48.730000 22.280000 1 0 0
223 32 4 0.060000 22.876000 50.360000 22.000000 1 0 0
224 32 4 0.060000 24.876000 49.760000 22.780000 1 0 0
225 32 4 0.060000 25.396000 49.550000 21.090000 1 0 0
226 33 5 0.000000 24.776000 47.860000 20.160000 1 0 0
227 33 2 -0.120000 24.056000 48.100000 19.980000 1 0 0
228 33 2 -0.120000 25.516000 47.610000 20.320000 1 0 0
229 33 4 0.060000 23.516000 47.580000 19.150000 1 0 0
230 33 4 0.060000 23.406000 47.820000 20.840000 1 0 0
231 33 4 0.060000 25.746000 48.300000 21.160000 1 0 0
232 33 4 0.060000 26.306000 47.870000 19.620000 1 0 0
233 34 5 0.000000 24.816000 46.620000 17.980000 1 0 0
234 34 2 -0.120000 24.626000 46.990000 18.610000 1 0 0
235 34 2 -0.120000 24.986000 46.210000 17.350000 1 0 0
236 34 4 0.060000 23.766000 46.720000 19.150000 1 0 0
237 34 4 0.060000 25.436000 47.130000 19.370000 1 0 0
238 34 4 0.060000 25.966000 46.670000 17.010000 1 0 0
239 34 4 0.060000 24.406000 46.390000 16.460000 1 0 0
240 35 5 0.000000 24.776000 45.420000 15.840000 1 0 0
241 35 2 -0.120000 24.736000 45.860000 16.490000 1 0 0
242 35 2 -0.120000 24.756000 45.110000 15.160000 1 0 0
243 35 4 0.060000 23.696000 45.590000 16.790000 1 0 0
244 35 4 0.060000 25.626000 45.380000 17.110000 1 0 0
245 35 4 0.060000 24.726000 43.990000 15.290000 1 0 0
246 35 4 0.060000 25.746000 45.230000 14.640000 1 0 0
247 36 5 0.000000 24.376000 44.530000 13.260000 1 0 0
248 36 2 -0.120000 24.316000 45.020000 13.870000 1 0 0
249 36 2 -0.120000 24.466000 44.030000 12.630000 1 0 0
250 36 4 0.060000 23.966000 45.970000 13.580000 1 0 0
251 36 4 0.060000 23.416000 44.750000 14.460000 1 0 0
252 36 4 0.060000 24.376000 42.960000 12.870000 1 0 0
253 36 4 0.060000 25.456000 44.490000 12.340000 1 0 0
254 37 5 0.000000 23.826000 43.700000 10.870000 1 0 0
255 37 2 -0.120000 24.616000 43.820000 10.730000 1 0 0
256 37 2 -0.120000 23.066000 43.460000 11.090000 1 0 0
257 37 4 0.060000 24.906000 43.410000 9.800000 1 0 0
258 37 4 0.060000 24.696000 44.850000 10.670000 1 0 0
259 37 4 0.060000 22.466000 43.680000 10.130000 1 0 0
260 37 4 0.060000 22.806000 44.170000 11.810000 1 0 0
261 38 5 0.000000 23.016000 42.910000 8.550000 1 0 0
262 38 2 -0.120000 23.716000 42.940000 8.360000 1 0 0
263 38 2 -0.120000 22.336000 42.820000 8.760000 1 0 0
264 38 4 0.060000 24.266000 42.910000 9.320000 1 0 0
265 38 4 0.060000 23.926000 42.610000 7.440000 1 0 0
266 38 4 0.060000 21.866000 43.210000 7.770000 1 0 0
267 38 4 0.060000 21.906000 43.590000 9.400000 1 0 0
268 39 5 0.000000 21.616000 41.310000 7.540000 1 0 0
269 39 2 -0.120000 22.406000 41.420000 7.630000 1 0 0
270 39 2 -0.120000 20.846000 41.230000 7.480000 1 0 0
271 39 4 0.060000 22.636000 41.330000 8.720000 1 0 0
272 39 4 0.060000 22.756000 40.580000 7.000000 1 0 0
273 39 4 0.060000 20.616000 40.820000 6.520000 1 0 0
274 39 4 0.060000 20.356000 42.150000 7.480000 1 0 0
275 40 5 0.000000 20.326000 39.080000 7.940000 1 0 0
276 40 2 -0.120000 20.056000 39.750000 7.980000 1 0 0
277 40 2 -0.120000 20.586000 38.390000 7.910000 1 0 0
278 40 4 0.060000 18.956000 39.750000 7.750000 1 0 0
279 40 4 0.060000 20.076000 40.190000 8.980000 1 0 0
280 40 4 0.060000 21.626000 38.530000 8.150000 1 0 0
281 40 4 0.060000 20.706000 38.010000 6.870000 1 0 0
282 41 5 0.000000 18.586000 37.350000 8.730000 1 0 0
283 41 2 -0.120000 18.176000 37.940000 8.450000 1 0 0
284 41 2 -0.120000 19.046000 36.760000 8.870000 1 0 0
285 41 4 0.060000 17.186000 37.660000 8.090000 1 0 0
286 41 4 0.060000 18.046000 38.390000 9.400000 1 0 0
287 41 4 0.060000 18.566000 36.260000 9.680000 1 0 0
288 41 4 0.060000 19.976000 37.060000 9.310000 1 0 0
289 42 5 0.000000 17.386000 35.860000 10.500000 1 0 0
290 42 2 -0.120000 16.806000 36.420000 10.400000 1 0 0
291 42 2 -0.120000 18.016000 35.410000 10.700000 1 0 0
292 42 4 0.060000 17.206000 36.950000 9.630000 1 0 0
293 42 4 0.060000 15.936000 35.870000 10.190000 1 0 0
294 42 4 0.060000 17.926000 34.840000 9.770000 1 0 0
295 42 4 0.060000 17.806000 34.510000 11.280000 1 0 0
296 43 5 0.000000 17.756000 35.080000 12.720000 1 0 0
297 43 2 -0.120000 17.036000 35.390000 12.880000 1 0 0
298 43 2 -0.120000 18.416000 34.640000 12.550000 1 0 0
299 43 4 0.060000 16.906000 35.450000 13.940000 1 0 0
300 43 4 0.060000 17.126000 36.470000 12.560000 1 0 0
301 43 4 0.060000 19.236000 35.250000 12.920000 1 0 0
302 43 4 0.060000 18.586000 34.660000 11.530000 1 0 0
303 44 5 0.000000 18.906000 35.000000 15.000000 1 0 0
304 44 2 -0.120000 18.886000 35.000000 14.240000 1 0 0
305 44 2 -0.120000 18.936000 35.010000 15.770000 1 0 0
306 44 4 0.060000 19.896000 34.440000 13.910000 1 0 0
307 44 4 0.060000 17.996000 34.570000 13.910000 1 0 0
308 44 4 0.060000 17.896000 35.190000 16.020000 1 0 0
309 44 4 0.060000 19.756000 35.750000 16.170000 1 0 0
310 45 5 0.000000 20.246000 35.160000 17.130000 1 0 0
311 45 2 -0.120000 20.666000 35.810000 17.250000 1 0 0
312 45 2 -0.120000 19.816000 34.530000 17.010000 1 0 0
313 45 4 0.060000 20.786000 35.810000 18.320000 1 0 0
314 45 4 0.060000 21.606000 35.410000 16.800000 1 0 0
315 45 4 0.060000 20.036000 34.340000 16.010000 1 0 0
316 45 4 0.060000 18.796000 34.740000 17.290000 1 0 0
317 46 5 0.000000 19.986000 36.600000 19.120000 1 0 0
318 46 2 -0.120000 19.816000 36.600000 18.350000 1 0 0
319 46 2 -0.120000 20.136000 36.600000 19.880000 1 0 0
320 46 4 0.060000 20.676000 36.140000 17.880000 1 0 0
321 46 4 0.060000 18.846000 36.070000 18.190000 1 0 0
322 46 4 0.060000 19.416000 37.130000 20.540000 1 0 0
323 46 4 0.060000 21.116000 37.070000 20.040000 1 0 0
324 47 5 0.000000 17.756000 36.870000 20.330000 1 0 0
325 47 2 -0.120000 17.546000 36.720000 19.600000 1 0 0
326 47 2 -0.120000 17.996000 36.990000 21.070000 1 0 0
327 47 4 0.060000 18.276000 36.260000 19.010000 1 0 0
328 47 4 0.060000 16.546000 36.280000 19.460000 1 0 0
329 47 4 0.060000 17.136000 37.380000 21.490000 1 0 0
330 47 4 0.060000 18.776000 37.790000 21.280000 1 0 0
331 48 5 0.000000 17.326000 37.090000 22.890000 1 0 0
332 48 2 -0.120000 16.706000 37.350000 23.230000 1 0 0
333 48 2 -0.120000 17.896000 36.840000 22.490000 1 0 0
334 48 4 0.060000 15.896000 36.730000 23.030000 1 0 0
335 48 4 0.060000 16.826000 37.440000 24.280000 1 0 0
336 48 4 0.060000 18.856000 36.640000 23.100000 1 0 0
337 48 4 0.060000 18.196000 37.550000 21.770000 1 0 0
338 49 5 0.000000 16.956000 38.630000 24.660000 1 0 0
339 49 2 -0.120000 16.456000 38.920000 25.140000 1 0 0
340 49 2 -0.120000 17.476000 38.340000 24.200000 1 0 0
341 49 4 0.060000 15.506000 38.850000 24.620000 1 0 0
342 49 4 0.060000 16.336000 38.230000 26.020000 1 0 0
343 49 4 0.060000 18.506000 38.650000 24.470000 1 0 0
344 49 4 0.060000 17.186000 38.920000 23.220000 1 0 0
345 50 1 0.000000 16.566000 39.880000 26.650000 1 0 0
346 50 2 -0.120000 15.856000 40.210000 26.930000 1 0 0
347 50 3 -0.180000 17.206000 39.640000 26.410000 1 0 0
348 50 4 0.060000 15.206000 39.920000 26.130000 1 0 0
349 50 4 0.060000 15.676000 39.740000 27.890000 1 0 0
350 50 4 0.060000 18.006000 40.390000 26.550000 1 0 0
351 50 4 0.060000 17.136000 39.340000 25.340000 1 0 0
352 50 4 0.060000 17.606000 38.910000 26.930000 1 0 0
353 51 1 0.000000 20.840000 22.010000 7.420000 0 0 0
354 51 2 -0.120000 20.900000 21.880000 6.670000 0 0 0
355 51 3 -0.180000 20.870000 22.120000 8.080000 0 0 0
356 51 4 0.060000 20.580000 22.860000 6.170000 0 0 0
357 51 4 0.060000 19.990000 21.130000 6.500000 0 0 0
358 51 4 0.060000 21.300000 21.310000 8.760000 0 0 0
359 51 4 0.060000 19.880000 22.050000 8.370000 0 0 0
360 51 4 0.060000 21.410000 23.070000 8.340000 0 0 0
361 52 5 0.000000 20.820000 19.530000 8.410000 0 0 0
362 52 2 -0.120000 20.600000 20.230000 8.290000 0 0 0
363 52 2 -0.120000 21.020000 18.830000 8.510000 0 0 0
364 52 4 0.060000 21.380000 20.730000 8.710000 0 0 0
365 52 4 0.060000 20.630000 20.410000 7.180000 0 0 0
366 52 4 0.060000 20.150000 18.200000 8.500000 0 0 0
367 52 4 0.060000 21.470000 18.800000 9.490000 0 0 0
368 53 5 0.000000 20.960000 17.120000 9.230000 0 0 0
369 53 2 -0.120000 21.150000 17.450000 9.900000 0 0 0
370 53 2 -0.120000 20.650000 16.770000 8.610000 0 0 0
371 53 4 0.060000 21.850000 16.840000 10.450000 0 0 0
372 53 4 0.060000 22.070000 18.080000 9.680000 0 0 0
373 53 4 0.060000 21.490000 16.380000 7.970000 0 0 0
374 53 4 0.060000 19.830000 17.350000 8.150000 0 0 0
375 54 5 0.000000 19.300000 15.300000 8.470000 0 0 0
376 54 2 -0.120000 19.450000 15.700000 9.140000 0 0 0
377 54 2 -0.120000 19.120000 14.900000 7.810000 0 0 0
378 54 4 0.060000 18.520000 15.820000 9.650000 0 0 0
379 54 4 0.060000 20.110000 15.170000 9.760000 0 0 0
380 54 4 0.060000 20.140000 14.720000 7.300000 0 0 0
381 54 4 0.060000 18.720000 15.460000 7.070000 0 0 0
382 55 5 0.000000 16.680000 15.010000 9.040000 0 0 0
383 55 2 -0.120000 16.220000 15.620000 8.780000 0 0 0
384 55 2 -0.120000 17.160000 14.390000 9.250000 0 0 0
385 55 4 0.060000 15.860000 15.500000 7.820000 0 0 0
386 55 4 0.060000 15.370000 15.620000 9.390000 0 0 0
387 55 4 0.060000 17.100000 14.350000 10.300000 0 0 0
388 55 4 0.060000 18.190000 14.770000 9.220000 0 0 0
389 56 5 0.000000 14.070000 14.950000 9.760000 0 0 0
390 56 2 -0.120000 14.800000 15.170000 9.700000 0 0 0
391 56 2 -0.120000 13.330000 14.730000 9.820000 0 0 0
392 56 4 0.060000 15.470000 14.460000 10.090000 0 0 0
393 56 4 0.060000 15.010000 15.080000 8.640000 0 0 0
394 56 4 0.060000 12.730000 15.540000 9.470000 0 0 0
395 56 4 0.060000 13.060000 14.730000 10.820000 0 0 0
396 57 5 0.000000 12.560000 13.550000 8.490000 0 0 0
397 57 2 -0.120000 13.270000 13.870000 8.520000 0 0 0
398 57 2 -0.120000 11.800000 13.370000 8.420000 0 0 0
399 57 4 0.060000 13.800000 13.140000 9.190000 0 0 0
400 57 4 0.060000 13.850000 13.590000 7.600000 0 0 0
401 57 4 0.060000 11.200000 13.560000 9.240000 0 0 0
402 57 4 0.060000 11.880000 12.320000 8.470000 0 0 0
403 58 5 0.000000 11.340000 11.930000 7.300000 0 0 0
404 58 2 -0.120000 11.720000 12.430000 7.720000 0 0 0
405 58 2 -0.120000 10.930000 11.440000 6.890000 0 0 0
406 58 4 0.060000 12.340000 12.770000 7.000000 0 0 0
407 58 4 0.060000 11.220000 13.210000 8.250000 0 0 0
408 58 4 0.060000 10.320000 10.700000 7.420000 0 0 0
409 58 4 0.060000 11.740000 10.870000 6.490000 0 0 0
410 59 5 0.000000 11.330000 9.810000 6.330000 0 0 0
411 59 2 -0.120000 11.790000 10.310000 6.710000 0 0 0
412 59 2 -0.120000 10.870000 9.300000 5.930000 0 0 0
413 59 4 0.060000 12.530000 10.850000 6.080000 0 0 0
414 59 4 0.060000 11.040000 11.120000 7.120000 0 0 0
415 59 4 0.060000 10.200000 8.970000 6.690000 0 0 0
416 59 4 0.060000 11.490000 8.540000 5.550000 0 0 0
417 60 5 0.000000 12.330000 8.020000 4.580000 0 0 0
418 60 2 -0.120000 13.040000 8.220000 4.790000 0 0 0
419 60 2 -0.120000 11.650000 7.680000 4.410000 0 0 0
420 60 4 0.060000 13.770000 8.360000 3.970000 0 0 0
421 60 4 0.060000 12.810000 9.160000 5.250000 0 0 0
422 60 4 0.060000 11.450000 8.070000 3.350000 0 0 0
423 60 4 0.060000 10.850000 8.160000 5.140000 0 0 0
424 61 5 0.000000 13.190000 5.600000 3.650000 0 0 0
425 61 2 -0.120000 13.190000 5.990000 4.340000 0 0 0
426 61 2 -0.120000 13.190000 5.200000 2.960000 0 0 0
427 61 4 0.060000 12.060000 5.970000 4.520000 0 0 0
428 61 4 0.060000 13.750000 5.480000 5.130000 0 0 0
429 61 4 0.060000 14.200000 5.210000 2.610000 0 0 0
430 61 4 0.060000 12.750000 5.910000 2.280000 0 0 0
431 62 5 0.000000 15.420000 4.730000 2.620000 0 0 0
432 62 2 -0.120000 15.500000 5.210000 3.170000 0 0 0
433 62 2 -0.120000 15.290000 4.350000 2.000000 0 0 0
434 62 4 0.060000 14.550000 5.300000 3.870000 0 0 0
435 62 4 0.060000 16.100000 4.740000 3.940000 0 0 0
436 62 4 0.060000 15.380000 3.210000 2.030000 0 0 0
437 62 4 0.060000 16.230000 4.400000 1.450000 0 0 0
438 63 5 0.000000 17.720000 3.910000 1.660000 0 0 0
439 63 2 -0.120000 18.450000 3.880000 1.390000 0 0 0
440 63 2 -0.120000 17.060000 3.830000 2.020000 0 0 0
441 63 4 0.060000 18.300000 3.290000 0.600000 0 0 0
442 63 4 0.060000 18.670000 4.920000 1.040000 0 0 0
443 63 4 0.060000 16.220000 4.120000 1.400000 0 0 0
444 63 4 0.060000 16.850000 4.610000 2.610000 0 0 0
445 64 5 0.000000 18.310000 2.100000 3.150000 0 0 0
446 64 2 -0.120000 18.270000 2.090000 2.390000 0 0 0
447 64 2 -0.120000 18.340000 2.090000 3.920000 0 0 0
448 64 4 0.060000 18.810000 1.270000 1.890000 0 0 0
449 64 4 0.060000 17.200000 2.010000 2.120000 0 0 0
450 64 4 0.060000 18.060000 3.120000 4.140000 0 0 0
451 64 4 0.060000 19.370000 2.110000 4.350000 0 0 0
452 65 5 0.000000 18.590000 0.910000 5.480000 0 0 0
453 65 2 -0.120000 18.440000 1.660000 5.480000 0 0 0
454 65 2 -0.120000 18.840000 0.180000 5.460000 0 0 0
455 65 4 0.060000 17.390000 1.790000 5.330000 0 0 0
456 65 4 0.060000 18.430000 1.970000 6.600000 0 0 0
457 65 4 0.060000 19.250000 0.080000 4.420000 0 0 0
458 65 4 0.060000 18.060000 61.444000 5.730000 0 -1 0
459 66 5 0.000000 18.180000 1.890000 7.840000 0 0 0
460 66 2 -0.120000 18.070000 2.650000 7.750000 0 0 0
461 66 2 -0.120000 18.250000 1.130000 7.810000 0 0 0
462 66 4 0.060000 17.690000 2.950000 8.740000 0 0 0
463 66 4 0.060000 19.050000 3.150000 7.690000 0 0 0
464 66 4 0.060000 17.340000 0.740000 7.950000 0 0 0
465 66 4 0.060000 19.050000 0.800000 8.350000 0 0 0
466 67 5 0.000000 18.650000 0.780000 10.040000 0 0 0
467 67 2 -0.120000 18.430000 1.570000 10.020000 0 0 0
468 67 2 -0.120000 18.830000 61.994000 10.050000 0 -1 0
469 67 4 0.060000 19.340000 2.240000 9.710000 0 0 0
470 67 4 0.060000 17.740000 1.700000 9.270000 0 0 0
471 67 4 0.060000 18.130000 61.414000 10.690000 0 -1 0
472 67 4 0.060000 19.810000 61.864000 10.490000 0 -1 0
473 68 5 0.000000 19.370000 61.804000 12.440000 0 -1 0
474 68 2 -0.120000 18.930000 0.390000 12.800000 0 0 0
475 68 2 -0.120000 19.810000 61.184000 12.220000 0 -1 0
476 68 4 0.060000 18.930000 1.050000 11.960000 0 0 0
477 68 4 0.060000 17.850000 0.180000 12.740000 0 0 0
478 68 4 0.060000 20.920000 61.444000 12.380000 0 -1 0
479 68 4 0.060000 19.730000 60.984000 11.090000 0 -1 0
480 69 5 0.000000 21.270000 61.444000 13.900000 0 -1 0
481 69 2 -0.120000 21.070000 0.080000 14.310000 0 0 0
482 69 2 -0.120000 21.480000 60.794000 13.500000 0 -1 0
483 69 4 0.060000 19.960000 61.924000 14.420000 0 -1 0
484 69 4 0.060000 21.540000 0.110000 15.220000 0 0 0
485 69 4 0.060000 22.630000 61.054000 13.210000 0 -1 0
486 69 4 0.060000 20.930000 60.804000 12.550000 0 -1 0
487 70 5 0.000000 23.640000 61.634000 12.800000 0 -1 0
488 70 2 -0.120000 23.270000 0.300000 13.010000 0 0 0
489 70 2 -0.120000 24.000000 61.014000 12.460000 0 -1 0
490 70 4 0.060000 22.320000 0.070000 12.910000 0 0 0
491 70 4 0.060000 23.510000 0.480000 14.010000 0 0 0
492 70 4 0.060000 23.710000 60.344000 13.240000 0 -1 0
493 70 4 0.060000 25.130000 61.174000 12.450000 0 -1 0
494 71 5 0.000000 25.850000 0.060000 11.440000 0 0 0
495 71 2 -0.120000 25.350000 0.630000 11.780000 0 0 0
496 71 2 -0.120000 26.330000 61.434000 11.130000 0 -1 0
497 71 4 0.060000 25.540000 1.570000 11.090000 0 0 0
498 71 4 0.060000 24.260000 0.420000 11.840000 0 0 0
499 71 4 0.060000 26.740000 60.804000 12.020000 0 -1 0
500 71 4 0.060000 27.090000 0.030000 10.570000 0 0 0
501 72 5 0.000000 28.340000 61.314000 12.260000 0 -1 0
502 72 2 -0.120000 27.940000 61.884000 12.670000 0 -1 0
503 72 2 -0.120000 28.780000 60.704000 11.960000 0 -1 0
504 72 4 0.060000 27.830000 0.600000 11.870000 0 0 0
505 72 4 0.060000 27.080000 61.324000 12.940000 0 -1 0
506 72 4 0.060000 29.680000 61.314000 11.640000 0 -1 0
507 72 4 0.060000 28.240000 60.364000 11.190000 0 -1 0
508 73 5 0.000000 30.520000 0.780000 12.740000 0 0 0
509 73 2 -0.120000 30.280000 1.400000 13.130000 0 0 0
510 73 2 -0.120000 30.770000 0.200000 12.360000 0 0 0
511 73 4 0.060000 29.500000 0.930000 13.690000 0 0 0
512 73 4 0.060000 31.140000 1.690000 13.880000 0 0 0
513 73 4 0.060000 31.330000 0.400000 11.450000 0 0 0
514 73 4 0.060000 29.910000 61.614000 11.890000 0 -1 0
515 74 5 0.000000 31.790000 1.750000 11.080000 0 0 0
516 74 2 -0.120000 31.040000 1.670000 10.940000 0 0 0
517 74 2 -0.120000 32.550000 1.840000 11.240000 0 0 0
518 74 4 0.060000 30.820000 0.840000 10.210000 0 0 0
519 74 4 0.060000 30.500000 1.460000 11.870000 0 0 0
520 74 4 0.060000 32.680000 2.790000 11.690000 0 0 0
521 74 4 0.060000 32.980000 1.860000 10.270000 0 0 0
522 75 5 0.000000 32.120000 3.400000 9.380000 0 0 0
523 75 2 -0.120000 31.330000 3.360000 9.350000 0 0 0
524 75 2 -0.120000 32.930000 3.430000 9.310000 0 0 0
525 75 4 0.060000 30.970000 2.350000 8.900000 0 0 0
526 75 4 0.060000 30.930000 3.650000 10.270000 0 0 0
527 75 4 0.060000 33.140000 3.250000 10.400000 0 0 0
528 75 4 0.060000 33.290000 4.520000 9.090000 0 0 0
529 76 5 0.000000 32.040000 5.790000 8.240000 0 0 0
530 76 2 -0.120000 31.370000 5.990000 7.900000 0 0 0
531 76 2 -0.120000 32.700000 5.600000 8.590000 0 0 0
532 76 4 0.060000 31.570000 6.300000 6.910000 0 0 0
533 76 4 0.060000 30.790000 5.100000 7.650000 0 0 0
534 76 4 0.060000 32.400000 5.350000 9.540000 0 0 0
535 76 4 0.060000 33.420000 6.430000 8.700000 0 0 0
536 77 5 0.000000 32.220000 8.270000 7.430000 0 0 0
537 77 2 -0.120000 31.630000 8.480000 7.070000 0 0 0
538 77 2 -0.120000 32.830000 8.040000 7.810000 0 0 0
539 77 4 0.060000 31.750000 8.820000 6.080000 0 0 0
540 77 4 0.060000 30.850000 7.570000 7.080000 0 0 0
541 77 4 0.060000 32.560000 8.070000 8.910000 0 0 0
542 77 4 0.060000 33.540000 8.860000 7.520000 0 0 0
543 78 5 0.000000 31.490000 9.100000 5.070000 0 0 0
544 78 2 -0.120000 30.800000 9.300000 4.790000 0 0 0
545 78 2 -0.120000 32.180000 8.890000 5.370000 0 0 0
546 78 4 0.060000 30.960000 9.300000 3.730000 0 0 0
547 78 4 0.060000 30.170000 8.490000 4.870000 0 0 0
548 78 4 0.060000 32.110000 8.920000 6.540000 0 0 0
549 78 4 0.060000 32.850000 9.760000 5.040000 0 0 0
550 79 5 0.000000 31.840000 9.550000 2.730000 0 0 0
551 79 2 -0.120000 32.090000 10.190000 2.310000 0 0 0
552 79 2 -0.120000 31.600000 8.920000 3.140000 0 0 0
553 79 4 0.060000 33.110000 10.390000 2.500000 0 0 0
554 79 4 0.060000 31.920000 10.040000 1.210000 0 0 0
555 79 4 0.060000 30.520000 8.620000 3.130000 0 0 0
556 79 4 0.060000 31.740000 9.120000 4.310000 0 0 0
557 80 5 0.000000 32.890000 11.970000 2.300000 0 0 0
558 80 2 -0.120000 33.060000 12.590000 1.780000 0 0 0
559 80 2 -0.120000 32.740000 11.350000 2.810000 0 0 0
560 80 4 0.060000 34.050000 12.670000 1.570000 0 0 0
561 80 4 0.060000 32.480000 12.490000 0.860000 0 0 0
562 80 4 0.060000 31.630000 11.120000 2.930000 0 0 0
563 80 4 0.060000 33.040000 11.490000 3.960000 0 0 0
564 81 5 0.000000 33.880000 12.640000 0.220000 0 0 0
565 81 2 -0.120000 33.090000 12.770000 0.240000 0 0 0
566 81 2 -0.120000 34.660000 12.590000 0.290000 0 0 0
567 81 4 0.060000 32.660000 12.600000 61.304000 0 0 -1
568 81 4 0.060000 32.770000 12.130000 1.030000 0 0 0
569 81 4 0.060000 35.110000 13.310000 61.614000 0 0 -1
570 81 4 0.060000 35.040000 11.600000 61.924000 0 0 -1
571 82 5 0.000000 32.520000 14.770000 61.024000 0 0 -1
572 82 2 -0.120000 31.710000 14.850000 60.854000 0 0 -1
573 82 2 -0.120000 33.310000 14.630000 61.094000 0 0 -1
574 82 4 0.060000 31.250000 14.100000 61.554000 0 0 -1
575 82 4 0.060000 31.490000 15.730000 61.274000 0 0 -1
576 82 4 0.060000 33.490000 15.130000 0.050000 0 0 0
577 82 4 0.060000 34.010000 14.920000 60.364000 0 0 -1
578 83 5 0.000000 31.500000 16.950000 59.894000 0 0 -1
579 83 2 -0.120000 30.780000 17.190000 59.714000 0 0 -1
580 83 2 -0.120000 32.240000 16.700000 60.054000 0 0 -1
581 83 4 0.060000 30.240000 16.670000 58.884000 0 0 -1
582 83 4 0.060000 30.130000 16.910000 60.574000 0 0 -1
583 83 4 0.060000 32.470000 17.390000 60.894000 0 0 -1
584 83 4 0.060000 33.030000 16.960000 59.354000 0 0 -1
585 84 5 0.000000 32.740000 18.880000 59.554000 0 0 -1
586 84 2 -0.120000 32.550000 19.250000 60.184000 0 0 -1
587 84 2 -0.120000 32.910000 18.470000 58.924000 0 0 -1
588 84 4 0.060000 31.690000 18.980000 60.724000 0 0 -1
589 84 4 0.060000 33.360000 19.390000 60.944000 0 0 -1
590 84 4 0.060000 33.890000 18.930000 58.584000 0 0 -1
591 84 4 0.060000 32.330000 18.650000 58.034000 0 0 -1
592 85 5 0.000000 33.510000 20.930000 58.904000 0 0 -1
593 85 2 -0.120000 33.470000 21.370000 59.554000 0 0 -1
594 85 2 -0.120000 33.490000 20.620000 58.224000 0 0 -1
595 85 4 0.060000 32.430000 21.100000 59.854000 0 0 -1
596 85 4 0.060000 34.360000 20.890000 60.174000 0 0 -1
597 85 4 0.060000 33.460000 19.500000 58.354000 0 0 -1
598 85 4 0.060000 34.480000 20.740000 57.704000 0 0 -1
599 86 5 0.000000 33.780000 23.230000 57.824000 0 0 -1
600 86 2 -0.120000 33.720000 23.720000 58.434000 0 0 -1
601 86 2 -0.120000 33.870000 22.730000 57.194000 0 0 -1
602 86 4 0.060000 33.370000 24.670000 58.144000 0 0 -1
603 86 4 0.060000 32.820000 23.450000 59.024000 0 0 -1
604 86 4 0.060000 33.780000 21.660000 57.434000 0 0 -1
605 86 4 0.060000 34.860000 23.190000 56.904000 0 0 -1
606 87 5 0.000000 34.850000 25.300000 57.954000 0 0 -1
607 87 2 -0.120000 35.640000 25.420000 57.814000 0 0 -1
608 87 2 -0.120000 34.090000 25.060000 58.174000 0 0 -1
609 87 4 0.060000 35.930000 25.010000 56.884000 0 0 -1
610 87 4 0.060000 35.720000 26.450000 57.754000 0 0 -1
611 87 4 0.060000 33.490000 25.280000 57.214000 0 0 -1
612 87 4 0.060000 33.830000 25.770000 58.894000 0 0 -1
613 88 5 0.000000 34.090000 25.920000 60.084000 0 0 -1
614 88 2 -0.120000 34.790000 25.950000 59.894000 0 0 -1
615 88 2 -0.120000 33.410000 25.830000 60.294000 0 0 -1
616 88 4 0.060000 35.340000 25.920000 60.854000 0 0 -1
617 88 4 0.060000 35.000000 25.620000 58.974000 0 0 -1
618 88 4 0.060000 32.940000 26.220000 59.304000 0 0 -1
619 88 4 0.060000 32.980000 26.600000 60.934000 0 0 -1
620 89 5 0.000000 32.960000 26.250000 0.190000 0 0 0
621 89 2 -0.120000 33.750000 26.360000 0.280000 0 0 0
622 89 2 -0.120000 32.190000 26.170000 0.130000 0 0 0
623 89 4 0.060000 33.980000 26.270000 1.370000 0 0 0
624 89 4 0.060000 34.100000 25.520000 61.654000 0 0 -1
625 89 4 0.060000 31.960000 25.760000 61.174000 0 0 -1
626 89 4 0.060000 31.700000 27.090000 0.130000 0 0 0
627 90 5 0.000000 33.890000 28.270000 1.030000 0 0 0
628 90 2 -0.120000 33.620000 28.940000 1.070000 0 0 0
629 90 2 -0.120000 34.150000 27.580000 1.000000 0 0 0
630 90 4 0.060000 32.520000 28.940000 0.840000 0 0 0
631 90 4 0.060000 33.640000 29.380000 2.070000 0 0 0
632 90 4 0.060000 35.190000 27.720000 1.240000 0 0 0
633 90 4 0.060000 34.270000 27.200000 61.964000 0 0 -1
634 91 5 0.000000 32.030000 29.100000 2.400000 0 0 0
635 91 2 -0.120000 31.620000 29.690000 2.120000 0 0 0
636 91 2 -0.120000 32.490000 28.510000 2.540000 0 0 0
637 91 4 0.060000 30.630000 29.410000 1.760000 0 0 0
638 91 4 0.060000 31.490000 30.140000 3.070000 0 0 0
639 91 4 0.060000 32.010000 28.010000 3.350000 0 0 0
640 91 4 0.060000 33.420000 28.810000 2.980000 0 0 0
641 92 5 0.000000 30.360000 29.860000 4.450000 0 0 0
642 92 2 -0.120000 29.780000 30.420000 4.350000 0 0 0
643 92 2 -0.120000 30.990000 29.410000 4.650000 0 0 0
644 92 4 0.060000 30.180000 30.950000 3.580000 0 0 0
645 92 4 0.060000 28.910000 29.870000 4.140000 0 0 0
646 92 4 0.060000 30.900000 28.840000 3.720000 0 0 0
647 92 4 0.060000 30.780000 28.510000 5.230000 0 0 0
648 93 5 0.000000 31.740000 29.540000 6.550000 0 0 0
649 93 2 -0.120000 31.020000 29.850000 6.710000 0 0 0
650 93 2 -0.120000 32.400000 29.100000 6.380000 0 0 0
651 93 4 0.060000 30.890000 29.910000 7.770000 0 0 0
652 93 4 0.060000 31.110000 30.930000 6.390000 0 0 0
653 93 4 0.060000 33.220000 29.710000 6.750000 0 0 0
654 93 4 0.060000 32.570000 29.120000 5.360000 0 0 0
655 94 5 0.000000 33.740000 31.380000 7.040000 0 0 0
656 94 2 -0.120000 33.720000 31.380000 6.280000 0 0 0
657 94 2 -0.120000 33.770000 31.390000 7.810000 0 0 0
658 94 4 0.060000 34.730000 30.820000 5.950000 0 0 0
659 94 4 0.060000 32.830000 30.950000 5.950000 0 0 0
660 94 4 0.060000 32.730000 31.570000 8.060000 0 0 0
661 94 4 0.060000 34.590000 32.130000 8.210000 0 0 0
662 95 5 0.000000 35.330000 31.960000 5.130000 0 0 0
663 95 2 -0.120000 35.750000 32.610000 5.250000 0 0 0
664 95 2 -0.120000 34.900000 31.330000 5.010000 0 0 0
665 95 4 0.060000 35.870000 32.610000 6.320000 0 0 0
666 95 4 0.060000 36.690000 32.210000 4.800000 0 0 0
667 95 4 0.060000 35.120000 31.140000 4.010000 0 0 0
668 95 4 0.060000 33.880000 31.540000 5.290000 0 0 0
669 96 5 0.000000 36.120000 33.160000 3.290000 0 0 0
670 96 2 -0.120000 35.950000 33.160000 2.520000 0 0 0
671 96 2 -0.120000 36.270000 33.160000 4.050000 0 0 0
672 96 4 0.060000 36.810000 32.690000 2.050000 0 0 0
673 96 4 0.060000 34.980000 32.630000 2.360000 0 0 0
674 96 4 0.060000 35.550000 33.690000 4.710000 0 0 0
675 96 4 0.060000 37.250000 33.620000 4.210000 0 0 0
676 97 5 0.000000 35.780000 34.240000 1.260000 0 0 0
677 97 2 -0.120000 35.570000 34.090000 0.530000 0 0 0
678 97 2 -0.120000 36.020000 34.360000 2.000000 0 0 0
679 97 4 0.060000 36.300000 33.630000 61.944000 0 0 -1
680 97 4 0.060000 34.570000 33.650000 0.390000 0 0 0
681 97 4 0.060000 35.160000 34.750000 2.420000 0 0 0
682 97 4 0.060000 36.800000 35.160000 2.210000 0 0 0
683 98 5 0.000000 35.480000 33.350000 60.924000 0 0 -1
684 98 2 -0.120000 34.860000 33.610000 61.264000 0 0 -1
685 98 2 -0.120000 36.050000 33.100000 60.524000 0 0 -1
686 98 4 0.060000 34.050000 32.990000 61.064000 0 0 -1
687 98 4 0.060000 34.980000 33.700000 0.310000 0 0 0
688 98 4 0.060000 37.010000 32.900000 61.134000 0 0 -1
689 98 4 0.060000 36.350000 33.810000 59.804000 0 0 -1
690 99 5 0.000000 35.860000 31.850000 58.964000 0 0 -1
691 99 2 -0.120000 35.360000 32.140000 59.444000 0 0 -1
692 99 2 -0.120000 36.380000 31.560000 58.504000 0 0 -1
693 99 4 0.060000 34.410000 32.070000 58.924000 0 0 -1
694 99 4 0.060000 35.240000 31.450000 60.324000 0 0 -1
695 99 4 0.060000 37.410000 31.870000 58.774000 0 0 -1
696 99 4 0.060000 36.090000 32.140000 57.524000 0 0 -1
697 100 1 0.000000 37.100000 30.150000 57.604000 0 0 -1
698 100 2 -0.120000 36.390000 30.480000 57.884000 0 0 -1
699 100 3 -0.180000 37.740000 29.910000 57.364000 0 0 -1
700 100 4 0.060000 35.740000 30.190000 57.084000 0 0 -1
701 100 4 0.060000 36.210000 30.010000 58.844000 0 0 -1
702 100 4 0.060000 38.540000 30.660000 57.504000 0 0 -1
703 100 4 0.060000 37.670000 29.610000 56.294000 0 0 -1
704 100 4 0.060000 38.140000 29.180000 57.884000 0 0 -1
705 101 1 0.000000 40.410000 44.850000 23.540000 0 0 0
706 101 2 -0.120000 40.470000 44.720000 22.790000 0 0 0
707 101 3 -0.180000 40.440000 44.960000 24.200000 0 0 0
708 101 4 0.060000 40.150000 45.700000 22.290000 0 0 0
709 101 4 0.060000 39.560000 43.970000 22.620000 0 0 0
710 101 4 0.060000 40.870000 44.150000 24.880000 0 0 0
711 101 4 0.060000 39.450000 44.890000 24.490000 0 0 0
712 101 4 0.060000 40.980000 45.910000 24.460000 0 0 0
713 102 5 0.000000 37.970000 46.080000 23.740000 0 0 0
714 102 2 -0.120000 37.750000 46.780000 23.620000 0 0 0
715 102 2 -0.120000 38.170000 45.380000 23.840000 0 0 0
716 102 4 0.060000 38.530000 47.280000 24.040000 0 0 0
717 102 4 0.060000 37.780000 46.960000 22.510000 0 0 0
718 102 4 0.060000 37.300000 44.750000 23.830000 0 0 0
719 102 4 0.060000 38.620000 45.350000 24.820000 0 0 0
720 103 5 0.000000 38.040000 48.340000 25.100000 0 0 0
721 103 2 -0.120000 38.230000 48.670000 25.770000 0 0 0
722 103 2 -0.120000 37.730000 47.990000 24.480000 0 0 0
723 103 4 0.060000 38.930000 48.060000 26.320000 0 0 0
724 103 4 0.060000 39.150000 49.300000 25.550000 0 0 0
725 103 4 0.060000 38.570000 47.600000 23.840000 0 0 0
726 103 4 0.060000 36.910000 48.570000 24.020000 0 0 0
727 104 5 0.000000 38.810000 50.690000 24.190000 0 0 0
728 104 2 -0.120000 38.960000 51.090000 24.860000 0 0 0
729 104 2 -0.120000 38.630000 50.290000 23.530000 0 0 0
730 104 4 0.060000 38.030000 51.210000 25.370000 0 0 0
731 104 4 0.060000 39.620000 50.560000 25.480000 0 0 0
732 104 4 0.060000 39.650000 50.110000 23.020000 0 0 0
733 104 4 0.060000 38.230000 50.850000 22.790000 0 0 0
734 105 5 0.000000 39.300000 53.360000 23.670000 0 0 0
735 105 2 -0.120000 38.840000 53.970000 23.410000 0 0 0
736 105 2 -0.120000 39.780000 52.740000 23.880000 0 0 0
737 105 4 0.060000 38.480000 53.850000 22.450000 0 0 0
738 105 4 0.060000 37.990000 53.970000 24.020000 0 0 0
739 105 4 0.060000 39.720000 52.700000 24.930000 0 0 0
740 105 4 0.060000 40.810000 53.120000 23.850000 0 0 0
741 106 5 0.000000 37.430000 55.160000 24.380000 0 0 0
742 106 2 -0.120000 38.160000 55.380000 24.320000 0 0 0
743 106 2 -0.120000 36.690000 54.940000 24.440000 0 0 0
744 106 4 0.060000 38.830000 54.670000 24.710000 0 0 0
745 106 4 0.060000 38.370000 55.290000 23.260000 0 0 0
746 106 4 0.060000 36.090000 55.750000 24.090000 0 0 0
747 106 4 0.060000 36.420000 54.940000 25.440000 0 0 0
748 107 5 0.000000 35.630000 56.490000 24.250000 0 0 0
749 107 2 -0.120000 36.340000 56.810000 24.280000 0 0 0
750 107 2 -0.120000 34.870000 56.310000 24.180000 0 0 0
751 107 4 0.060000 36.870000 56.080000 24.950000 0 0 0
752 107 4 0.060000 36.920000 56.530000 23.360000 0 0 0
753 107 4 0.060000 34.270000 56.500000 25.000000 0 0 0
754 107 4 0.060000 34.950000 55.260000 24.230000 0 0 0
755 108 5 0.000000 33.520000 56.760000 23.090000 0 0 0
756 108 2 -0.120000 33.900000 57.260000 23.510000 0 0 0
757 108 2 -0.120000 33.110000 56.270000 22.680000 0 0 0
758 108 4 0.060000 34.520000 57.600000 22.790000 0 0 0
759 108 4 0.060000 33.400000 58.040000 24.040000 0 0 0
760 108 4 0.060000 32.500000 55.530000 23.210000 0 0 0
761 108 4 0.060000 33.920000 55.700000 22.280000 0 0 0
762 109 5 0.000000 32.650000 56.270000 20.660000 0 0 0
763 109 2 -0.120000 33.110000 56.770000 21.040000 0 0 0
764 109 2 -0.120000 32.190000 55.760000 20.260000 0 0 0
765 109 4 0.060000 33.850000 57.310000 20.410000 0 0 0
766 109 4 0.060000 32.360000 57.580000 21.450000 0 0 0
767 109 4 0.060000 31.520000 55.430000 21.020000 0 0 0
768 109 4 0.060000 32.810000 55.000000 19.880000 0 0 0
769 110 5 0.000000 31.850000 55.800000 18.190000 0 0 0
770 110 2 -0.120000 32.560000 56.000000 18.400000 0 0 0
771 110 2 -0.120000 31.170000 55.460000 18.020000 0 0 0
772 110 4 0.060000 33.290000 56.140000 17.580000 0 0 0
773 110 4 0.060000 32.330000 56.940000 18.860000 0 0 0
774 110 4 0.060000 30.970000 55.850000 16.960000 0 0 0
775 110 4 0.060000 30.370000 55.940000 18.750000 0 0 0
776 111 5 0.000000 31.000000 55.670000 15.660000 0 0 0
777 111 2 -0.120000 31.000000 56.060000 16.350000 0 0 0
778 111 2 -0.120000 31.000000 55.270000 14.970000 0 0 0
779 111 4 0.060000 29.870000 56.040000 16.530000 0 0 0
780 111 4 0.060000 31.560000 55.550000 17.140000 0 0 0
781 111 4 0.060000 32.010000 55.280000 14.620000 0 0 0
782 111 4 0.060000 30.560000 55.980000 14.290000 0 0 0
783 112 5 0.000000 30.040000 55.940000 13.240000 0 0 0
784 112 2 -0.120000 30.120000 56.420000 13.790000 0 0 0
785 112 2 -0.120000 29.910000 55.560000 12.620000 0 0 0
786 112 4 0.060000 29.170000 56.510000 14.490000 0 0 0
787 112 4 0.060000 30.720000 55.950000 14.560000 0 0 0
788 112 4 0.060000 30.000000 54.420000 12.650000 0 0 0
789 112 4 0.060000 30.850000 55.610000 12.070000 0 0 0
790 113 5 0.000000 28.880000 56.720000 11.010000 0 0 0
791 113 2 -0.120000 29.610000 56.690000 10.740000 0 0 0
792 113 2 -0.120000 28.220000 56.640000 11.370000 0 0 0
793 113 4 0.060000 29.460000 56.100000 9.950000 0 0 0
794 113 4 0.060000 29.830000 57.730000 10.390000 0 0 0
795 113 4 0.060000 27.380000 56.930000 10.750000 0 0 0
796 113 4 0.060000 28.010000 57.420000 11.960000 0 0 0
797 114 5 0.000000 27.520000 57.790000 9.050000 0 0 0
798 114 2 -0.120000 27.480000 57.780000 8.290000 0 0 0
799 114 2 -0.120000 27.550000 57.780000 9.820000 0 0 0
800 114 4 0.060000 28.020000 56.960000 7.790000 0 0 0
801 114 4 0.060000 26.410000 57.700000 8.020000 0 0 0
802 114 4 0.060000 27.270000 58.810000 10.040000 0 0 0
803 114 4 0.060000 28.580000 57.800000 10.250000 0 0 0
804 115 5 0.000000 26.510000 59.060000 7.200000 0 0 0
805 115 2 -0.120000 26.360000 59.810000 7.200000 0 0 0
806 115 2 -0.120000 26.760000 58.330000 7.180000 0 0 0
807 115 4 0.060000 25.310000 59.940000 7.050000 0 0 0
808 115 4 0.060000 26.350000 60.120000 8.320000 0 0 0
809 115 4 0.060000 27.170000 58.230000 6.140000 0 0 0
810 115 4 0.060000 25.980000 57.590000 7.450000 0 0 0
811 116 5 0.000000 26.330000 59.960000 4.980000 0 0 0
812 116 2 -0.120000 26.220000 60.720000 4.890000 0 0 0
813 116 2 -0.120000 26.400000 59.200000 4.950000 0 0 0
814 116 4 0.060000 25.840000 61.020000 5.880000 0 0 0
815 116 4 0.060000 27.200000 61.220000 4.830000 0 0 0
816 116 4 0.060000 25.490000 58.810000 5.090000 0 0 0
817 116 4 0.060000 27.200000 58.870000 5.490000 0 0 0
818 117 5 0.000000 28.380000 59.520000 3.620000 0 0 0
819 117 2 -0.120000 28.160000 60.310000 3.600000 0 0 0
820 117 2 -0.120000 28.560000 58.730000 3.630000 0 0 0
821 117 4 0.060000 29.070000 60.980000 3.290000 0 0 0
822 117 4 0.060000 27.470000 60.440000 2.850000 0 0 0
823 117 4 0.060000 27.860000 58.150000 4.270000 0 0 0
824 117 4 0.060000 29.540000 58.600000 4.070000 0 0 0
825 118 5 0.000000 30.420000 59.330000 2.060000 0 0 0
826 118 2 -0.120000 29.980000 59.920000 2.420000 0 0 0
827 118 2 -0.120000 30.860000 58.710000 1.840000 0 0 0
828 118 4 0.060000 29.980000 60.580000 1.580000 0 0 0
829 118 4 0.060000 28.900000 59.710000 2.360000 0 0 0
830 118 4 0.060000 31.970000 58.970000 2.000000 0 0 0
831 118 4 0.060000 30.780000 58.510000 0.710000 0 0 0
832 119 5 0.000000 32.640000 58.870000 0.760000 0 0 0
833 119 2 -0.120000 32.440000 59.510000 1.170000 0 0 0
834 119 2 -0.120000 32.850000 58.220000 0.360000 0 0 0
835 119 4 0.060000 31.330000 59.350000 1.280000 0 0 0
836 119 4 0.060000 32.910000 59.540000 2.080000 0 0 0
837 119 4 0.060000 34.000000 58.480000 0.070000 0 0 0
838 119 4 0.060000 32.300000 58.230000 61.414000 0 0 -1
839 120 5 0.000000 34.910000 58.370000 61.634000 0 0 -1
840 120 2 -0.120000 34.540000 59.040000 61.844000 0 0 -1
841 120 2 -0.120000 35.270000 57.750000 61.294000 0 0 -1
842 120 4 0.060000 33.590000 58.810000 61.744000 0 0 -1
843 120 4 0.060000 34.780000 59.220000 0.840000 0 0 0
844 120 4 0.060000 34.980000 57.080000 0.070000 0 0 0
845 120 4 0.060000 36.400000 57.910000 61.284000 0 0 -1
846 121 5 0.000000 37.370000 58.100000 61.154000 0 0 -1
847 121 2 -0.120000 36.870000 58.670000 61.494000 0 0 -1
848 121 2 -0.120000 37.850000 57.470000 60.844000 0 0 -1
849 121 4 0.060000 37.060000 59.610000 60.804000 0 0 -1
850 121 4 0.060000 35.780000 58.460000 61.554000 0 0 -1
851 121 4 0.060000 38.260000 56.840000 61.734000 0 0 -1
852 121 4 0.060000 38.610000 58.070000 60.284000 0 0 -1
853 122 5 0.000000 39.930000 58.380000 61.354000 0 0 -1
854 122 2 -0.120000 39.530000 58.950000 61.764000 0 0 -1
855 122 2 -0.120000 40.370000 57.770000 61.054000 0 0 -1
856 122 4 0.060000 39.420000 59.670000 60.964000 0 0 -1
857 122 4 0.060000 38.670000 58.390000 0.030000 0 0 0
858 122 4 0.060000 41.270000 58.380000 60.734000 0 0 -1
859 122 4 0.060000 39.830000 57.430000 60.284000 0 0 -1
860 123 5 0.000000 42.490000 58.710000 61.534000 0 0 -1
861 123 2 -0.120000 42.250000 59.330000 61.924000 0 0 -1
862 123 2 -0.120000 42.740000 58.130000 61.154000 0 0 -1
863 123 4 0.060000 41.470000 58.860000 0.480000 0 0 0
864 123 4 0.060000 43.110000 59.620000 0.670000 0 0 0
865 123 4 0.060000 43.300000 58.330000 60.244000 0 0 -1
866 123 4 0.060000 41.880000 57.540000 60.684000 0 0 -1
867 124 5 0.000000 44.280000 59.340000 60.534000 0 0 -1
868 124 2 -0.120000 43.530000 59.260000 60.394000 0 0 -1
869 124 2 -0.120000 45.040000 59.430000 60.694000 0 0 -1
870 124 4 0.060000 43.310000 58.430000 59.664000 0 0 -1
871 124 4 0.060000 42.990000 59.050000 61.324000 0 0 -1
872 124 4 0.060000 45.170000 60.380000 61.144000 0 0 -1
873 124 4 0.060000 45.470000 59.450000 59.724000 0 0 -1
874 125 5 0.000000 46.760000 58.790000 59.624000 0 0 -1
875 125 2 -0.120000 45.970000 58.750000 59.594000 0 0 -1
876 125 2 -0.120000 47.570000 58.820000 59.554000 0 0 -1
877 125 4 0.060000 45.610000 57.740000 59.144000 0 0 -1
878 125 4 0.060000 45.570000 59.040000 60.514000 0 0 -1
879 125 4 0.060000 47.780000 58.640000 60.644000 0 0 -1
880 125 4 0.060000 47.930000 59.910000 59.334000 0 0 -1
881 126 5 0.000000 49.130000 58.290000 58.724000 0 0 -1
882 126 2 -0.120000 48.460000 58.480000 58.384000 0 0 -1
883 126 2 -0.120000 49.790000 58.090000 59.074000 0 0 -1
884 126 4 0.060000 48.660000 58.800000 57.394000 0 0 -1
885 126 4 0.060000 47.880000 57.600000 58.134000 0 0 -1
886 126 4 0.060000 49.490000 57.840000 60.024000 0 0 -1
887 126 4 0.060000 50.510000 58.930000 59.184000 0 0 -1
888 127 5 0.000000 51.550000 57.850000 57.654000 0 0 -1
889 127 2 -0.120000 50.960000 58.060000 57.294000 0 0 -1
890 127 2 -0.120000 52.160000 57.620000 58.034000 0 0 -1
891 127 4 0.060000 51.080000 58.400000 56.304000 0 0 -1
892 127 4 0.060000 50.180000 57.150000 57.304000 0 0 -1
893 127 4 0.060000 51.890000 57.650000 59.134000 0 0 -1
894 127 4 0.060000 52.870000 58.440000 57.744000 0 0 -1
895 128 5 0.000000 52.740000 55.790000 56.704000 0 0 -1
896 128 2 -0.120000 52.050000 55.990000 56.424000 0 0 -1
897 128 2 -0.120000 53.430000 55.580000 57.004000 0 0 -1
898 128 4 0.060000 52.210000 55.990000 55.364000 0 0 -1
899 128 4 0.060000 51.420000 55.180000 56.504000 0 0 -1
900 128 4 0.060000 53.360000 55.610000 58.174000 0 0 -1
901 128 4 0.060000 54.100000 56.450000 56.674000 0 0 -1
902 129 5 0.000000 54.210000 53.790000 55.784000 0 0 -1
903 129 2 -0.120000 54.460000 54.430000 55.364000 0 0 -1
904 129 2 -0.120000 53.970000 53.160000 56.194000 0 0 -1
905 129 4 0.060000 55.480000 54.630000 55.554000 0 0 -1
906 129 4 0.060000 54.290000 54.280000 54.264000 0 0 -1
907 129 4 0.060000 52.890000 52.860000 56.184000 0 0 -1
908 129 4 0.060000 54.110000 53.360000 57.364000 0 0 -1
909 130 5 0.000000 55.480000 51.790000 54.834000 0 0 -1
910 130 2 -0.120000 55.650000 52.410000 54.314000 0 0 -1
911 130 2 -0.120000 55.330000 51.170000 55.344000 0 0 -1
912 130 4 0.060000 56.640000 52.490000 54.104000 0 0 -1
913 130 4 0.060000 55.070000 52.310000 53.394000 0 0 -1
914 130 4 0.060000 54.220000 50.940000 55.464000 0 0 -1
915 130 4 0.060000 55.630000 51.310000 56.494000 0 0 -1
916 131 5 0.000000 56.920000 49.880000 53.534000 0 0 -1
917 131 2 -0.120000 56.130000 50.010000 53.554000 0 0 -1
918 131 2 -0.120000 57.700000 49.830000 53.604000 0 0 -1
919 131 4 0.060000 55.700000 49.840000 52.614000 0 0 -1
920 131 4 0.060000 55.810000 49.370000 54.344000 0 0 -1
921 131 4 0.060000 58.150000 50.550000 52.924000 0 0 -1
922 131 4 0.060000 58.080000 48.840000 53.234000 0 0 -1
923 132 5 0.000000 56.010000 48.640000 51.414000 0 0 -1
924 132 2 -0.120000 55.200000 48.720000 51.244000 0 0 -1
925 132 2 -0.120000 56.800000 48.500000 51.484000 0 0 -1
926 132 4 0.060000 54.740000 47.970000 51.944000 0 0 -1
927 132 4 0.060000 54.980000 49.600000 51.664000 0 0 -1
928 132 4 0.060000 56.980000 49.000000 52.444000 0 0 -1
929 132 4 0.060000 57.500000 48.790000 50.754000 0 0 -1
930 133 5 0.000000 55.340000 47.180000 49.404000 0 0 -1
931 133 2 -0.120000 54.620000 47.420000 49.224000 0 0 -1
932 133 2 -0.120000 56.080000 46.930000 49.564000 0 0 -1
933 133 4 0.060000 54.080000 46.900000 48.394000 0 0 -1
934 133 4 0.060000 53.970000 47.140000 50.084000 0 0 -1
935 133 4 0.060000 56.310000 47.620000 50.404000 0 0 -1
936 133 4 0.060000 56.870000 47.190000 48.864000 0 0 -1
937 134 5 0.000000 55.140000 45.960000 47.304000 0 0 -1
938 134 2 -0.120000 54.950000 46.330000 47.934000 0 0 -1
939 134 2 -0.120000 55.310000 45.550000 46.674000 0 0 -1
940 134 4 0.060000 54.090000 46.060000 48.474000 0 0 -1
941 134 4 0.060000 55.760000 46.470000 48.694000 0 0 -1
942 134 4 0.060000 56.290000 46.010000 46.334000 0 0 -1
943 134 4 0.060000 54.730000 45.730000 45.784000 0 0 -1
944 135 5 0.000000 54.150000 43.590000 47.534000 0 0 -1
945 135 2 -0.120000 54.110000 44.030000 48.184000 0 0 -1
946 135 2 -0.120000 54.130000 43.280000 46.854000 0 0 -1
947 135 4 0.060000 53.070000 43.760000 48.484000 0 0 -1
948 135 4 0.060000 55.000000 43.550000 48.804000 0 0 -1
949 135 4 0.060000 54.100000 42.160000 46.984000 0 0 -1
950 135 4 0.060000 55.120000 43.400000 46.334000 0 0 -1
951 136 5 0.000000 52.840000 41.950000 48.534000 0 0 -1
952 136 2 -0.120000 52.780000 42.440000 49.144000 0 0 -1
953 136 2 -0.120000 52.930000 41.450000 47.904000 0 0 -1
954 136 4 0.060000 52.430000 43.390000 48.854000 0 0 -1
955 136 4 0.060000 51.880000 42.170000 49.734000 0 0 -1
956 136 4 0.060000 52.840000 40.380000 48.144000 0 0 -1
957 136 4 0.060000 53.920000 41.910000 47.614000 0 0 -1
958 137 5 0.000000 50.890000 40.940000 49.344000 0 0 -1
959 137 2 -0.120000 51.680000 41.060000 49.204000 0 0 -1
960 137 2 -0.120000 50.130000 40.700000 49.564000 0 0 -1
961 137 4 0.060000 51.970000 40.650000 48.274000 0 0 -1
962 137 4 0.060000 51.760000 42.090000 49.144000 0 0 -1
963 137 4 0.060000 49.530000 40.920000 48.604000 0 0 -1
964 137 4 0.060000 49.870000 41.410000 50.284000 0 0 -1
965 138 5 0.000000 49.000000 39.360000 48.524000 0 0 -1
966 138 2 -0.120000 49.700000 39.390000 48.334000 0 0 -1
967 138 2 -0.120000 48.320000 39.270000 48.734000 0 0 -1
968 138 4 0.060000 50.250000 39.360000 49.294000 0 0 -1
969 138 4 0.060000 49.910000 39.060000 47.414000 0 0 -1
970 138 4 0.060000 47.850000 39.660000 47.744000 0 0 -1
971 138 4 0.060000 47.890000 40.040000 49.374000 0 0 -1
972 139 5 0.000000 47.120000 40.110000 46.764000 0 0 -1
973 139 2 -0.120000 47.910000 40.220000 46.854000 0 0 -1
974 139 2 -0.120000 46.350000 40.030000 46.704000 0 0 -1
975 139 4 0.060000 48.140000 40.130000 47.944000 0 0 -1
976 139 4 0.060000 48.260000 39.380000 46.224000 0 0 -1
977 139 4 0.060000 46.120000 39.620000 45.744000 0 0 -1
978 139 4 0.060000 45.860000 40.950000 46.704000 0 0 -1
979 140 5 0.000000 45.250000 40.840000 45.214000 0 0 -1
980 140 2 -0.120000 44.980000 41.510000 45.254000 0 0 -1
981 140 2 -0.120000 45.510000 40.150000 45.184000 0 0 -1
982 140 4 0.060000 43.880000 41.510000 45.024000 0 0 -1
983 140 4 0.060000 45.000000 41.950000 46.254000 0 0 -1
984 140 4 0.060000 46.550000 40.290000 45.424000 0 0 -1
985 140 4 0.060000 45.630000 39.770000 44.144000 0 0 -1
986 141 5 0.000000 43.020000 41.070000 43.934000 0 0 -1
987 141 2 -0.120000 42.610000 41.660000 43.654000 0 0 -1
988 141 2 -0.120000 43.480000 40.480000 44.074000 0 0 -1
989 141 4 0.060000 41.620000 41.380000 43.294000 0 0 -1
990 141 4 0.060000 42.480000 42.110000 44.604000 0 0 -1
991 141 4 0.060000 43.000000 39.980000 44.884000 0 0 -1
992 141 4 0.060000 44.410000 40.780000 44.514000 0 0 -1
993 142 5 0.000000 41.670000 38.860000 43.074000 0 0 -1
994 142 2 -0.120000 41.090000 39.420000 42.974000 0 0 -1
995 142 2 -0.120000 42.300000 38.410000 43.274000 0 0 -1
996 142 4 0.060000 41.490000 39.950000 42.204000 0 0 -1
997 142 4 0.060000 40.220000 38.870000 42.764000 0 0 -1
998 142 4 0.060000 42.210000 37.840000 42.344000 0 0 -1
999 142 4 0.060000 42.090000 37.510000 43.854000 0 0 -1
1000 143 5 0.000000 40.370000 36.660000 42.494000 0 0 -1
1001 143 2 -0.120000 39.650000 36.970000 42.654000 0 0 -1
1002 143 2 -0.120000 41.030000 36.220000 42.324000 0 0 -1
1003 143 4 0.060000 39.520000 37.030000 43.714000 0 0 -1
1004 143 4 0.060000 39.740000 38.050000 42.334000 0 0 -1
1005 143 4 0.060000 41.850000 36.830000 42.694000 0 0 -1
1006 143 4 0.060000 41.200000 36.240000 41.304000 0 0 -1
1007 144 5 0.000000 37.700000 36.860000 41.804000 0 0 -1
1008 144 2 -0.120000 37.680000 36.860000 41.044000 0 0 -1
1009 144 2 -0.120000 37.730000 36.870000 42.574000 0 0 -1
1010 144 4 0.060000 38.690000 36.300000 40.714000 0 0 -1
1011 144 4 0.060000 36.790000 36.430000 40.714000 0 0 -1
1012 144 4 0.060000 36.690000 37.050000 42.824000 0 0 -1
1013 144 4 0.060000 38.550000 37.610000 42.974000 0 0 -1
1014 145 5 0.000000 36.920000 36.800000 39.294000 0 0 -1
1015 145 2 -0.120000 37.340000 37.450000 39.414000 0 0 -1
1016 145 2 -0.120000 36.490000 36.170000 39.174000 0 0 -1
1017 145 4 0.060000 37.460000 37.450000 40.484000 0 0 -1
1018 145 4 0.060000 38.280000 37.050000 38.964000 0 0 -1
1019 145 4 0.060000 36.710000 35.980000 38.174000 0 0 -1
1020 145 4 0.060000 35.470000 36.380000 39.454000 0 0 -1
1021 146 5 0.000000 35.570000 36.650000 37.134000 0 0 -1
1022 146 2 -0.120000 35.400000 36.650000 36.364000 0 0 -1
1023 146 2 -0.120000 35.720000 36.650000 37.894000 0 0 -1
1024 146 4 0.060000 36.260000 36.190000 35.894000 0 0 -1
1025 146 4 0.060000 34.430000 36.120000 36.204000 0 0 -1
1026 146 4 0.060000 35.000000 37.180000 38.554000 0 0 -1
1027 146 4 0.060000 36.700000 37.120000 38.054000 0 0 -1
1028 147 5 0.000000 34.280000 36.180000 35.054000 0 0 -1
1029 147 2 -0.120000 34.070000 36.030000 34.324000 0 0 -1
1030 147 2 -0.120000 34.520000 36.300000 35.794000 0 0 -1
1031 147 4 0.060000 34.800000 35.570000 33.734000 0 0 -1
1032 147 4 0.060000 33.070000 35.590000 34.184000 0 0 -1
1033 147 4 0.060000 33.660000 36.690000 36.214000 0 0 -1
1034 147 4 0.060000 35.300000 37.100000 36.004000 0 0 -1
1035 148 5 0.000000 33.700000 35.130000 32.794000 0 0 -1
1036 148 2 -0.120000 33.080000 35.390000 33.134000 0 0 -1
1037 148 2 -0.120000 34.270000 34.880000 32.394000 0 0 -1
1038 148 4 0.060000 32.270000 34.770000 32.934000 0 0 -1
1039 148 4 0.060000 33.200000 35.480000 34.184000 0 0 -1
1040 148 4 0.060000 35.230000 34.680000 33.004000 0 0 -1
1041 148 4 0.060000 34.570000 35.590000 31.674000 0 0 -1
1042 149 5 0.000000 33.150000 34.370000 30.384000 0 0 -1
1043 149 2 -0.120000 32.650000 34.660000 30.864000 0 0 -1
1044 149 2 -0.120000 33.670000 34.080000 29.924000 0 0 -1
1045 149 4 0.060000 31.700000 34.590000 30.344000 0 0 -1
1046 149 4 0.060000 32.530000 33.970000 31.744000 0 0 -1
1047 149 4 0.060000 34.700000 34.390000 30.194000 0 0 -1
1048 149 4 0.060000 33.380000 34.660000 28.944000 0 0 -1
1049 150 1 0.000000 30.720000 34.330000 29.254000 0 0 -1
1050 150 2 -0.120000 30.010000 34.660000 29.534000 0 0 -1
1051 150 3 -0.180000 31.360000 34.090000 29.014000 0 0 -1
1052 150 4 0.060000 29.360000 34.370000 28.734000 0 0 -1
1053 150 4 0.060000 29.830000 34.190000 30.494000 0 0 -1
1054 150 4 0.060000 32.160000 34.840000 29.154000 0 0 -1
1055 150 4 0.060000 31.290000 33.790000 27.944000 0 0 -1
1056 150 4 0.060000 31.760000 33.360000 29.534000 0 0 -1
1057 151 1 0.000000 58.900000 55.790000 60.950000 0 0 0
1058 151 2 -0.120000 58.960000 55.660000 60.200000 0 0 0
1059 151 3 -0.180000 58.930000 55.900000 61.610000 0 0 0
1060 151 4 0.060000 58.640000 56.640000 59.700000 0 0 0
1061 151 4 0.060000 58.050000 54.910000 60.030000 0 0 0
1062 151 4 0.060000 59.360000 55.090000 0.286000 0 0 1
1063 151 4 0.060000 57.940000 55.830000 61.900000 0 0 0
1064 151 4 0.060000 59.470000 56.850000 61.870000 0 0 0
1065 152 5 0.000000 56.560000 56.010000 59.940000 0 0 0
1066 152 2 -0.120000 56.340000 56.710000 59.820000 0 0 0
1067 152 2 -0.120000 56.760000 55.310000 60.040000 0 0 0
1068 152 4 0.060000 57.120000 57.210000 60.240000 0 0 0
1069 152 4 0.060000 56.370000 56.890000 58.710000 0 0 0
1070 152 4 0.060000 55.890000 54.680000 60.030000 0 0 0
1071 152 4 0.060000 57.210000 55.280000 61.020000 0 0 0
1072 153 5 0.000000 55.090000 58.130000 60.490000 0 0 0
1073 153 2 -0.120000 55.280000 58.460000 61.160000 0 0 0
1074 153 2 -0.120000 54.780000 57.780000 59.870000 0 0 0
1075 153 4 0.060000 55.980000 57.850000 61.710000 0 0 0
1076 153 4 0.060000 56.200000 59.090000 60.940000 0 0 0
1077 153 4 0.060000 55.620000 57.390000 59.230000 0 0 0
1078 153 4 0.060000 53.960000 58.360000 59.410000 0 0 0
1079 154 5 0.000000 53.460000 60.150000 61.090000 0 0 0
1080 154 2 -0.120000 53.610000 60.550000 61.760000 0 0 0
1081 154 2 -0.120000 53.280000 59.750000 60.430000 0 0 0
1082 154 4 0.060000 52.680000 60.670000 0.266000 0 0 1
1083 154 4 0.060000 54.270000 60.020000 0.376000 0 0 1
1084 154 4 0.060000 54.300000 59.570000 59.920000 0 0 0
1085 154 4 0.060000 52.880000 60.310000 59.690000 0 0 0
1086 155 5 0.000000 52.530000 0.076000 0.096000 0 1 1
1087 155 2 -0.120000 52.070000 0.686000 61.840000 0 1 0
1088 155 2 -0.120000 53.010000 61.460000 0.306000 0 0 1
1089 155 4 0.060000 51.710000 0.566000 60.880000 0 1 0
1090 155 4 0.060000 51.220000 0.686000 0.446000 0 1 1
1091 155 4 0.060000 52.950000 61.420000 1.356000 0 0 1
1092 155 4 0.060000 54.040000 61.840000 0.276000 0 0 1
1093 156 5 0.000000 52.750000 2.036000 1.766000 0 1 1
1094 156 2 -0.120000 53.480000 2.256000 1.706000 0 1 1
1095 156 2 -0.120000 52.010000 1.816000 1.826000 0 1 1
1096 156 4 0.060000 54.150000 1.546000 2.096000 0 1 1
1097 156 4 0.060000 53.690000 2.166000 0.646000 0 1 1
1098 156 4 0.060000 51.410000 2.626000 1.476000 0 1 1
1099 156 4 0.060000 51.740000 1.816000 2.826000 0 1 1
1100 157 5 0.000000 52.450000 1.406000 4.056000 0 1 1
1101 157 2 -0.120000 53.160000 1.726000 4.086000 0 1 1
1102 157 2 -0.120000 51.690000 1.226000 3.986000 0 1 1
1103 157 4 0.060000 53.690000 0.996000 4.756000 0 1 1
1104 157 4 0.060000 53.740000 1.446000 3.166000 0 1 1
1105 157 4 0.060000 51.090000 1.416000 4.806000 0 1 1
1106 157 4 0.060000 51.770000 0.176000 4.036000 0 1 1
1107 158 5 0.000000 50.410000 3.166000 4.686000 0 1 1
1108 158 2 -0.120000 50.790000 3.666000 5.106000 0 1 1
1109 158 2 -0.120000 50.000000 2.676000 4.276000 0 1 1
1110 158 4 0.060000 51.410000 4.006000 4.386000 0 1 1
1111 158 4 0.060000 50.290000 4.446000 5.636000 0 1 1
1112 158 4 0.060000 49.390000 1.936000 4.806000 0 1 1
1113 158 4 0.060000 50.810000 2.106000 3.876000 0 1 1
1114 159 5 0.000000 48.190000 3.226000 3.746000 0 1 1
1115 159 2 -0.120000 48.650000 3.726000 4.126000 0 1 1
1116 159 2 -0.120000 47.730000 2.716000 3.346000 0 1 1
1117 159 4 0.060000 49.390000 4.266000 3.496000 0 1 1
1118 159 4 0.060000 47.900000 4.536000 4.536000 0 1 1
1119 159 4 0.060000 47.060000 2.386000 4.106000 0 1 1
1120 159 4 0.060000 48.350000 1.956000 2.966000 0 1 1
1121 160 5 0.000000 46.300000 3.276000 2.016000 0 1 1
1122 160 2 -0.120000 47.010000 3.476000 2.226000 0 1 1
1123 160 2 -0.120000 45.620000 2.936000 1.846000 0 1 1
1124 160 4 0.060000 47.740000 3.616000 1.406000 0 1 1
1125 160 4 0.060000 46.780000 4.416000 2.686000 0 1 1
1126 160 4 0.060000 45.420000 3.326000 0.786000 0 1 1
1127 160 4 0.060000 44.820000 3.416000 2.576000 0 1 1
1128 161 5 0.000000 44.580000 2.646000 0.226000 0 1 1
1129 161 2 -0.120000 44.580000 3.036000 0.916000 0 1 1
1130 161 2 -0.120000 44.580000 2.246000 61.540000 0 1 0
1131 161 4 0.060000 43.450000 3.016000 1.096000 0 1 1
1132 161 4 0.060000 45.140000 2.526000 1.706000 0 1 1
1133 161 4 0.060000 45.590000 2.256000 61.190000 0 1 0
1134 161 4 0.060000 44.140000 2.956000 60.860000 0 1 0
1135 162 5 0.000000 43.070000 1.126000 1.686000 0 1 1
1136 162 2 -0.120000 43.150000 1.606000 2.236000 0 1 1
1137 162 2 -0.120000 42.940000 0.746000 1.066000 0 1 1
1138 162 4 0.060000 42.200000 1.696000 2.936000 0 1 1
1139 162 4 0.060000 43.750000 1.136000 3.006000 0 1 1
1140 162 4 0.060000 43.030000 61.610000 1.096000 0 0 1
1141 162 4 0.060000 43.880000 0.796000 0.516000 0 1 1
1142 163 5 0.000000 41.740000 0.336000 3.656000 0 1 1
1143 163 2 -0.120000 42.470000 0.306000 3.386000 0 1 1
1144 163 2 -0.120000 41.080000 0.256000 4.016000 0 1 1
1145 163 4 0.060000 42.320000 61.720000 2.596000 0 0 1
1146 163 4 0.060000 42.690000 1.346000 3.036000 0 1 1
1147 163 4 0.060000 40.240000 0.546000 3.396000 0 1 1
1148 163 4 0.060000 40.870000 1.036000 4.606000 0 1 1
1149 164 5 0.000000 41.360000 61.480000 5.836000 0 0 1
1150 164 2 -0.120000 41.320000 61.470000 5.076000 0 0 1
1151 164 2 -0.120000 41.390000 61.470000 6.606000 0 0 1
1152 164 4 0.060000 41.860000 60.650000 4.576000 0 0 1
1153 164 4 0.060000 40.250000 61.390000 4.806000 0 0 1
1154 164 4 0.060000 41.110000 0.496000 6.826000 0 1 1
1155 164 4 0.060000 42.420000 61.490000 7.036000 0 0 1
1156 165 5 0.000000 41.940000 58.950000 5.556000 0 0 1
1157 165 2 -0.120000 41.790000 59.700000 5.556000 0 0 1
1158 165 2 -0.120000 42.190000 58.220000 5.536000 0 0 1
1159 165 4 0.060000 40.740000 59.830000 5.406000 0 0 1
1160 165 4 0.060000 41.780000 60.010000 6.676000 0 0 1
1161 165 4 0.060000 42.600000 58.120000 4.496000 0 0 1
1162 165 4 0.060000 41.410000 57.480000 5.806000 0 0 1
1163 166 5 0.000000 44.400000 57.940000 6.436000 0 0 1
1164 166 2 -0.120000 44.290000 58.700000 6.346000 0 0 1
1165 166 2 -0.120000 44.470000 57.180000 6.406000 0 0 1
1166 166 4 0.060000 43.910000 59.000000 7.336000 0 0 1
1167 166 4 0.060000 45.270000 59.200000 6.286000 0 0 1
1168 166 4 0.060000 43.560000 56.790000 6.546000 0 0 1
1169 166 4 0.060000 45.270000 56.850000 6.946000 0 0 1
1170 167 5 0.000000 45.070000 55.700000 5.336000 0 0 1
1171 167 2 -0.120000 44.850000 56.490000 5.316000 0 0 1
1172 167 2 -0.120000 45.250000 54.910000 5.346000 0 0 1
1173 167 4 0.060000 45.760000 57.160000 5.006000 0 0 1
1174 167 4 0.060000 44.160000 56.620000 4.566000 0 0 1
1175 167 4 0.060000 44.550000 54.330000 5.986000 0 0 1
1176 167 4 0.060000 46.230000 54.780000 5.786000 0 0 1
1177 168 5 0.000000 47.480000 54.480000 5.826000 0 0 1
1178 168 2 -0.120000 47.040000 55.070000 6.186000 0 0 1
1179 168 2 -0.120000 47.920000 53.860000 5.606000 0 0 1
1180 168 4 0.060000 47.040000 55.730000 5.346000 0 0 1
1181 168 4 0.060000 45.960000 54.860000 6.126000 0 0 1
1182 168 4 0.060000 49.030000 54.120000 5.766000 0 0 1
1183 168 4 0.060000 47.840000 53.660000 4.476000 0 0 1
1184 169 5 0.000000 47.920000 51.870000 5.186000 0 0 1
1185 169 2 -0.120000 47.720000 52.510000 5.596000 0 0 1
1186 169 2 -0.120000 48.130000 51.220000 4.786000 0 0 1
1187 169 4 0.060000 46.610000 52.350000 5.706000 0 0 1
1188 169 4 0.060000 48.190000 52.540000 6.506000 0 0 1
1189 169 4 0.060000 49.280000 51.480000 4.496000 0 0 1
1190 169 4 0.060000 47.580000 51.230000 3.836000 0 0 1
1191 170 5 0.000000 48.060000 49.290000 4.856000 0 0 1
1192 170 2 -0.120000 47.690000 49.960000 5.066000 0 0 1
1193 170 2 -0.120000 48.420000 48.670000 4.516000 0 0 1
1194 170 4 0.060000 46.740000 49.730000 4.966000 0 0 1
1195 170 4 0.060000 47.930000 50.140000 6.066000 0 0 1
1196 170 4 0.060000 48.130000 48.000000 5.296000 0 0 1
1197 170 4 0.060000 49.550000 48.830000 4.506000 0 0 1
1198 171 5 0.000000 48.360000 46.710000 4.556000 0 0 1
1199 171 2 -0.120000 47.860000 47.280000 4.896000 0 0 1
1200 171 2 -0.120000 48.840000 46.080000 4.246000 0 0 1
1201 171 4 0.060000 48.050000 48.220000 4.206000 0 0 1
1202 171 4 0.060000 46.770000 47.070000 4.956000 0 0 1
1203 171 4 0.060000 49.250000 45.450000 5.136000 0 0 1
1204 171 4 0.060000 49.600000 46.680000 3.686000 0 0 1
1205 172 5 0.000000 48.290000 44.920000 6.416000 0 0 1
1206 172 2 -0.120000 47.890000 45.490000 6.826000 0 0 1
1207 172 2 -0.120000 48.730000 44.310000 6.116000 0 0 1
1208 172 4 0.060000 47.780000 46.210000 6.026000 0 0 1
1209 172 4 0.060000 47.030000 44.930000 7.096000 0 0 1
1210 172 4 0.060000 49.630000 44.920000 5.796000 0 0 1
1211 172 4 0.060000 48.190000 43.970000 5.346000 0 0 1
1212 173 5 0.000000 47.400000 43.770000 8.186000 0 0 1
1213 173 2 -0.120000 47.160000 44.390000 8.576000 0 0 1
1214 173 2 -0.120000 47.650000 43.190000 7.806000 0 0 1
1215 173 4 0.060000 46.380000 43.920000 9.136000 0 0 1
1216 173 4 0.060000 48.020000 44.680000 9.326000 0 0 1
1217 173 4 0.060000 48.210000 43.390000 6.896000 0 0 1
1218 173 4 0.060000 46.790000 42.600000 7.336000 0 0 1
1219 174 5 0.000000 45.430000 43.500000 9.566000 0 0 1
1220 174 2 -0.120000 44.680000 43.420000 9.426000 0 0 1
1221 174 2 -0.120000 46.190000 43.590000 9.726000 0 0 1
1222 174 4 0.060000 44.460000 42.590000 8.696000 0 0 1
1223 174 4 0.060000 44.140000 43.210000 10.356000 0 0 1
1224 174 4 0.060000 46.320000 44.540000 10.176000 0 0 1
1225 174 4 0.060000 46.620000 43.610000 8.756000 0 0 1
1226 175 5 0.000000 43.390000 43.160000 11.206000 0 0 1
1227 175 2 -0.120000 42.600000 43.120000 11.176000 0 0 1
1228 175 2 -0.120000 44.200000 43.190000 11.136000 0 0 1
1229 175 4 0.060000 42.240000 42.110000 10.726000 0 0 1
1230 175 4 0.060000 42.200000 43.410000 12.096000 0 0 1
1231 175 4 0.060000 44.410000 43.010000 12.226000 0 0 1
1232 175 4 0.060000 44.560000 44.280000 10.916000 0 0 1
1233 176 5 0.000000 41.350000 42.330000 12.936000 0 0 1
1234 176 2 -0.120000 40.680000 42.520000 12.596000 0 0 1
1235 176 2 -0.120000 42.010000 42.130000 13.286000 0 0 1
1236 176 4 0.060000 40.880000 42.840000 11.606000 0 0 1
1237 176 4 0.060000 40.100000 41.630000 12.346000 0 0 1
1238 176 4 0.060000 41.710000 41.880000 14.236000 0 0 1
1239 176 4 0.060000 42.730000 42.960000 13.396000 0 0 1
1240 177 5 0.000000 39.200000 43.090000 12.116000 0 0 1
1241 177 2 -0.120000 38.610000 43.300000 11.756000 0 0 1
1242 177 2 -0.120000 39.810000 42.860000 12.496000 0 0 1
1243 177 4 0.060000 38.730000 43.640000 10.766000 0 0 1
1244 177 4 0.060000 37.830000 42.390000 11.766000 0 0 1
1245 177 4 0.060000 39.540000 42.890000 13.596000 0 0 1
1246 177 4 0.060000 40.520000 43.680000 12.206000 0 0 1
1247 178 5 0.000000 36.960000 43.460000 11.546000 0 0 1
1248 178 2 -0.120000 36.270000 43.660000 11.266000 0 0 1
1249 178 2 -0.120000 37.650000 43.250000 11.846000 0 0 1
1250 178 4 0.060000 36.430000 43.660000 10.206000 0 0 1
1251 178 4 0.060000 35.640000 42.850000 11.346000 0 0 1
1252 178 4 0.060000 37.580000 43.280000 13.016000 0 0 1
1253 178 4 0.060000 38.320000 44.120000 11.516000 0 0 1
1254 179 5 0.000000 34.980000 42.840000 10.186000 0 0 1
1255 179 2 -0.120000 35.230000 43.480000 9.766000 0 0 1
1256 179 2 -0.120000 34.740000 42.210000 10.596000 0 0 1
1257 179 4 0.060000 36.250000 43.680000 9.956000 0 0 1
1258 179 4 0.060000 35.060000 43.330000 8.666000 0 0 1
1259 179 4 0.060000 33.660000 41.910000 10.586000 0 0 1
1260 179 4 0.060000 34.880000 42.410000 11.766000 0 0 1
1261 180 5 0.000000 33.170000 41.640000 8.596000 0 0 1
1262 180 2 -0.120000 33.340000 42.260000 8.076000 0 0 1
1263 180 2 -0.120000 33.020000 41.020000 9.106000 0 0 1
1264 180 4 0.060000 34.330000 42.340000 7.866000 0 0 1
1265 180 4 0.060000 32.760000 42.160000 7.156000 0 0 1
1266 180 4 0.060000 31.910000 40.790000 9.226000 0 0 1
1267 180 4 0.060000 33.320000 41.160000 10.256000 0 0 1
1268 181 5 0.000000 31.560000 41.450000 6.736000 0 0 1
1269 181 2 -0.120000 30.770000 41.580000 6.756000 0 0 1
1270 181 2 -0.120000 32.340000 41.400000 6.806000 0 0 1
1271 181 4 0.060000 30.340000 41.410000 5.816000 0 0 1
1272 181 4 0.060000 30.450000 40.940000 7.546000 0 0 1
1273 181 4 0.060000 32.790000 42.120000 6.126000 0 0 1
1274 181 4 0.060000 32.720000 40.410000 6.436000 0 0 1
1275 182 5 0.000000 30.400000 41.300000 4.566000 0 0 1
1276 182 2 -0.120000 29.590000 41.380000 4.396000 0 0 1
1277 182 2 -0.120000 31.190000 41.160000 4.636000 0 0 1
1278 182 4 0.060000 29.130000 40.630000 5.096000 0 0 1
1279 182 4 0.060000 29.370000 42.260000 4.816000 0 0 1
1280 182 4 0.060000 31.370000 41.660000 5.596000 0 0 1
1281 182 4 0.060000 31.890000 41.450000 3.906000 0 0 1
1282 183 5 0.000000 29.210000 40.110000 2.476000 0 0 1
1283 183 2 -0.120000 28.490000 40.350000 2.296000 0 0 1
1284 183 2 -0.120000 29.950000 39.860000 2.636000 0 0 1
1285 183 4 0.060000 27.950000 39.830000 1.466000 0 0 1
1286 183 4 0.060000 27.840000 40.070000 3.156000 0 0 1
1287 183 4 0.060000 30.180000 40.550000 3.476000 0 0 1
1288 183 4 0.060000 30.740000 40.120000 1.936000 0 0 1
1289 184 5 0.000000 29.970000 39.020000 0.236000 0 0 1
1290 184 2 -0.120000 29.780000 39.390000 0.866000 0 0 1
1291 184 2 -0.120000 30.140000 38.610000 61.610000 0 0 0
1292 184 4 0.060000 28.920000 39.120000 1.406000 0 0 1
1293 184 4 0.060000 30.590000 39.530000 1.626000 0 0 1
1294 184 4 0.060000 31.120000 39.070000 61.270000 0 0 0
1295 184 4 0.060000 29.560000 38.790000 60.720000 0 0 0
1296 185 5 0.000000 30.700000 36.630000 61.580000 0 0 0
1297 185 2 -0.120000 30.660000 37.070000 0.226000 0 0 1
1298 185 2 -0.120000 30.680000 36.320000 60.900000 0 0 0
1299 185 4 0.060000 29.620000 36.800000 0.526000 0 0 1
1300 185 4 0.060000 31.550000 36.590000 0.846000 0 0 1
1301 185 4 0.060000 30.650000 35.200000 61.030000 0 0 0
1302 185 4 0.060000 31.670000 36.440000 60.380000 0 0 0
1303 186 5 0.000000 31.200000 34.010000 60.920000 0 0 0
1304 186 2 -0.120000 31.140000 34.500000 61.530000 0 0 0
1305 186 2 -0.120000 31.290000 33.510000 60.290000 0 0 0
1306 186 4 0.060000 30.790000 35.450000 61.240000 0 0 0
1307 186 4 0.060000 30.240000 34.230000 0.116000 0 0 1
1308 186 4 0.060000 31.200000 32.440000 60.530000 0 0 0
1309 186 4 0.060000 32.280000 33.970000 60.000000 0 0 0
1310 187 5 0.000000 31.070000 31.380000 60.680000 0 0 0
1311 187 2 -0.120000 31.860000 31.500000 60.540000 0 0 0
1312 187 2 -0.120000 30.310000 31.140000 60.900000 0 0 0
1313 187 4 0.060000 32.150000 31.090000 59.610000 0 0 0
1314 187 4 0.060000 31.940000 32.530000 60.480000 0 0 0
1315 187 4 0.060000 29.710000 31.360000 59.940000 0 0 0
1316 187 4 0.060000 30.050000 31.850000 61.620000 0 0 0
1317 188 5 0.000000 31.420000 30.090000 58.420000 0 0 0
1318 188 2 -0.120000 32.120000 30.120000 58.230000 0 0 0
1319 188 2 -0.120000 30.740000 30.000000 58.630000 0 0 0
1320 188 4 0.060000 32.670000 30.090000 59.190000 0 0 0
1321 188 4 0.060000 32.330000 29.790000 57.310000 0 0 0
1322 188 4 0.060000 30.270000 30.390000 57.640000 0 0 0
1323 188 4 0.060000 30.310000 30.770000 59.270000 0 0 0
1324 189 5 0.000000 31.800000 30.040000 56.220000 0 0 0
1325 189 2 -0.120000 32.590000 30.150000 56.310000 0 0 0
1326 189 2 -0.120000 31.030000 29.960000 56.160000 0 0 0
1327 189 4 0.060000 32.820000 30.060000 57.400000 0 0 0
1328 189 4 0.060000 32.940000 29.310000 55.680000 0 0 0
1329 189 4 0.060000 30.800000 29.550000 55.200000 0 0 0
1330 189 4 0.060000 30.540000 30.880000 56.160000 0 0 0
1331 190 5 0.000000 31.200000 29.740000 53.890000 0 0 0
1332 190 2 -0.120000 30.930000 30.410000 53.930000 0 0 0
1333 190 2 -0.120000 31.460000 29.050000 53.860000 0 0 0
1334 190 4 0.060000 29.830000 30.410000 53.700000 0 0 0
1335 190 4 0.060000 30.950000 30.850000 54.930000 0 0 0
1336 190 4 0.060000 32.500000 29.190000 54.100000 0 0 0
1337 190 4 0.060000 31.580000 28.670000 52.820000 0 0 0
1338 191 5 0.000000 31.410000 28.810000 51.520000 0 0 0
1339 191 2 -0.120000 31.000000 29.400000 51.240000 0 0 0
1340 191 2 -0.120000 31.870000 28.220000 51.660000 0 0 0
1341 191 4 0.060000 30.010000 29.120000 50.880000 0 0 0
1342 191 4 0.060000 30.870000 29.850000 52.190000 0 0 0
1343 191 4 0.060000 31.390000 27.720000 52.470000 0 0 0
1344 191 4 0.060000 32.800000 28.520000 52.100000 0 0 0
1345 192 5 0.000000 31.670000 28.170000 48.990000 0 0 0
1346 192 2 -0.120000 31.090000 28.730000 48.890000 0 0 0
1347 192 2 -0.120000 32.300000 27.720000 49.190000 0 0 0
1348 192 4 0.060000 31.490000 29.260000 48.120000 0 0 0
1349 192 4 0.060000 30.220000 28.180000 48.680000 0 0 0
1350 192 4 0.060000 32.210000 27.150000 48.260000 0 0 0
1351 192 4 0.060000 32.090000 26.820000 49.770000 0 0 0
1352 193 5 0.000000 31.750000 27.560000 46.430000 0 0 0
1353 193 2 -0.120000 31.030000 27.870000 46.590000 0 0 0
1354 193 2 -0.120000 32.410000 27.120000 46.260000 0 0 0
1355 193 4 0.060000 30.900000 27.930000 47.650000 0 0 0
1356 193 4 0.060000 31.120000 28.950000 46.270000 0 0 0
1357 193 4 0.060000 33.230000 27.730000 46.630000 0 0 0
1358 193 4 0.060000 32.580000 27.140000 45.240000 0 0 0
1359 194 5 0.000000 32.130000 25.270000 45.560000 0 0 0
1360 194 2 -0.120000 32.110000 25.270000 44.800000 0 0 0
1361 194 2 -0.120000 32.160000 25.280000 46.330000 0 0 0
1362 194 4 0.060000 33.120000 24.710000 44.470000 0 0 0
1363 194 4 0.060000 31.220000 24.840000 44.470000 0 0 0
1364 194 4 0.060000 31.120000 25.460000 46.580000 0 0 0
1365 194 4 0.060000 32.980000 26.020000 46.730000 0 0 0
1366 195 5 0.000000 32.970000 23.200000 44.530000 0 0 0
1367 195 2 -0.120000 33.390000 23.850000 44.650000 0 0 0
1368 195 2 -0.120000 32.540000 22.570000 44.410000 0 0 0
1369 195 4 0.060000 33.510000 23.850000 45.720000 0 0 0
1370 195 4 0.060000 34.330000 23.450000 44.200000 0 0 0
1371 195 4 0.060000 32.760000 22.380000 43.410000 0 0 0
1372 195 4 0.060000 31.520000 22.780000 44.690000 0 0 0
1373 196 5 0.000000 32.660000 21.150000 43.690000 0 0 0
1374 196 2 -0.120000 32.490000 21.150000 42.920000 0 0 0
1375 196 2 -0.120000 32.810000 21.150000 44.450000 0 0 0
1376 196 4 0.060000 33.350000 20.690000 42.450000 0 0 0
1377 196 4 0.060000 31.520000 20.620000 42.760000 0 0 0
1378 196 4 0.060000 32.090000 21.680000 45.110000 0 0 0
1379 196 4 0.060000 33.790000 21.620000 44.610000 0 0 0
1380 197 5 0.000000 31.220000 19.010000 43.390000 0 0 0
1381 197 2 -0.120000 31.010000 18.860000 42.660000 0 0 0
1382 197 2 -0.120000 31.460000 19.130000 44.130000 0 0 0
1383 197 4 0.060000 31.740000 18.400000 42.070000 0 0 0
1384 197 4 0.060000 30.010000 18.420000 42.520000 0 0 0
1385 197 4 0.060000 30.600000 19.520000 44.550000 0 0 0
1386 197 4 0.060000 32.240000 19.930000 44.340000 0 0 0
1387 198 5 0.000000 30.070000 16.830000 42.540000 0 0 0
1388 198 2 -0.120000 29.450000 17.090000 42.880000 0 0 0
1389 198 2 -0.120000 30.640000 16.580000 42.140000 0 0 0
1390 198 4 0.060000 28.640000 16.470000 42.680000 0 0 0
1391 198 4 0.060000 29.570000 17.180000 43.930000 0 0 0
1392 198 4 0.060000 31.600000 16.380000 42.750000 0 0 0
1393 198 4 0.060000 30.940000 17.290000 41.420000 0 0 0
1394 199 5 0.000000 27.750000 15.960000 43.000000 0 0 0
1395 199 2 -0.120000 27.250000 16.250000 43.480000 0 0 0
1396 199 2 -0.120000 28.270000 15.670000 42.540000 0 0 0
1397 199 4 0.060000 26.300000 16.180000 42.960000 0 0 0
1398 199 4 0.060000 27.130000 15.560000 44.360000 0 0 0
1399 199 4 0.060000 29.300000 15.980000 42.810000 0 0 0
1400 199 4 0.060000 27.980000 16.250000 41.560000 0 0 0
1401 200 1 0.000000 25.190000 15.230000 43.350000 0 0 0
1402 200 2 -0.120000 24.480000 15.560000 43.630000 0 0 0
1403 200 3 -0.180000 25.830000 14.990000 43.110000 0 0 0
1404 200 4 0.060000 23.830000 15.270000 42.830000 0 0 0
1405 200 4 0.060000 24.300000 15.090000 44.590000 0 0 0
1406 200 4 0.060000 26.630000 15.740000 43.250000 0 0 0
1407 200 4 0.060000 25.760000 14.690000 42.040000 0 0 0
1408 200 4 0.060000 26.230000 14.260000 43.630000 0 0 0
1409 201 1 0.000000 44.250000 30.360000 56.250000 0 0 0
1410 201 2 -0.120000 44.310000 30.230000 55.500000 0 0 0
1411 201 3 -0.180000 44.280000 30.470000 56.910000 0 0 0
1412 201 4 0.060000 43.990000 31.210000 55.000000 0 0 0
1413 201 4 0.060000 43.400000 29.480000 55.330000 0 0 0
1414 201 4 0.060000 44.710000 29.660000 57.590000 0 0 0
1415 201 4 0.060000 43.290000 30.400000 57.200000 0 0 0
1416 201 4 0.060000 44.820000 31.420000 57.170000 0 0 0
1417 202 5 0.000000 41.920000 30.130000 55.240000 0 0 0
1418 202 2 -0.120000 41.700000 30.830000 55.120000 0 0 0
1419 202 2 -0.120000 42.120000 29.430000 55.340000 0 0 0
1420 202 4 0.060000 42.480000 31.330000 55.540000 0 0 0
1421 202 4 0.060000 41.730000 31.010000 54.010000 0 0 0
1422 202 4 0.060000 41.250000 28.800000 55.330000 0 0 0
1423 202 4 0.060000 42.570000 29.400000 56.320000 0 0 0
1424 203 5 0.000000 39.790000 29.630000 53.920000 0 0 0
1425 203 2 -0.120000 39.980000 29.960000 54.590000 0 0 0
1426 203 2 -0.120000 39.480000 29.280000 53.300000 0 0 0
1427 203 4 0.060000 40.680000 29.350000 55.140000 0 0 0
1428 203 4 0.060000 40.900000 30.590000 54.370000 0 0 0
1429 203 4 0.060000 40.320000 28.890000 52.660000 0 0 0
1430 203 4 0.060000 38.660000 29.860000 52.840000 0 0 0
1431 204 5 0.000000 37.560000 29.000000 52.760000 0 0 0
1432 204 2 -0.120000 37.710000 29.400000 53.430000 0 0 0
1433 204 2 -0.120000 37.380000 28.600000 52.100000 0 0 0
1434 204 4 0.060000 36.780000 29.520000 53.940000 0 0 0
1435 204 4 0.060000 38.370000 28.870000 54.050000 0 0 0
1436 204 4 0.060000 38.400000 28.420000 51.590000 0 0 0
1437 204 4 0.060000 36.980000 29.160000 51.360000 0 0 0
1438 205 5 0.000000 36.140000 27.350000 52.240000 0 0 0
1439 205 2 -0.120000 35.680000 27.960000 51.980000 0 0 0
1440 205 2 -0.120000 36.620000 26.730000 52.450000 0 0 0
1441 205 4 0.060000 35.320000 27.840000 51.020000 0 0 0
1442 205 4 0.060000 34.830000 27.960000 52.590000 0 0 0
1443 205 4 0.060000 36.560000 26.690000 53.500000 0 0 0
1444 205 4 0.060000 37.650000 27.110000 52.420000 0 0 0
1445 206 5 0.000000 35.590000 24.870000 52.880000 0 0 0
1446 206 2 -0.120000 36.320000 25.090000 52.820000 0 0 0
1447 206 2 -0.120000 34.850000 24.650000 52.940000 0 0 0
1448 206 4 0.060000 36.990000 24.380000 53.210000 0 0 0
1449 206 4 0.060000 36.530000 25.000000 51.760000 0 0 0
1450 206 4 0.060000 34.250000 25.460000 52.590000 0 0 0
1451 206 4 0.060000 34.580000 24.650000 53.940000 0 0 0
1452 207 5 0.000000 35.040000 22.670000 52.110000 0 0 0
1453 207 2 -0.120000 35.750000 22.990000 52.140000 0 0 0
1454 207 2 -0.120000 34.280000 22.490000 52.040000 0 0 0
1455 207 4 0.060000 36.280000 22.260000 52.810000 0 0 0
1456 207 4 0.060000 36.330000 22.710000 51.220000 0 0 0
1457 207 4 0.060000 33.680000 22.680000 52.860000 0 0 0
1458 207 4 0.060000 34.360000 21.440000 52.090000 0 0 0
1459 208 5 0.000000 34.170000 20.850000 50.180000 0 0 0
1460 208 2 -0.120000 34.550000 21.350000 50.600000 0 0 0
1461 208 2 -0.120000 33.760000 20.360000 49.770000 0 0 0
1462 208 4 0.060000 35.170000 21.690000 49.880000 0 0 0
1463 208 4 0.060000 34.050000 22.130000 51.130000 0 0 0
1464 208 4 0.060000 33.150000 19.620000 50.300000 0 0 0
1465 208 4 0.060000 34.570000 19.790000 49.370000 0 0 0
1466 209 5 0.000000 32.370000 20.010000 48.700000 0 0 0
1467 209 2 -0.120000 32.830000 20.510000 49.080000 0 0 0
1468 209 2 -0.120000 31.910000 19.500000 48.300000 0 0 0
1469 209 4 0.060000 33.570000 21.050000 48.450000 0 0 0
1470 209 4 0.060000 32.080000 21.320000 49.490000 0 0 0
1471 209 4 0.060000 31.240000 19.170000 49.060000 0 0 0
1472 209 4 0.060000 32.530000 18.740000 47.920000 0 0 0
1473 210 5 0.000000 29.980000 19.690000 47.650000 0 0 0
1474 210 2 -0.120000 30.690000 19.890000 47.860000 0 0 0
1475 210 2 -0.120000 29.300000 19.350000 47.480000 0 0 0
1476 210 4 0.060000 31.420000 20.030000 47.040000 0 0 0
1477 210 4 0.060000 30.460000 20.830000 48.320000 0 0 0
1478 210 4 0.060000 29.100000 19.740000 46.420000 0 0 0
1479 210 4 0.060000 28.500000 19.830000 48.210000 0 0 0
1480 211 5 0.000000 28.090000 18.200000 47.260000 0 0 0
1481 211 2 -0.120000 28.090000 18.590000 47.950000 0 0 0
1482 211 2 -0.120000 28.090000 17.800000 46.570000 0 0 0
1483 211 4 0.060000 26.960000 18.570000 48.130000 0 0 0
1484 211 4 0.060000 28.650000 18.080000 48.740000 0 0 0
1485 211 4 0.060000 29.100000 17.810000 46.220000 0 0 0
1486 211 4 0.060000 27.650000 18.510000 45.890000 0 0 0
1487 212 5 0.000000 26.300000 16.510000 47.520000 0 0 0
1488 212 2 -0.120000 26.380000 16.990000 48.070000 0 0 0
1489 212 2 -0.120000 26.170000 16.130000 46.900000 0 0 0
1490 212 4 0.060000 25.430000 17.080000 48.770000 0 0 0
1491 212 4 0.060000 26.980000 16.520000 48.840000 0 0 0
1492 212 4 0.060000 26.260000 14.990000 46.930000 0 0 0
1493 212 4 0.060000 27.110000 16.180000 46.350000 0 0 0
1494 213 5 0.000000 24.480000 14.970000 47.700000 0 0 0
1495 213 2 -0.120000 25.210000 14.940000 47.430000 0 0 0
1496 213 2 -0.120000 23.820000 14.890000 48.060000 0 0 0
1497 213 4 0.060000 25.060000 14.350000 46.640000 0 0 0
1498 213 4 0.060000 25.430000 15.980000 47.080000 0 0 0
1499 213 4 0.060000 22.980000 15.180000 47.440000 0 0 0
1500 213 4 0.060000 23.610000 15.670000 48.650000 0 0 0
1501 214 5 0.000000 22.480000 13.490000 48.460000 0 0 0
1502 214 2 -0.120000 22.440000 13.480000 47.700000 0 0 0
1503 214 2 -0.120000 22.510000 13.480000 49.230000 0 0 0
1504 214 4 0.060000 22.980000 12.660000 47.200000 0 0 0
1505 214 4 0.060000 21.370000 13.400000 47.430000 0 0 0
1506 214 4 0.060000 22.230000 14.510000 49.450000 0 0 0
1507 214 4 0.060000 23.540000 13.500000 49.660000 0 0 0
1508 215 5 0.000000 22.130000 11.360000 49.970000 0 0 0
1509 215 2 -0.120000 21.980000 12.110000 49.970000 0 0 0
1510 215 2 -0.120000 22.380000 10.630000 49.950000 0 0 0
1511 215 4 0.060000 20.930000 12.240000 49.820000 0 0 0
1512 215 4 0.060000 21.970000 12.420000 51.090000 0 0 0
1513 215 4 0.060000 22.790000 10.530000 48.910000 0 0 0
1514 215 4 0.060000 21.600000 9.890000 50.220000 0 0 0
1515 216 5 0.000000 21.980000 10.420000 52.460000 0 0 0
1516 216 2 -0.120000 21.870000 11.180000 52.370000 0 0 0
1517 216 2 -0.120000 22.050000 9.660000 52.430000 0 0 0
1518 216 4 0.060000 21.490000 11.480000 53.360000 0 0 0
1519 216 4 0.060000 22.850000 11.680000 52.310000 0 0 0
1520 216 4 0.060000 21.140000 9.270000 52.570000 0 0 0
1521 216 4 0.060000 22.850000 9.330000 52.970000 0 0 0
1522 217 5 0.000000 22.560000 10.330000 54.610000 0 0 0
1523 217 2 -0.120000 22.340000 11.120000 54.590000 0 0 0
1524 217 2 -0.120000 22.740000 9.540000 54.620000 0 0 0
1525 217 4 0.060000 23.250000 11.790000 54.280000 0 0 0
1526 217 4 0.060000 21.650000 11.250000 53.840000 0 0 0
1527 217 4 0.060000 22.040000 8.960000 55.260000 0 0 0
1528 217 4 0.060000 23.720000 9.410000 55.060000 0 0 0
1529 218 5 0.000000 22.500000 11.170000 56.770000 0 0 0
1530 218 2 -0.120000 22.060000 11.760000 57.130000 0 0 0
1531 218 2 -0.120000 22.940000 10.550000 56.550000 0 0 0
1532 218 4 0.060000 22.060000 12.420000 56.290000 0 0 0
1533 218 4 0.060000 20.980000 11.550000 57.070000 0 0 0
1534 218 4 0.060000 24.050000 10.810000 56.710000 0 0 0
1535 218 4 0.060000 22.860000 10.350000 55.420000 0 0 0
1536 219 5 0.000000 21.300000 12.180000 59.020000 0 0 0
1537 219 2 -0.120000 21.100000 12.820000 59.430000 0 0 0
1538 219 2 -0.120000 21.510000 11.530000 58.620000 0 0 0
1539 219 4 0.060000 19.990000 12.660000 59.540000 0 0 0
1540 219 4 0.060000 21.570000 12.850000 60.340000 0 0 0
1541 219 4 0.060000 22.660000 11.790000 58.330000 0 0 0
1542 219 4 0.060000 20.960000 11.540000 57.670000 0 0 0
1543 220 5 0.000000 19.760000 14.220000 59.550000 0 0 0
1544 220 2 -0.120000 19.390000 14.890000 59.760000 0 0 0
1545 220 2 -0.120000 20.120000 13.600000 59.210000 0 0 0
1546 220 4 0.060000 18.440000 14.660000 59.660000 0 0 0
1547 220 4 0.060000 19.630000 15.070000 60.760000 0 0 0
1548 220 4 0.060000 19.830000 12.930000 59.990000 0 0 0
1549 220 4 0.060000 21.250000 13.760000 59.200000 0 0 0
1550 221 5 0.000000 17.800000 16.070000 60.190000 0 0 0
1551 221 2 -0.120000 17.300000 16.640000 60.530000 0 0 0
1552 221 2 -0.120000 18.280000 15.440000 59.880000 0 0 0
1553 221 4 0.060000 17.490000 17.580000 59.840000 0 0 0
1554 221 4 0.060000 16.210000 16.430000 60.590000 0 0 0
1555 221 4 0.060000 18.690000 14.810000 60.770000 0 0 0
1556 221 4 0.060000 19.040000 16.040000 59.320000 0 0 0
1557 222 5 0.000000 16.640000 15.290000 0.296000 0 0 1
1558 222 2 -0.120000 16.240000 15.860000 0.706000 0 0 1
1559 222 2 -0.120000 17.080000 14.680000 62.000000 0 0 0
1560 222 4 0.060000 16.130000 16.580000 61.910000 0 0 0
1561 222 4 0.060000 15.380000 15.300000 0.976000 0 0 1
1562 222 4 0.060000 17.980000 15.290000 61.680000 0 0 0
1563 222 4 0.060000 16.540000 14.340000 61.230000 0 0 0
1564 223 5 0.000000 15.490000 13.820000 2.076000 0 0 1
1565 223 2 -0.120000 15.250000 14.440000 2.466000 0 0 1
1566 223 2 -0.120000 15.740000 13.240000 1.696000 0 0 1
1567 223 4 0.060000 14.470000 13.970000 3.026000 0 0 1
1568 223 4 0.060000 16.110000 14.730000 3.216000 0 0 1
1569 223 4 0.060000 16.300000 13.440000 0.786000 0 0 1
1570 223 4 0.060000 14.880000 12.650000 1.226000 0 0 1
1571 224 5 0.000000 15.380000 12.620000 4.006000 0 0 1
1572 224 2 -0.120000 14.630000 12.540000 3.866000 0 0 1
1573 224 2 -0.120000 16.140000 12.710000 4.166000 0 0 1
1574 224 4 0.060000 14.410000 11.710000 3.136000 0 0 1
1575 224 4 0.060000 14.090000 12.330000 4.796000 0 0 1
1576 224 4 0.060000 16.270000 13.660000 4.616000 0 0 1
1577 224 4 0.060000 16.570000 12.730000 3.196000 0 0 1
1578 225 5 0.000000 16.130000 11.170000 6.176000 0 0 1
1579 225 2 -0.120000 15.340000 11.130000 6.146000 0 0 1
1580 225 2 -0.120000 16.940000 11.200000 6.106000 0 0 1
1581 225 4 0.060000 14.980000 10.120000 5.696000 0 0 1
1582 225 4 0.060000 14.940000 11.420000 7.066000 0 0 1
1583 225 4 0.060000 17.150000 11.020000 7.196000 0 0 1
1584 225 4 0.060000 17.300000 12.290000 5.886000 0 0 1
1585 226 5 0.000000 17.060000 8.670000 5.836000 0 0 1
1586 226 2 -0.120000 16.390000 8.870000 5.496000 0 0 1
1587 226 2 -0.120000 17.720000 8.480000 6.186000 0 0 1
1588 226 4 0.060000 16.590000 9.180000 4.506000 0 0 1
1589 226 4 0.060000 15.810000 7.980000 5.246000 0 0 1
1590 226 4 0.060000 17.420000 8.230000 7.136000 0 0 1
1591 226 4 0.060000 18.440000 9.310000 6.296000 0 0 1
1592 227 5 0.000000 18.240000 6.260000 5.946000 0 0 1
1593 227 2 -0.120000 17.650000 6.470000 5.586000 0 0 1
1594 227 2 -0.120000 18.850000 6.030000 6.326000 0 0 1
1595 227 4 0.060000 17.770000 6.810000 4.596000 0 0 1
1596 227 4 0.060000 16.870000 5.560000 5.596000 0 0 1
1597 227 4 0.060000 18.580000 6.060000 7.426000 0 0 1
1598 227 4 0.060000 19.560000 6.850000 6.036000 0 0 1
1599 228 5 0.000000 20.430000 6.150000 4.856000 0 0 1
1600 228 2 -0.120000 19.740000 6.350000 4.576000 0 0 1
1601 228 2 -0.120000 21.120000 5.940000 5.156000 0 0 1
1602 228 4 0.060000 19.900000 6.350000 3.516000 0 0 1
1603 228 4 0.060000 19.110000 5.540000 4.656000 0 0 1
1604 228 4 0.060000 21.050000 5.970000 6.326000 0 0 1
1605 228 4 0.060000 21.790000 6.810000 4.826000 0 0 1
1606 229 5 0.000000 21.750000 7.220000 3.156000 0 0 1
1607 229 2 -0.120000 22.000000 7.860000 2.736000 0 0 1
1608 229 2 -0.120000 21.510000 6.590000 3.566000 0 0 1
1609 229 4 0.060000 23.020000 8.060000 2.926000 0 0 1
1610 229 4 0.060000 21.830000 7.710000 1.636000 0 0 1
1611 229 4 0.060000 20.430000 6.290000 3.556000 0 0 1
1612 229 4 0.060000 21.650000 6.790000 4.736000 0 0 1
1613 230 5 0.000000 22.450000 9.510000 2.136000 0 0 1
1614 230 2 -0.120000 22.620000 10.130000 1.616000 0 0 1
1615 230 2 -0.120000 22.300000 8.890000 2.646000 0 0 1
1616 230 4 0.060000 23.610000 10.210000 1.406000 0 0 1
1617 230 4 0.060000 22.040000 10.030000 0.696000 0 0 1
1618 230 4 0.060000 21.190000 8.660000 2.766000 0 0 1
1619 230 4 0.060000 22.600000 9.030000 3.796000 0 0 1
1620 231 5 0.000000 20.350000 10.690000 1.336000 0 0 1
1621 231 2 -0.120000 19.560000 10.820000 1.356000 0 0 1
1622 231 2 -0.120000 21.130000 10.640000 1.406000 0 0 1
1623 231 4 0.060000 19.130000 10.650000 0.416000 0 0 1
1624 231 4 0.060000 19.240000 10.180000 2.146000 0 0 1
1625 231 4 0.060000 21.580000 11.360000 0.726000 0 0 1
1626 231 4 0.060000 21.510000 9.650000 1.036000 0 0 1
1627 232 5 0.000000 17.780000 10.880000 0.526000 0 0 1
1628 232 2 -0.120000 16.970000 10.960000 0.356000 0 0 1
1629 232 2 -0.120000 18.570000 10.740000 0.596000 0 0 1
1630 232 4 0.060000 16.510000 10.210000 1.056000 0 0 1
1631 232 4 0.060000 16.750000 11.840000 0.776000 0 0 1
1632 232 4 0.060000 18.750000 11.240000 1.556000 0 0 1
1633 232 4 0.060000 19.270000 11.030000 61.870000 0 0 0
1634 233 5 0.000000 15.780000 8.990000 0.406000 0 0 1
1635 233 2 -0.120000 15.060000 9.230000 0.226000 0 0 1
1636 233 2 -0.120000 16.520000 8.740000 0.566000 0 0 1
1637 233 4 0.060000 14.520000 8.710000 61.400000 0 0 0
1638 233 4 0.060000 14.410000 8.950000 1.086000 0 0 1
1639 233 4 0.060000 16.750000 9.430000 1.406000 0 0 1
1640 233 4 0.060000 17.310000 9.000000 61.870000 0 0 0
1641 234 5 0.000000 13.240000 9.140000 0.536000 0 0 1
1642 234 2 -0.120000 13.050000 9.510000 1.166000 0 0 1
1643 234 2 -0.120000 13.410000 8.730000 61.910000 0 0 0
1644 234 4 0.060000 12.190000 9.240000 1.706000 0 0 1
1645 234 4 0.060000 13.860000 9.650000 1.926000 0 0 1
1646 234 4 0.060000 14.390000 9.190000 61.570000 0 0 0
1647 234 4 0.060000 12.830000 8.910000 61.020000 0 0 0
1648 235 5 0.000000 10.670000 9.030000 0.876000 0 0 1
1649 235 2 -0.120000 10.630000 9.470000 1.526000 0 0 1
1650 235 2 -0.120000 10.650000 8.720000 0.196000 0 0 1
1651 235 4 0.060000 9.590000 9.200000 1.826000 0 0 1
1652 235 4 0.060000 11.520000 8.990000 2.146000 0 0 1
1653 235 4 0.060000 10.620000 7.600000 0.326000 0 0 1
1654 235 4 0.060000 11.640000 8.840000 61.680000 0 0 0
1655 236 5 0.000000 8.080000 8.940000 1.146000 0 0 1
1656 236 2 -0.120000 8.020000 9.430000 1.756000 0 0 1
1657 236 2 -0.120000 8.170000 8.440000 0.516000 0 0 1
1658 236 4 0.060000 7.670000 10.380000 1.466000 0 0 1
1659 236 4 0.060000 7.120000 9.160000 2.346000 0 0 1
1660 236 4 0.060000 8.080000 7.370000 0.756000 0 0 1
1661 236 4 0.060000 9.160000 8.900000 0.226000 0 0 1
1662 237 5 0.000000 6.980000 8.440000 3.526000 0 0 1
1663 237 2 -0.120000 7.770000 8.560000 3.386000 0 0 1
1664 237 2 -0.120000 6.220000 8.200000 3.746000 0 0 1
1665 237 4 0.060000 8.060000 8.150000 2.456000 0 0 1
1666 237 4 0.060000 7.850000 9.590000 3.326000 0 0 1
1667 237 4 0.060000 5.620000 8.420000 2.786000 0 0 1
1668 237 4 0.060000 5.960000 8.910000 4.466000 0 0 1
1669 238 5 0.000000 5.650000 7.990000 5.696000 0 0 1
1670 238 2 -0.120000 6.350000 8.020000 5.506000 0 0 1
1671 238 2 -0.120000 4.970000 7.900000 5.906000 0 0 1
1672 238 4 0.060000 6.900000 7.990000 6.466000 0 0 1
1673 238 4 0.060000 6.560000 7.690000 4.586000 0 0 1
1674 238 4 0.060000 4.500000 8.290000 4.916000 0 0 1
1675 238 4 0.060000 4.540000 8.670000 6.546000 0 0 1
1676 239 5 0.000000 4.160000 7.100000 7.676000 0 0 1
1677 239 2 -0.120000 4.950000 7.210000 7.766000 0 0 1
1678 239 2 -0.120000 3.390000 7.020000 7.616000 0 0 1
1679 239 4 0.060000 5.180000 7.120000 8.856000 0 0 1
1680 239 4 0.060000 5.300000 6.370000 7.136000 0 0 1
1681 239 4 0.060000 3.160000 6.610000 6.656000 0 0 1
1682 239 4 0.060000 2.900000 7.940000 7.616000 0 0 1
1683 240 5 0.000000 3.120000 6.610000 9.896000 0 0 1
1684 240 2 -0.120000 2.850000 7.280000 9.936000 0 0 1
1685 240 2 -0.120000 3.380000 5.920000 9.866000 0 0 1
1686 240 4 0.060000 1.750000 7.280000 9.706000 0 0 1
1687 240 4 0.060000 2.870000 7.720000 10.936000 0 0 1
1688 240 4 0.060000 4.420000 6.060000 10.106000 0 0 1
1689 240 4 0.060000 3.500000 5.540000 8.826000 0 0 1
1690 241 5 0.000000 2.510000 6.820000 12.396000 0 0 1
1691 241 2 -0.120000 2.100000 7.410000 12.116000 0 0 1
1692 241 2 -0.120000 2.970000 6.230000 12.536000 0 0 1
1693 241 4 0.060000 1.110000 7.130000 11.756000 0 0 1
1694 241 4 0.060000 1.970000 7.860000 13.066000 0 0 1
1695 241 4 0.060000 2.490000 5.730000 13.346000 0 0 1
1696 241 4 0.060000 3.900000 6.530000 12.976000 0 0 1
1697 242 5 0.000000 2.830000 9.280000 13.036000 0 0 1
1698 242 2 -0.120000 2.250000 9.840000 12.936000 0 0 1
1699 242 2 -0.120000 3.460000 8.830000 13.236000 0 0 1
1700 242 4 0.060000 2.650000 10.370000 12.166000 0 0 1
1701 242 4 0.060000 1.380000 9.290000 12.726000 0 0 1
1702 242 4 0.060000 3.370000 8.260000 12.306000 0 0 1
1703 242 4 0.060000 3.250000 7.930000 13.816000 0 0 1
1704 243 5 0.000000 3.120000 11.930000 13.026000 0 0 1
1705 243 2 -0.120000 2.400000 12.240000 13.186000 0 0 1
1706 243 2 -0.120000 3.780000 11.490000 12.856000 0 0 1
1707 243 4 0.060000 2.270000 12.300000 14.246000 0 0 1
1708 243 4 0.060000 2.490000 13.320000 12.866000 0 0 1
1709 243 4 0.060000 4.600000 12.100000 13.226000 0 0 1
1710 243 4 0.060000 3.950000 11.510000 11.836000 0 0 1
1711 244 5 0.000000 3.800000 13.950000 13.996000 0 0 1
1712 244 2 -0.120000 3.780000 13.950000 13.236000 0 0 1
1713 244 2 -0.120000 3.830000 13.960000 14.766000 0 0 1
1714 244 4 0.060000 4.790000 13.390000 12.906000 0 0 1
1715 244 4 0.060000 2.890000 13.520000 12.906000 0 0 1
1716 244 4 0.060000 2.790000 14.140000 15.016000 0 0 1
1717 244 4 0.060000 4.650000 14.700000 15.166000 0 0 1
1718 245 5 0.000000 5.730000 15.300000 15.126000 0 0 1
1719 245 2 -0.120000 6.150000 15.950000 15.246000 0 0 1
1720 245 2 -0.120000 5.300000 14.670000 15.006000 0 0 1
1721 245 4 0.060000 6.270000 15.950000 16.316000 0 0 1
1722 245 4 0.060000 7.090000 15.550000 14.796000 0 0 1
1723 245 4 0.060000 5.520000 14.480000 14.006000 0 0 1
1724 245 4 0.060000 4.280000 14.880000 15.286000 0 0 1
1725 246 5 0.000000 7.980000 14.550000 16.516000 0 0 1
1726 246 2 -0.120000 7.810000 14.550000 15.746000 0 0 1
1727 246 2 -0.120000 8.130000 14.550000 17.276000 0 0 1
1728 246 4 0.060000 8.670000 14.090000 15.276000 0 0 1
1729 246 4 0.060000 6.840000 14.020000 15.586000 0 0 1
1730 246 4 0.060000 7.410000 15.080000 17.936000 0 0 1
1731 246 4 0.060000 9.110000 15.020000 17.436000 0 0 1
1732 247 5 0.000000 9.800000 15.470000 15.526000 0 0 1
1733 247 2 -0.120000 9.590000 15.320000 14.796000 0 0 1
1734 247 2 -0.120000 10.040000 15.590000 16.266000 0 0 1
1735 247 4 0.060000 10.320000 14.860000 14.206000 0 0 1
1736 247 4 0.060000 8.590000 14.880000 14.656000 0 0 1
1737 247 4 0.060000 9.180000 15.980000 16.686000 0 0 1
1738 247 4 0.060000 10.820000 16.390000 16.476000 0 0 1
1739 248 5 0.000000 11.500000 16.250000 14.066000 0 0 1
1740 248 2 -0.120000 10.880000 16.510000 14.406000 0 0 1
1741 248 2 -0.120000 12.070000 16.000000 13.666000 0 0 1
1742 248 4 0.060000 10.070000 15.890000 14.206000 0 0 1
1743 248 4 0.060000 11.000000 16.600000 15.456000 0 0 1
1744 248 4 0.060000 13.030000 15.800000 14.276000 0 0 1
1745 248 4 0.060000 12.370000 16.710000 12.946000 0 0 1
1746 249 5 0.000000 12.820000 17.560000 12.356000 0 0 1
1747 249 2 -0.120000 12.320000 17.850000 12.836000 0 0 1
1748 249 2 -0.120000 13.340000 17.270000 11.896000 0 0 1
1749 249 4 0.060000 11.370000 17.780000 12.316000 0 0 1
1750 249 4 0.060000 12.200000 17.160000 13.716000 0 0 1
1751 249 4 0.060000 14.370000 17.580000 12.166000 0 0 1
1752 249 4 0.060000 13.050000 17.850000 10.916000 0 0 1
1753 250 1 0.000000 12.970000 20.290000 12.046000 0 0 1
1754 250 2 -0.120000 12.260000 20.620000 12.326000 0 0 1
1755 250 3 -0.180000 13.610000 20.050000 11.806000 0 0 1
1756 250 4 0.060000 11.610000 20.330000 11.526000 0 0 1
1757 250 4 0.060000 12.080000 20.150000 13.286000 0 0 1
1758 250 4 0.060000 14.410000 20.800000 11.946000 0 0 1
1759 250 4 0.060000 13.540000 19.750000 10.736000 0 0 1
1760 250 4 0.060000 14.010000 19.320000 12.326000 0 0 1
1761 251 1 0.000000 40.750000 26.000000 57.390000 0 0 0
1762 251 2 -0.120000 40.810000 25.870000 56.640000 0 0 0
1763 251 3 -0.180000 40.780000 26.110000 58.050000 0 0 0
1764 251 4 0.060000 40.490000 26.850000 56.140000 0 0 0
1765 251 4 0.060000 39.900000 25.120000 56.470000 0 0 0
1766 251 4 0.060000 41.210000 25.300000 58.730000 0 0 0
1767 251 4 0.060000 39.790000 26.040000 58.340000 0 0 0
1768 251 4 0.060000 41.320000 27.060000 58.310000 0 0 0
1769 252 5 0.000000 40.070000 23.530000 57.890000 0 0 0
1770 252 2 -0.120000 39.850000 24.230000 57.770000 0 0 0
1771 252 2 -0.120000 40.270000 22.830000 57.990000 0 0 0
1772 252 4 0.060000 40.630000 24.730000 58.190000 0 0 0
1773 252 4 0.060000 39.880000 24.410000 56.660000 0 0 0
1774 252 4 0.060000 39.400000 22.200000 57.980000 0 0 0
1775 252 4 0.060000 40.720000 22.800000 58.970000 0 0 0
1776 253 5 0.000000 39.710000 21.230000 58.800000 0 0 0
1777 253 2 -0.120000 39.900000 21.560000 59.470000 0 0 0
1778 253 2 -0.120000 39.400000 20.880000 58.180000 0 0 0
1779 253 4 0.060000 40.600000 20.950000 60.020000 0 0 0
1780 253 4 0.060000 40.820000 22.190000 59.250000 0 0 0
1781 253 4 0.060000 40.240000 20.490000 57.540000 0 0 0
1782 253 4 0.060000 38.580000 21.460000 57.720000 0 0 0
1783 254 5 0.000000 39.270000 18.790000 59.930000 0 0 0
1784 254 2 -0.120000 39.420000 19.190000 60.600000 0 0 0
1785 254 2 -0.120000 39.090000 18.390000 59.270000 0 0 0
1786 254 4 0.060000 38.490000 19.310000 61.110000 0 0 0
1787 254 4 0.060000 40.080000 18.660000 61.220000 0 0 0
1788 254 4 0.060000 40.110000 18.210000 58.760000 0 0 0
1789 254 4 0.060000 38.690000 18.950000 58.530000 0 0 0
1790 255 5 0.000000 36.790000 17.800000 60.810000 0 0 0
1791 255 2 -0.120000 36.330000 18.410000 60.550000 0 0 0
1792 255 2 -0.120000 37.270000 17.180000 61.020000 0 0 0
1793 255 4 0.060000 35.970000 18.290000 59.590000 0 0 0
1794 255 4 0.060000 35.480000 18.410000 61.160000 0 0 0
1795 255 4 0.060000 37.210000 17.140000 0.066000 0 0 1
1796 255 4 0.060000 38.300000 17.560000 60.990000 0 0 0
1797 256 5 0.000000 37.480000 16.620000 0.726000 0 0 1
1798 256 2 -0.120000 38.210000 16.840000 0.666000 0 0 1
1799 256 2 -0.120000 36.740000 16.400000 0.786000 0 0 1
1800 256 4 0.060000 38.880000 16.130000 1.056000 0 0 1
1801 256 4 0.060000 38.420000 16.750000 61.610000 0 0 0
1802 256 4 0.060000 36.140000 17.210000 0.436000 0 0 1
1803 256 4 0.060000 36.470000 16.400000 1.786000 0 0 1
1804 257 5 0.000000 36.640000 16.340000 3.026000 0 0 1
1805 257 2 -0.120000 37.350000 16.660000 3.056000 0 0 1
1806 257 2 -0.120000 35.880000 16.160000 2.956000 0 0 1
1807 257 4 0.060000 37.880000 15.930000 3.726000 0 0 1
1808 257 4 0.060000 37.930000 16.380000 2.136000 0 0 1
1809 257 4 0.060000 35.280000 16.350000 3.776000 0 0 1
1810 257 4 0.060000 35.960000 15.110000 3.006000 0 0 1
1811 258 5 0.000000 35.940000 15.180000 5.186000 0 0 1
1812 258 2 -0.120000 36.320000 15.680000 5.606000 0 0 1
1813 258 2 -0.120000 35.530000 14.690000 4.776000 0 0 1
1814 258 4 0.060000 36.940000 16.020000 4.886000 0 0 1
1815 258 4 0.060000 35.820000 16.460000 6.136000 0 0 1
1816 258 4 0.060000 34.920000 13.950000 5.306000 0 0 1
1817 258 4 0.060000 36.340000 14.120000 4.376000 0 0 1
1818 259 5 0.000000 34.640000 14.600000 6.956000 0 0 1
1819 259 2 -0.120000 35.100000 15.100000 7.336000 0 0 1
1820 259 2 -0.120000 34.180000 14.090000 6.556000 0 0 1
1821 259 4 0.060000 35.840000 15.640000 6.706000 0 0 1
1822 259 4 0.060000 34.350000 15.910000 7.746000 0 0 1
1823 259 4 0.060000 33.510000 13.760000 7.316000 0 0 1
1824 259 4 0.060000 34.800000 13.330000 6.176000 0 0 1
1825 260 5 0.000000 33.690000 14.170000 8.906000 0 0 1
1826 260 2 -0.120000 34.400000 14.370000 9.116000 0 0 1
1827 260 2 -0.120000 33.010000 13.830000 8.736000 0 0 1
1828 260 4 0.060000 35.130000 14.510000 8.296000 0 0 1
1829 260 4 0.060000 34.170000 15.310000 9.576000 0 0 1
1830 260 4 0.060000 32.810000 14.220000 7.676000 0 0 1
1831 260 4 0.060000 32.210000 14.310000 9.466000 0 0 1
1832 261 5 0.000000 33.460000 12.690000 11.186000 0 0 1
1833 261 2 -0.120000 33.460000 13.080000 11.876000 0 0 1
1834 261 2 -0.120000 33.460000 12.290000 10.496000 0 0 1
1835 261 4 0.060000 32.330000 13.060000 12.056000 0 0 1
1836 261 4 0.060000 34.020000 12.570000 12.666000 0 0 1
1837 261 4 0.060000 34.470000 12.300000 10.146000 0 0 1
1838 261 4 0.060000 33.020000 13.000000 9.816000 0 0 1
1839 262 5 0.000000 32.730000 11.410000 13.166000 0 0 1
1840 262 2 -0.120000 32.810000 11.890000 13.716000 0 0 1
1841 262 2 -0.120000 32.600000 11.030000 12.546000 0 0 1
1842 262 4 0.060000 31.860000 11.980000 14.416000 0 0 1
1843 262 4 0.060000 33.410000 11.420000 14.486000 0 0 1
1844 262 4 0.060000 32.690000 9.890000 12.576000 0 0 1
1845 262 4 0.060000 33.540000 11.080000 11.996000 0 0 1
1846 263 5 0.000000 31.720000 9.990000 15.036000 0 0 1
1847 263 2 -0.120000 32.450000 9.960000 14.766000 0 0 1
1848 263 2 -0.120000 31.060000 9.910000 15.396000 0 0 1
1849 263 4 0.060000 32.300000 9.370000 13.976000 0 0 1
1850 263 4 0.060000 32.670000 11.000000 14.416000 0 0 1
1851 263 4 0.060000 30.220000 10.200000 14.776000 0 0 1
1852 263 4 0.060000 30.850000 10.690000 15.986000 0 0 1
1853 264 5 0.000000 30.350000 9.700000 16.846000 0 0 1
1854 264 2 -0.120000 30.310000 9.690000 16.086000 0 0 1
1855 264 2 -0.120000 30.380000 9.690000 17.616000 0 0 1
1856 264 4 0.060000 30.850000 8.870000 15.586000 0 0 1
1857 264 4 0.060000 29.240000 9.610000 15.816000 0 0 1
1858 264 4 0.060000 30.100000 10.720000 17.836000 0 0 1
1859 264 4 0.060000 31.410000 9.710000 18.046000 0 0 1
1860 265 5 0.000000 27.890000 9.480000 15.956000 0 0 1
1861 265 2 -0.120000 27.740000 10.230000 15.956000 0 0 1
1862 265 2 -0.120000 28.140000 8.750000 15.936000 0 0 1
1863 265 4 0.060000 26.690000 10.360000 15.806000 0 0 1
1864 265 4 0.060000 27.730000 10.540000 17.076000 0 0 1
1865 265 4 0.060000 28.550000 8.650000 14.896000 0 0 1
1866 265 4 0.060000 27.360000 8.010000 16.206000 0 0 1
1867 266 5 0.000000 25.890000 9.960000 17.636000 0 0 1
1868 266 2 -0.120000 25.780000 10.720000 17.546000 0 0 1
1869 266 2 -0.120000 25.960000 9.200000 17.606000 0 0 1
1870 266 4 0.060000 25.400000 11.020000 18.536000 0 0 1
1871 266 4 0.060000 26.760000 11.220000 17.486000 0 0 1
1872 266 4 0.060000 25.050000 8.810000 17.746000 0 0 1
1873 266 4 0.060000 26.760000 8.870000 18.146000 0 0 1
1874 267 5 0.000000 23.410000 9.710000 17.396000 0 0 1
1875 267 2 -0.120000 23.190000 10.500000 17.376000 0 0 1
1876 267 2 -0.120000 23.590000 8.920000 17.406000 0 0 1
1877 267 4 0.060000 24.100000 11.170000 17.066000 0 0 1
1878 267 4 0.060000 22.500000 10.630000 16.626000 0 0 1
1879 267 4 0.060000 22.890000 8.340000 18.046000 0 0 1
1880 267 4 0.060000 24.570000 8.790000 17.846000 0 0 1
1881 268 5 0.000000 20.770000 9.760000 17.256000 0 0 1
1882 268 2 -0.120000 20.330000 10.350000 17.616000 0 0 1
1883 268 2 -0.120000 21.210000 9.140000 17.036000 0 0 1
1884 268 4 0.060000 20.330000 11.010000 16.776000 0 0 1
1885 268 4 0.060000 19.250000 10.140000 17.556000 0 0 1
1886 268 4 0.060000 22.320000 9.400000 17.196000 0 0 1
1887 268 4 0.060000 21.130000 8.940000 15.906000 0 0 1
1888 269 5 0.000000 18.780000 9.250000 16.176000 0 0 1
1889 269 2 -0.120000 18.580000 9.890000 16.586000 0 0 1
1890 269 2 -0.120000 18.990000 8.600000 15.776000 0 0 1
1891 269 4 0.060000 17.470000 9.730000 16.696000 0 0 1
1892 269 4 0.060000 19.050000 9.920000 17.496000 0 0 1
1893 269 4 0.060000 20.140000 8.860000 15.486000 0 0 1
1894 269 4 0.060000 18.440000 8.610000 14.826000 0 0 1
1895 270 5 0.000000 17.170000 7.740000 15.006000 0 0 1
1896 270 2 -0.120000 16.800000 8.410000 15.216000 0 0 1
1897 270 2 -0.120000 17.530000 7.120000 14.666000 0 0 1
1898 270 4 0.060000 15.850000 8.180000 15.116000 0 0 1
1899 270 4 0.060000 17.040000 8.590000 16.216000 0 0 1
1900 270 4 0.060000 17.240000 6.450000 15.446000 0 0 1
1901 270 4 0.060000 18.660000 7.280000 14.656000 0 0 1
1902 271 5 0.000000 15.730000 6.160000 13.626000 0 0 1
1903 271 2 -0.120000 15.230000 6.730000 13.966000 0 0 1
1904 271 2 -0.120000 16.210000 5.530000 13.316000 0 0 1
1905 271 4 0.060000 15.420000 7.670000 13.276000 0 0 1
1906 271 4 0.060000 14.140000 6.520000 14.026000 0 0 1
1907 271 4 0.060000 16.620000 4.900000 14.206000 0 0 1
1908 271 4 0.060000 16.970000 6.130000 12.756000 0 0 1
1909 272 5 0.000000 13.880000 4.390000 13.136000 0 0 1
1910 272 2 -0.120000 13.480000 4.960000 13.546000 0 0 1
1911 272 2 -0.120000 14.320000 3.780000 12.836000 0 0 1
1912 272 4 0.060000 13.370000 5.680000 12.746000 0 0 1
1913 272 4 0.060000 12.620000 4.400000 13.816000 0 0 1
1914 272 4 0.060000 15.220000 4.390000 12.516000 0 0 1
1915 272 4 0.060000 13.780000 3.440000 12.066000 0 0 1
1916 273 5 0.000000 14.190000 1.750000 12.586000 0 0 1
1917 273 2 -0.120000 13.950000 2.370000 12.976000 0 0 1
1918 273 2 -0.120000 14.440000 1.170000 12.206000 0 0 1
1919 273 4 0.060000 13.170000 1.900000 13.536000 0 0 1
1920 273 4 0.060000 14.810000 2.660000 13.726000 0 0 1
1921 273 4 0.060000 15.000000 1.370000 11.296000 0 0 1
1922 273 4 0.060000 13.580000 0.580000 11.736000 0 0 1
1923 274 5 0.000000 14.870000 61.274000 12.716000 0 -1 1
1924 274 2 -0.120000 14.120000 61.194000 12.576000 0 -1 1
1925 274 2 -0.120000 15.630000 61.364000 12.876000 0 -1 1
1926 274 4 0.060000 13.900000 60.364000 11.846000 0 -1 1
1927 274 4 0.060000 13.580000 60.984000 13.506000 0 -1 1
1928 274 4 0.060000 15.760000 0.310000 13.326000 0 0 1
1929 274 4 0.060000 16.060000 61.384000 11.906000 0 -1 1
1930 275 5 0.000000 15.700000 58.814000 12.646000 0 -1 1
1931 275 2 -0.120000 14.910000 58.774000 12.616000 0 -1 1
1932 275 2 -0.120000 16.510000 58.844000 12.576000 0 -1 1
1933 275 4 0.060000 14.550000 57.764000 12.166000 0 -1 1
1934 275 4 0.060000 14.510000 59.064000 13.536000 0 -1 1
1935 275 4 0.060000 16.720000 58.664000 13.666000 0 -1 1
1936 275 4 0.060000 16.870000 59.934000 12.356000 0 -1 1
1937 276 5 0.000000 16.180000 56.244000 12.466000 0 -1 1
1938 276 2 -0.120000 15.510000 56.444000 12.126000 0 -1 1
1939 276 2 -0.120000 16.840000 56.054000 12.816000 0 -1 1
1940 276 4 0.060000 15.710000 56.754000 11.136000 0 -1 1
1941 276 4 0.060000 14.930000 55.554000 11.876000 0 -1 1
1942 276 4 0.060000 16.540000 55.804000 13.766000 0 -1 1
1943 276 4 0.060000 17.560000 56.884000 12.926000 0 -1 1
1944 277 5 0.000000 16.760000 53.674000 13.166000 0 -1 1
1945 277 2 -0.120000 16.170000 53.884000 12.806000 0 -1 1
1946 277 2 -0.120000 17.370000 53.444000 13.546000 0 -1 1
1947 277 4 0.060000 16.290000 54.224000 11.816000 0 -1 1
1948 277 4 0.060000 15.390000 52.974000 12.816000 0 -1 1
1949 277 4 0.060000 17.100000 53.474000 14.646000 0 -1 1
1950 277 4 0.060000 18.080000 54.264000 13.256000 0 -1 1
1951 278 5 0.000000 15.030000 51.674000 12.736000 0 -1 1
1952 278 2 -0.120000 14.340000 51.874000 12.456000 0 -1 1
1953 278 2 -0.120000 15.720000 51.464000 13.036000 0 -1 1
1954 278 4 0.060000 14.500000 51.874000 11.396000 0 -1 1
1955 278 4 0.060000 13.710000 51.064000 12.536000 0 -1 1
1956 278 4 0.060000 15.650000 51.494000 14.206000 0 -1 1
1957 278 4 0.060000 16.390000 52.334000 12.706000 0 -1 1
1958 279 5 0.000000 12.670000 51.204000 13.526000 0 -1 1
1959 279 2 -0.120000 12.920000 51.844000 13.106000 0 -1 1
1960 279 2 -0.120000 12.430000 50.574000 13.936000 0 -1 1
1961 279 4 0.060000 13.940000 52.044000 13.296000 0 -1 1
1962 279 4 0.060000 12.750000 51.694000 12.006000 0 -1 1
1963 279 4 0.060000 11.350000 50.274000 13.926000 0 -1 1
1964 279 4 0.060000 12.570000 50.774000 15.106000 0 -1 1
1965 280 5 0.000000 11.980000 53.444000 13.736000 0 -1 1
1966 280 2 -0.120000 12.150000 54.064000 13.216000 0 -1 1
1967 280 2 -0.120000 11.830000 52.824000 14.246000 0 -1 1
1968 280 4 0.060000 13.140000 54.144000 13.006000 0 -1 1
1969 280 4 0.060000 11.570000 53.964000 12.296000 0 -1 1
1970 280 4 0.060000 10.720000 52.594000 14.366000 0 -1 1
1971 280 4 0.060000 12.130000 52.964000 15.396000 0 -1 1
1972 281 5 0.000000 11.470000 55.814000 13.386000 0 -1 1
1973 281 2 -0.120000 10.680000 55.944000 13.406000 0 -1 1
1974 281 2 -0.120000 12.250000 55.764000 13.456000 0 -1 1
1975 281 4 0.060000 10.250000 55.774000 12.466000 0 -1 1
1976 281 4 0.060000 10.360000 55.304000 14.196000 0 -1 1
1977 281 4 0.060000 12.700000 56.484000 12.776000 0 -1 1
1978 281 4 0.060000 12.630000 54.774000 13.086000 0 -1 1
1979 282 5 0.000000 9.720000 57.784000 13.616000 0 -1 1
1980 282 2 -0.120000 8.910000 57.864000 13.446000 0 -1 1
1981 282 2 -0.120000 10.510000 57.644000 13.686000 0 -1 1
1982 282 4 0.060000 8.450000 57.114000 14.146000 0 -1 1
1983 282 4 0.060000 8.690000 58.744000 13.866000 0 -1 1
1984 282 4 0.060000 10.690000 58.144000 14.646000 0 -1 1
1985 282 4 0.060000 11.210000 57.934000 12.956000 0 -1 1
1986 283 5 0.000000 8.980000 58.794000 15.926000 0 -1 1
1987 283 2 -0.120000 8.260000 59.034000 15.746000 0 -1 1
1988 283 2 -0.120000 9.720000 58.544000 16.086000 0 -1 1
1989 283 4 0.060000 7.720000 58.514000 14.916000 0 -1 1
1990 283 4 0.060000 7.610000 58.754000 16.606000 0 -1 1
1991 283 4 0.060000 9.950000 59.234000 16.926000 0 -1 1
1992 283 4 0.060000 10.510000 58.804000 15.386000 0 -1 1
1993 284 5 0.000000 8.270000 60.554000 17.586000 0 -1 1
1994 284 2 -0.120000 8.080000 60.924000 18.216000 0 -1 1
1995 284 2 -0.120000 8.440000 60.144000 16.956000 0 -1 1
1996 284 4 0.060000 7.220000 60.654000 18.756000 0 -1 1
1997 284 4 0.060000 8.890000 61.064000 18.976000 0 -1 1
1998 284 4 0.060000 9.420000 60.604000 16.616000 0 -1 1
1999 284 4 0.060000 7.860000 60.324000 16.066000 0 -1 1
2000 285 5 0.000000 7.170000 0.030000 19.296000 0 0 1
2001 285 2 -0.120000 7.130000 0.470000 19.946000 0 0 1
2002 285 2 -0.120000 7.150000 61.724000 18.616000 0 -1 1
2003 285 4 0.060000 6.090000 0.200000 20.246000 0 0 1
2004 285 4 0.060000 8.020000 61.994000 20.566000 0 -1 1
2005 285 4 0.060000 7.120000 60.604000 18.746000 0 -1 1
2006 285 4 0.060000 8.140000 61.844000 18.096000 0 -1 1
2007 286 5 0.000000 6.230000 1.950000 20.826000 0 0 1
2008 286 2 -0.120000 6.170000 2.440000 21.436000 0 0 1
2009 286 2 -0.120000 6.320000 1.450000 20.196000 0 0 1
2010 286 4 0.060000 5.820000 3.390000 21.146000 0 0 1
2011 286 4 0.060000 5.270000 2.170000 22.026000 0 0 1
2012 286 4 0.060000 6.230000 0.380000 20.436000 0 0 1
2013 286 4 0.060000 7.310000 1.910000 19.906000 0 0 1
2014 287 5 0.000000 4.020000 3.450000 20.606000 0 0 1
2015 287 2 -0.120000 4.810000 3.570000 20.466000 0 0 1
2016 287 2 -0.120000 3.260000 3.210000 20.826000 0 0 1
2017 287 4 0.060000 5.100000 3.160000 19.536000 0 0 1
2018 287 4 0.060000 4.890000 4.600000 20.406000 0 0 1
2019 287 4 0.060000 2.660000 3.430000 19.866000 0 0 1
2020 287 4 0.060000 3.000000 3.920000 21.546000 0 0 1
2021 288 5 0.000000 2.050000 5.200000 20.456000 0 0 1
2022 288 2 -0.120000 2.750000 5.230000 20.266000 0 0 1
2023 288 2 -0.120000 1.370000 5.110000 20.666000 0 0 1
2024 288 4 0.060000 3.300000 5.200000 21.226000 0 0 1
2025 288 4 0.060000 2.960000 4.900000 19.346000 0 0 1
2026 288 4 0.060000 0.900000 5.500000 19.676000 0 0 1
2027 288 4 0.060000 0.940000 5.880000 21.306000 0 0 1
2028 289 5 0.000000 0.410000 7.030000 19.986000 0 0 1
2029 289 2 -0.120000 1.200000 7.140000 20.076000 0 0 1
2030 289 2 -0.120000 61.644000 6.950000 19.926000 -1 0 1
2031 289 4 0.060000 1.430000 7.050000 21.166000 0 0 1
2032 289 4 0.060000 1.550000 6.300000 19.446000 0 0 1
2033 289 4 0.060000 61.414000 6.540000 18.966000 -1 0 1
2034 289 4 0.060000 61.154000 7.870000 19.926000 -1 0 1
2035 290 5 0.000000 60.864000 9.000000 20.236000 -1 0 1
2036 290 2 -0.120000 60.594000 9.670000 20.276000 -1 0 1
2037 290 2 -0.120000 61.124000 8.310000 20.206000 -1 0 1
2038 290 4 0.060000 59.494000 9.670000 20.046000 -1 0 1
2039 290 4 0.060000 60.614000 10.110000 21.276000 -1 0 1
2040 290 4 0.060000 0.160000 8.450000 20.446000 0 0 1
2041 290 4 0.060000 61.244000 7.930000 19.166000 -1 0 1
2042 291 5 0.000000 59.994000 8.040000 22.216000 -1 0 1
2043 291 2 -0.120000 59.584000 8.630000 21.936000 -1 0 1
2044 291 2 -0.120000 60.454000 7.450000 22.356000 -1 0 1
2045 291 4 0.060000 58.594000 8.350000 21.576000 -1 0 1
2046 291 4 0.060000 59.454000 9.080000 22.886000 -1 0 1
2047 291 4 0.060000 59.974000 6.950000 23.166000 -1 0 1
2048 291 4 0.060000 61.384000 7.750000 22.796000 -1 0 1
2049 292 5 0.000000 57.624000 8.740000 22.146000 -1 0 1
2050 292 2 -0.120000 57.044000 9.300000 22.046000 -1 0 1
2051 292 2 -0.120000 58.254000 8.290000 22.346000 -1 0 1
2052 292 4 0.060000 57.444000 9.830000 21.276000 -1 0 1
2053 292 4 0.060000 56.174000 8.750000 21.836000 -1 0 1
2054 292 4 0.060000 58.164000 7.720000 21.416000 -1 0 1
2055 292 4 0.060000 58.044000 7.390000 22.926000 -1 0 1
2056 293 5 0.000000 55.414000 9.490000 22.056000 -1 0 1
2057 293 2 -0.120000 54.694000 9.800000 22.216000 -1 0 1
2058 293 2 -0.120000 56.074000 9.050000 21.886000 -1 0 1
2059 293 4 0.060000 54.564000 9.860000 23.276000 -1 0 1
2060 293 4 0.060000 54.784000 10.880000 21.896000 -1 0 1
2061 293 4 0.060000 56.894000 9.660000 22.256000 -1 0 1
2062 293 4 0.060000 56.244000 9.070000 20.866000 -1 0 1
2063 294 5 0.000000 53.334000 8.890000 20.636000 -1 0 1
2064 294 2 -0.120000 53.314000 8.890000 19.876000 -1 0 1
2065 294 2 -0.120000 53.364000 8.900000 21.406000 -1 0 1
2066 294 4 0.060000 54.324000 8.330000 19.546000 -1 0 1
2067 294 4 0.060000 52.424000 8.460000 19.546000 -1 0 1
2068 294 4 0.060000 52.324000 9.080000 21.656000 -1 0 1
2069 294 4 0.060000 54.184000 9.640000 21.806000 -1 0 1
2070 295 5 0.000000 51.414000 9.300000 19.036000 -1 0 1
2071 295 2 -0.120000 51.834000 9.950000 19.156000 -1 0 1
2072 295 2 -0.120000 50.984000 8.670000 18.916000 -1 0 1
2073 295 4 0.060000 51.954000 9.950000 20.226000 -1 0 1
2074 295 4 0.060000 52.774000 9.550000 18.706000 -1 0 1
2075 295 4 0.060000 51.204000 8.480000 17.916000 -1 0 1
2076 295 4 0.060000 49.964000 8.880000 19.196000 -1 0 1
2077 296 5 0.000000 49.174000 9.010000 18.446000 -1 0 1
2078 296 2 -0.120000 49.004000 9.010000 17.676000 -1 0 1
2079 296 2 -0.120000 49.324000 9.010000 19.206000 -1 0 1
2080 296 4 0.060000 49.864000 8.550000 17.206000 -1 0 1
2081 296 4 0.060000 48.034000 8.480000 17.516000 -1 0 1
2082 296 4 0.060000 48.604000 9.540000 19.866000 -1 0 1
2083 296 4 0.060000 50.304000 9.480000 19.366000 -1 0 1
2084 297 5 0.000000 46.884000 7.970000 18.366000 -1 0 1
2085 297 2 -0.120000 46.674000 7.820000 17.636000 -1 0 1
2086 297 2 -0.120000 47.124000 8.090000 19.106000 -1 0 1
2087 297 4 0.060000 47.404000 7.360000 17.046000 -1 0 1
2088 297 4 0.060000 45.674000 7.380000 17.496000 -1 0 1
2089 297 4 0.060000 46.264000 8.480000 19.526000 -1 0 1
2090 297 4 0.060000 47.904000 8.890000 19.316000 -1 0 1
2091 298 5 0.000000 44.644000 6.710000 18.466000 -1 0 1
2092 298 2 -0.120000 44.024000 6.970000 18.806000 -1 0 1
2093 298 2 -0.120000 45.214000 6.460000 18.066000 -1 0 1
2094 298 4 0.060000 43.214000 6.350000 18.606000 -1 0 1
2095 298 4 0.060000 44.144000 7.060000 19.856000 -1 0 1
2096 298 4 0.060000 46.174000 6.260000 18.676000 -1 0 1
2097 298 4 0.060000 45.514000 7.170000 17.346000 -1 0 1
2098 299 5 0.000000 42.544000 5.520000 18.166000 -1 0 1
2099 299 2 -0.120000 42.044000 5.810000 18.646000 -1 0 1
2100 299 2 -0.120000 43.064000 5.230000 17.706000 -1 0 1
2101 299 4 0.060000 41.094000 5.740000 18.126000 -1 0 1
2102 299 4 0.060000 41.924000 5.120000 19.526000 -1 0 1
2103 299 4 0.060000 44.094000 5.540000 17.976000 -1 0 1
2104 299 4 0.060000 42.774000 5.810000 16.726000 -1 0 1
2105 300 1 0.000000 40.474000 3.800000 17.916000 -1 0 1
2106 300 2 -0.120000 39.764000 4.130000 18.196000 -1 0 1
2107 300 3 -0.180000 41.114000 3.560000 17.676000 -1 0 1
2108 300 4 0.060000 39.114000 3.840000 17.396000 -1 0 1
2109 300 4 0.060000 39.584000 3.660000 19.156000 -1 0 1
2110 300 4 0.060000 41.914000 4.310000 17.816000 -1 0 1
2111 300 4 0.060000 41.044000 3.260000 16.606000 -1 0 1
2112 300 4 0.060000 41.514000 2.830000 18.196000 -1 0 1
2113 301 1 0.000000 38.720000 57.230000 10.300000 0 0 0
2114 301 2 -0.120000 38.780000 57.100000 9.550000 0 0 0
2115 301 3 -0.180000 38.750000 57.340000 10.960000 0 0 0
2116 301 4 0.060000 38.460000 58.080000 9.050000 0 0 0
2117 301 4 0.060000 37.870000 56.350000 9.380000 0 0 0
2118 301 4 0.060000 39.180000 56.530000 11.640000 0 0 0
2119 301 4 0.060000 37.760000 57.270000 11.250000 0 0 0
2120 301 4 0.060000 39.290000 58.290000 11.220000 0 0 0
2121 302 5 0.000000 38.970000 55.480000 8.620000 0 0 0
2122 302 2 -0.120000 38.750000 56.180000 8.500000 0 0 0
2123 302 2 -0.120000 39.170000 54.780000 8.720000 0 0 0
2124 302 4 0.060000 39.530000 56.680000 8.920000 0 0 0
2125 302 4 0.060000 38.780000 56.360000 7.390000 0 0 0
2126 302 4 0.060000 38.300000 54.150000 8.710000 0 0 0
2127 302 4 0.060000 39.620000 54.750000 9.700000 0 0 0
2128 303 5 0.000000 39.280000 54.640000 6.380000 0 0 0
2129 303 2 -0.120000 39.470000 54.970000 7.050000 0 0 0
2130 303 2 -0.120000 38.970000 54.290000 5.760000 0 0 0
2131 303 4 0.060000 40.170000 54.360000 7.600000 0 0 0
2132 303 4 0.060000 40.390000 55.600000 6.830000 0 0 0
2133 303 4 0.060000 39.810000 53.900000 5.120000 0 0 0
2134 303 4 0.060000 38.150000 54.870000 5.300000 0 0 0
2135 304 5 0.000000 39.500000 54.550000 3.850000 0 0 0
2136 304 2 -0.120000 39.650000 54.950000 4.520000 0 0 0
2137 304 2 -0.120000 39.320000 54.150000 3.190000 0 0 0
2138 304 4 0.060000 38.720000 55.070000 5.030000 0 0 0
2139 304 4 0.060000 40.310000 54.420000 5.140000 0 0 0
2140 304 4 0.060000 40.340000 53.970000 2.680000 0 0 0
2141 304 4 0.060000 38.920000 54.710000 2.450000 0 0 0
2142 305 5 0.000000 40.090000 53.390000 1.990000 0 0 0
2143 305 2 -0.120000 39.630000 54.000000 1.730000 0 0 0
2144 305 2 -0.120000 40.570000 52.770000 2.200000 0 0 0
2145 305 4 0.060000 39.270000 53.880000 0.770000 0 0 0
2146 305 4 0.060000 38.780000 54.000000 2.340000 0 0 0
2147 305 4 0.060000 40.510000 52.730000 3.250000 0 0 0
2148 305 4 0.060000 41.600000 53.150000 2.170000 0 0 0
2149 306 5 0.000000 42.390000 53.720000 1.420000 0 0 0
2150 306 2 -0.120000 43.120000 53.940000 1.360000 0 0 0
2151 306 2 -0.120000 41.650000 53.500000 1.480000 0 0 0
2152 306 4 0.060000 43.790000 53.230000 1.750000 0 0 0
2153 306 4 0.060000 43.330000 53.850000 0.300000 0 0 0
2154 306 4 0.060000 41.050000 54.310000 1.130000 0 0 0
2155 306 4 0.060000 41.380000 53.500000 2.480000 0 0 0
2156 307 5 0.000000 44.480000 55.070000 1.230000 0 0 0
2157 307 2 -0.120000 45.190000 55.390000 1.260000 0 0 0
2158 307 2 -0.120000 43.720000 54.890000 1.160000 0 0 0
2159 307 4 0.060000 45.720000 54.660000 1.930000 0 0 0
2160 307 4 0.060000 45.770000 55.110000 0.340000 0 0 0
2161 307 4 0.060000 43.120000 55.080000 1.980000 0 0 0
2162 307 4 0.060000 43.800000 53.840000 1.210000 0 0 0
2163 308 5 0.000000 46.820000 55.690000 1.460000 0 0 0
2164 308 2 -0.120000 47.200000 56.190000 1.880000 0 0 0
2165 308 2 -0.120000 46.410000 55.200000 1.050000 0 0 0
2166 308 4 0.060000 47.820000 56.530000 1.160000 0 0 0
2167 308 4 0.060000 46.700000 56.970000 2.410000 0 0 0
2168 308 4 0.060000 45.800000 54.460000 1.580000 0 0 0
2169 308 4 0.060000 47.220000 54.630000 0.650000 0 0 0
2170 309 5 0.000000 49.240000 55.190000 1.150000 0 0 0
2171 309 2 -0.120000 49.700000 55.690000 1.530000 0 0 0
2172 309 2 -0.120000 48.780000 54.680000 0.750000 0 0 0
2173 309 4 0.060000 50.440000 56.230000 0.900000 0 0 0
2174 309 4 0.060000 48.950000 56.500000 1.940000 0 0 0
2175 309 4 0.060000 48.110000 54.350000 1.510000 0 0 0
2176 309 4 0.060000 49.400000 53.920000 0.370000 0 0 0
2177 310 5 0.000000 51.690000 54.360000 0.530000 0 0 0
2178 310 2 -0.120000 52.400000 54.560000 0.740000 0 0 0
2179 310 2 -0.120000 51.010000 54.020000 0.360000 0 0 0
2180 310 4 0.060000 53.130000 54.700000 61.924000 0 0 -1
2181 310 4 0.060000 52.170000 55.500000 1.200000 0 0 0
2182 310 4 0.060000 50.810000 54.410000 61.304000 0 0 -1
2183 310 4 0.060000 50.210000 54.500000 1.090000 0 0 0
2184 311 5 0.000000 54.230000 53.710000 61.954000 0 0 -1
2185 311 2 -0.120000 54.230000 54.100000 0.640000 0 0 0
2186 311 2 -0.120000 54.230000 53.310000 61.264000 0 0 -1
2187 311 4 0.060000 53.100000 54.080000 0.820000 0 0 0
2188 311 4 0.060000 54.790000 53.590000 1.430000 0 0 0
2189 311 4 0.060000 55.240000 53.320000 60.914000 0 0 -1
2190 311 4 0.060000 53.790000 54.020000 60.584000 0 0 -1
2191 312 5 0.000000 55.870000 52.590000 1.630000 0 0 0
2192 312 2 -0.120000 55.950000 53.070000 2.180000 0 0 0
2193 312 2 -0.120000 55.740000 52.210000 1.010000 0 0 0
2194 312 4 0.060000 55.000000 53.160000 2.880000 0 0 0
2195 312 4 0.060000 56.550000 52.600000 2.950000 0 0 0
2196 312 4 0.060000 55.830000 51.070000 1.040000 0 0 0
2197 312 4 0.060000 56.680000 52.260000 0.460000 0 0 0
2198 313 5 0.000000 57.320000 50.560000 1.290000 0 0 0
2199 313 2 -0.120000 58.050000 50.530000 1.020000 0 0 0
2200 313 2 -0.120000 56.660000 50.480000 1.650000 0 0 0
2201 313 4 0.060000 57.900000 49.940000 0.230000 0 0 0
2202 313 4 0.060000 58.270000 51.570000 0.670000 0 0 0
2203 313 4 0.060000 55.820000 50.770000 1.030000 0 0 0
2204 313 4 0.060000 56.450000 51.260000 2.240000 0 0 0
2205 314 5 0.000000 57.970000 48.500000 0.740000 0 0 0
2206 314 2 -0.120000 57.930000 48.490000 61.984000 0 0 -1
2207 314 2 -0.120000 58.000000 48.490000 1.510000 0 0 0
2208 314 4 0.060000 58.470000 47.670000 61.484000 0 0 -1
2209 314 4 0.060000 56.860000 48.410000 61.714000 0 0 -1
2210 314 4 0.060000 57.720000 49.520000 1.730000 0 0 0
2211 314 4 0.060000 59.030000 48.510000 1.940000 0 0 0
2212 315 5 0.000000 56.900000 47.320000 2.770000 0 0 0
2213 315 2 -0.120000 56.750000 48.070000 2.770000 0 0 0
2214 315 2 -0.120000 57.150000 46.590000 2.750000 0 0 0
2215 315 4 0.060000 55.700000 48.200000 2.620000 0 0 0
2216 315 4 0.060000 56.740000 48.380000 3.890000 0 0 0
2217 315 4 0.060000 57.560000 46.490000 1.710000 0 0 0
2218 315 4 0.060000 56.370000 45.850000 3.020000 0 0 0
2219 316 5 0.000000 55.760000 46.590000 4.930000 0 0 0
2220 316 2 -0.120000 55.650000 47.350000 4.840000 0 0 0
2221 316 2 -0.120000 55.830000 45.830000 4.900000 0 0 0
2222 316 4 0.060000 55.270000 47.650000 5.830000 0 0 0
2223 316 4 0.060000 56.630000 47.850000 4.780000 0 0 0
2224 316 4 0.060000 54.920000 45.440000 5.040000 0 0 0
2225 316 4 0.060000 56.630000 45.500000 5.440000 0 0 0
2226 317 5 0.000000 54.750000 45.450000 6.830000 0 0 0
2227 317 2 -0.120000 54.530000 46.240000 6.810000 0 0 0
2228 317 2 -0.120000 54.930000 44.660000 6.840000 0 0 0
2229 317 4 0.060000 55.440000 46.910000 6.500000 0 0 0
2230 317 4 0.060000 53.840000 46.370000 6.060000 0 0 0
2231 317 4 0.060000 54.230000 44.080000 7.480000 0 0 0
2232 317 4 0.060000 55.910000 44.530000 7.280000 0 0 0
2233 318 5 0.000000 54.010000 44.640000 9.300000 0 0 0
2234 318 2 -0.120000 53.570000 45.230000 9.660000 0 0 0
2235 318 2 -0.120000 54.450000 44.020000 9.080000 0 0 0
2236 318 4 0.060000 53.570000 45.890000 8.820000 0 0 0
2237 318 4 0.060000 52.490000 45.020000 9.600000 0 0 0
2238 318 4 0.060000 55.560000 44.280000 9.240000 0 0 0
2239 318 4 0.060000 54.370000 43.820000 7.950000 0 0 0
2240 319 5 0.000000 51.590000 43.560000 10.350000 0 0 0
2241 319 2 -0.120000 51.390000 44.200000 10.760000 0 0 0
2242 319 2 -0.120000 51.800000 42.910000 9.950000 0 0 0
2243 319 4 0.060000 50.280000 44.040000 10.870000 0 0 0
2244 319 4 0.060000 51.860000 44.230000 11.670000 0 0 0
2245 319 4 0.060000 52.950000 43.170000 9.660000 0 0 0
2246 319 4 0.060000 51.250000 42.920000 9.000000 0 0 0
2247 320 5 0.000000 50.340000 44.600000 12.450000 0 0 0
2248 320 2 -0.120000 49.970000 45.270000 12.660000 0 0 0
2249 320 2 -0.120000 50.700000 43.980000 12.110000 0 0 0
2250 320 4 0.060000 49.020000 45.040000 12.560000 0 0 0
2251 320 4 0.060000 50.210000 45.450000 13.660000 0 0 0
2252 320 4 0.060000 50.410000 43.310000 12.890000 0 0 0
2253 320 4 0.060000 51.830000 44.140000 12.100000 0 0 0
2254 321 5 0.000000 49.060000 45.440000 14.550000 0 0 0
2255 321 2 -0.120000 48.560000 46.010000 14.890000 0 0 0
2256 321 2 -0.120000 49.540000 44.810000 14.240000 0 0 0
2257 321 4 0.060000 48.750000 46.950000 14.200000 0 0 0
2258 321 4 0.060000 47.470000 45.800000 14.950000 0 0 0
2259 321 4 0.060000 49.950000 44.180000 15.130000 0 0 0
2260 321 4 0.060000 50.300000 45.410000 13.680000 0 0 0
2261 322 5 0.000000 48.350000 45.670000 17.080000 0 0 0
2262 322 2 -0.120000 47.950000 46.240000 17.490000 0 0 0
2263 322 2 -0.120000 48.790000 45.060000 16.780000 0 0 0
2264 322 4 0.060000 47.840000 46.960000 16.690000 0 0 0
2265 322 4 0.060000 47.090000 45.680000 17.760000 0 0 0
2266 322 4 0.060000 49.690000 45.670000 16.460000 0 0 0
2267 322 4 0.060000 48.250000 44.720000 16.010000 0 0 0
2268 323 5 0.000000 48.780000 45.980000 19.480000 0 0 0
2269 323 2 -0.120000 48.540000 46.600000 19.870000 0 0 0
2270 323 2 -0.120000 49.030000 45.400000 19.100000 0 0 0
2271 323 4 0.060000 47.760000 46.130000 20.430000 0 0 0
2272 323 4 0.060000 49.400000 46.890000 20.620000 0 0 0
2273 323 4 0.060000 49.590000 45.600000 18.190000 0 0 0
2274 323 4 0.060000 48.170000 44.810000 18.630000 0 0 0
2275 324 5 0.000000 49.020000 46.950000 21.620000 0 0 0
2276 324 2 -0.120000 48.270000 46.870000 21.480000 0 0 0
2277 324 2 -0.120000 49.780000 47.040000 21.780000 0 0 0
2278 324 4 0.060000 48.050000 46.040000 20.750000 0 0 0
2279 324 4 0.060000 47.730000 46.660000 22.410000 0 0 0
2280 324 4 0.060000 49.910000 47.990000 22.230000 0 0 0
2281 324 4 0.060000 50.210000 47.060000 20.810000 0 0 0
2282 325 5 0.000000 47.820000 46.670000 23.940000 0 0 0
2283 325 2 -0.120000 47.030000 46.630000 23.910000 0 0 0
2284 325 2 -0.120000 48.630000 46.700000 23.870000 0 0 0
2285 325 4 0.060000 46.670000 45.620000 23.460000 0 0 0
2286 325 4 0.060000 46.630000 46.920000 24.830000 0 0 0
2287 325 4 0.060000 48.840000 46.520000 24.960000 0 0 0
2288 325 4 0.060000 48.990000 47.790000 23.650000 0 0 0
2289 326 5 0.000000 47.660000 47.020000 26.490000 0 0 0
2290 326 2 -0.120000 46.990000 47.210000 26.150000 0 0 0
2291 326 2 -0.120000 48.320000 46.830000 26.840000 0 0 0
2292 326 4 0.060000 47.190000 47.530000 25.160000 0 0 0
2293 326 4 0.060000 46.410000 46.330000 25.900000 0 0 0
2294 326 4 0.060000 48.020000 46.580000 27.790000 0 0 0
2295 326 4 0.060000 49.040000 47.660000 26.950000 0 0 0
2296 327 5 0.000000 48.300000 46.630000 28.800000 0 0 0
2297 327 2 -0.120000 47.710000 46.840000 28.440000 0 0 0
2298 327 2 -0.120000 48.910000 46.400000 29.180000 0 0 0
2299 327 4 0.060000 47.830000 47.180000 27.450000 0 0 0
2300 327 4 0.060000 46.930000 45.930000 28.450000 0 0 0
2301 327 4 0.060000 48.640000 46.430000 30.280000 0 0 0
2302 327 4 0.060000 49.620000 47.220000 28.890000 0 0 0
2303 328 5 0.000000 50.390000 47.660000 29.980000 0 0 0
2304 328 2 -0.120000 49.700000 47.860000 29.700000 0 0 0
2305 328 2 -0.120000 51.080000 47.450000 30.280000 0 0 0
2306 328 4 0.060000 49.860000 47.860000 28.640000 0 0 0
2307 328 4 0.060000 49.070000 47.050000 29.780000 0 0 0
2308 328 4 0.060000 51.010000 47.480000 31.450000 0 0 0
2309 328 4 0.060000 51.750000 48.320000 29.950000 0 0 0
2310 329 5 0.000000 52.230000 49.040000 30.420000 0 0 0
2311 329 2 -0.120000 52.480000 49.680000 30.000000 0 0 0
2312 329 2 -0.120000 51.990000 48.410000 30.830000 0 0 0
2313 329 4 0.060000 53.500000 49.880000 30.190000 0 0 0
2314 329 4 0.060000 52.310000 49.530000 28.900000 0 0 0
2315 329 4 0.060000 50.910000 48.110000 30.820000 0 0 0
2316 329 4 0.060000 52.130000 48.610000 32.000000 0 0 0
2317 330 5 0.000000 51.730000 50.890000 32.280000 0 0 0
2318 330 2 -0.120000 51.900000 51.510000 31.760000 0 0 0
2319 330 2 -0.120000 51.580000 50.270000 32.790000 0 0 0
2320 330 4 0.060000 52.890000 51.590000 31.550000 0 0 0
2321 330 4 0.060000 51.320000 51.410000 30.840000 0 0 0
2322 330 4 0.060000 50.470000 50.040000 32.910000 0 0 0
2323 330 4 0.060000 51.880000 50.410000 33.940000 0 0 0
2324 331 5 0.000000 52.420000 52.520000 34.200000 0 0 0
2325 331 2 -0.120000 51.630000 52.650000 34.220000 0 0 0
2326 331 2 -0.120000 53.200000 52.470000 34.270000 0 0 0
2327 331 4 0.060000 51.200000 52.480000 33.280000 0 0 0
2328 331 4 0.060000 51.310000 52.010000 35.010000 0 0 0
2329 331 4 0.060000 53.650000 53.190000 33.590000 0 0 0
2330 331 4 0.060000 53.580000 51.480000 33.900000 0 0 0
2331 332 5 0.000000 54.720000 51.690000 35.450000 0 0 0
2332 332 2 -0.120000 53.910000 51.770000 35.280000 0 0 0
2333 332 2 -0.120000 55.510000 51.550000 35.520000 0 0 0
2334 332 4 0.060000 53.450000 51.020000 35.980000 0 0 0
2335 332 4 0.060000 53.690000 52.650000 35.700000 0 0 0
2336 332 4 0.060000 55.690000 52.050000 36.480000 0 0 0
2337 332 4 0.060000 56.210000 51.840000 34.790000 0 0 0
2338 333 5 0.000000 55.890000 53.210000 37.180000 0 0 0
2339 333 2 -0.120000 55.170000 53.450000 37.000000 0 0 0
2340 333 2 -0.120000 56.630000 52.960000 37.340000 0 0 0
2341 333 4 0.060000 54.630000 52.930000 36.170000 0 0 0
2342 333 4 0.060000 54.520000 53.170000 37.860000 0 0 0
2343 333 4 0.060000 56.860000 53.650000 38.180000 0 0 0
2344 333 4 0.060000 57.420000 53.220000 36.640000 0 0 0
2345 334 5 0.000000 58.340000 54.060000 37.040000 0 0 0
2346 334 2 -0.120000 58.150000 54.430000 37.670000 0 0 0
2347 334 2 -0.120000 58.510000 53.650000 36.410000 0 0 0
2348 334 4 0.060000 57.290000 54.160000 38.210000 0 0 0
2349 334 4 0.060000 58.960000 54.570000 38.430000 0 0 0
2350 334 4 0.060000 59.490000 54.110000 36.070000 0 0 0
2351 334 4 0.060000 57.930000 53.830000 35.520000 0 0 0
2352 335 5 0.000000 59.260000 56.260000 36.010000 0 0 0
2353 335 2 -0.120000 59.220000 56.700000 36.660000 0 0 0
2354 335 2 -0.120000 59.240000 55.950000 35.330000 0 0 0
2355 335 4 0.060000 58.180000 56.430000 36.960000 0 0 0
2356 335 4 0.060000 60.110000 56.220000 37.280000 0 0 0
2357 335 4 0.060000 59.210000 54.830000 35.460000 0 0 0
2358 335 4 0.060000 60.230000 56.070000 34.810000 0 0 0
2359 336 5 0.000000 60.480000 58.310000 34.880000 0 0 0
2360 336 2 -0.120000 60.420000 58.800000 35.490000 0 0 0
2361 336 2 -0.120000 60.570000 57.810000 34.250000 0 0 0
2362 336 4 0.060000 60.070000 59.750000 35.200000 0 0 0
2363 336 4 0.060000 59.520000 58.530000 36.080000 0 0 0
2364 336 4 0.060000 60.480000 56.740000 34.490000 0 0 0
2365 336 4 0.060000 61.560000 58.270000 33.960000 0 0 0
2366 337 5 0.000000 61.790000 60.290000 33.880000 0 0 0
2367 337 2 -0.120000 0.576000 60.410000 33.740000 1 0 0
2368 337 2 -0.120000 61.030000 60.050000 34.100000 0 0 0
2369 337 4 0.060000 0.866000 60.000000 32.810000 1 0 0
2370 337 4 0.060000 0.656000 61.440000 33.680000 1 0 0
2371 337 4 0.060000 60.430000 60.270000 33.140000 0 0 0
2372 337 4 0.060000 60.770000 60.760000 34.820000 0 0 0
2373 338 5 0.000000 2.206000 61.180000 33.810000 1 0 0
2374 338 2 -0.120000 2.906000 61.210000 33.620000 1 0 0
2375 338 2 -0.120000 1.526000 61.090000 34.020000 1 0 0
2376 338 4 0.060000 3.456000 61.180000 34.580000 1 0 0
2377 338 4 0.060000 3.116000 60.880000 32.700000 1 0 0
2378 338 4 0.060000 1.056000 61.480000 33.030000 1 0 0
2379 338 4 0.060000 1.096000 61.860000 34.660000 1 0 0
2380 339 5 0.000000 4.326000 61.910000 32.660000 1 0 0
2381 339 2 -0.120000 5.116000 0.016000 32.750000 1 1 0
2382 339 2 -0.120000 3.556000 61.830000 32.600000 1 0 0
2383 339 4 0.060000 5.346000 61.930000 33.840000 1 0 0
2384 339 4 0.060000 5.466000 61.180000 32.120000 1 0 0
2385 339 4 0.060000 3.326000 61.420000 31.640000 1 0 0
2386 339 4 0.060000 3.066000 0.746000 32.600000 1 1 0
2387 340 5 0.000000 3.816000 0.096000 30.060000 1 1 0
2388 340 2 -0.120000 3.546000 0.766000 30.100000 1 1 0
2389 340 2 -0.120000 4.076000 61.410000 30.030000 1 0 0
2390 340 4 0.060000 2.446000 0.766000 29.870000 1 1 0
2391 340 4 0.060000 3.566000 1.206000 31.100000 1 1 0
2392 340 4 0.060000 5.116000 61.550000 30.270000 1 0 0
2393 340 4 0.060000 4.196000 61.030000 28.990000 1 0 0
2394 341 5 0.000000 3.356000 0.236000 27.620000 1 1 0
2395 341 2 -0.120000 2.946000 0.826000 27.340000 1 1 0
2396 341 2 -0.120000 3.816000 61.650000 27.760000 1 0 0
2397 341 4 0.060000 1.956000 0.546000 26.980000 1 1 0
2398 341 4 0.060000 2.816000 1.276000 28.290000 1 1 0
2399 341 4 0.060000 3.336000 61.150000 28.570000 1 0 0
2400 341 4 0.060000 4.746000 61.950000 28.200000 1 0 0
2401 342 5 0.000000 3.776000 61.980000 25.170000 1 0 0
2402 342 2 -0.120000 3.196000 0.536000 25.070000 1 1 0
2403 342 2 -0.120000 4.406000 61.530000 25.370000 1 0 0
2404 342 4 0.060000 3.596000 1.066000 24.300000 1 1 0
2405 342 4 0.060000 2.326000 61.990000 24.860000 1 0 0
2406 342 4 0.060000 4.316000 60.960000 24.440000 1 0 0
2407 342 4 0.060000 4.196000 60.630000 25.950000 1 0 0
2408 343 5 0.000000 5.056000 60.270000 23.670000 1 0 0
2409 343 2 -0.120000 4.336000 60.580000 23.830000 1 0 0
2410 343 2 -0.120000 5.716000 59.830000 23.500000 1 0 0
2411 343 4 0.060000 4.206000 60.640000 24.890000 1 0 0
2412 343 4 0.060000 4.426000 61.660000 23.510000 1 0 0
2413 343 4 0.060000 6.536000 60.440000 23.870000 1 0 0
2414 343 4 0.060000 5.886000 59.850000 22.480000 1 0 0
2415 344 5 0.000000 6.076000 58.560000 22.160000 1 0 0
2416 344 2 -0.120000 6.056000 58.560000 21.400000 1 0 0
2417 344 2 -0.120000 6.106000 58.570000 22.930000 1 0 0
2418 344 4 0.060000 7.066000 58.000000 21.070000 1 0 0
2419 344 4 0.060000 5.166000 58.130000 21.070000 1 0 0
2420 344 4 0.060000 5.066000 58.750000 23.180000 1 0 0
2421 344 4 0.060000 6.926000 59.310000 23.330000 1 0 0
2422 345 5 0.000000 6.936000 57.070000 20.280000 1 0 0
2423 345 2 -0.120000 7.356000 57.720000 20.400000 1 0 0
2424 345 2 -0.120000 6.506000 56.440000 20.160000 1 0 0
2425 345 4 0.060000 7.476000 57.720000 21.470000 1 0 0
2426 345 4 0.060000 8.296000 57.320000 19.950000 1 0 0
2427 345 4 0.060000 6.726000 56.250000 19.160000 1 0 0
2428 345 4 0.060000 5.486000 56.650000 20.440000 1 0 0
2429 346 5 0.000000 7.406000 55.350000 18.350000 1 0 0
2430 346 2 -0.120000 7.236000 55.350000 17.580000 1 0 0
2431 346 2 -0.120000 7.556000 55.350000 19.110000 1 0 0
2432 346 4 0.060000 8.096000 54.890000 17.110000 1 0 0
2433 346 4 0.060000 6.266000 54.820000 17.420000 1 0 0
2434 346 4 0.060000 6.836000 55.880000 19.770000 1 0 0
2435 346 4 0.060000 8.536000 55.820000 19.270000 1 0 0
2436 347 5 0.000000 7.656000 53.750000 16.490000 1 0 0
2437 347 2 -0.120000 7.446000 53.600000 15.760000 1 0 0
2438 347 2 -0.120000 7.896000 53.870000 17.230000 1 0 0
2439 347 4 0.060000 8.176000 53.140000 15.170000 1 0 0
2440 347 4 0.060000 6.446000 53.160000 15.620000 1 0 0
2441 347 4 0.060000 7.036000 54.260000 17.650000 1 0 0
2442 347 4 0.060000 8.676000 54.670000 17.440000 1 0 0
2443 348 5 0.000000 7.736000 51.980000 14.620000 1 0 0
2444 348 2 -0.120000 7.116000 52.240000 14.960000 1 0 0
2445 348 2 -0.120000 8.306000 51.730000 14.220000 1 0 0
2446 348 4 0.060000 6.306000 51.620000 14.760000 1 0 0
2447 348 4 0.060000 7.236000 52.330000 16.010000 1 0 0
2448 348 4 0.060000 9.266000 51.530000 14.830000 1 0 0
2449 348 4 0.060000 8.606000 52.440000 13.500000 1 0 0
2450 349 5 0.000000 7.656000 52.350000 12.050000 1 0 0
2451 349 2 -0.120000 7.156000 52.640000 12.530000 1 0 0
2452 349 2 -0.120000 8.176000 52.060000 11.590000 1 0 0
2453 349 4 0.060000 6.206000 52.570000 12.010000 1 0 0
2454 349 4 0.060000 7.036000 51.950000 13.410000 1 0 0
2455 349 4 0.060000 9.206000 52.370000 11.860000 1 0 0
2456 349 4 0.060000 7.886000 52.640000 10.610000 1 0 0
2457 350 1 0.000000 5.456000 52.220000 11.080000 1 0 0
2458 350 2 -0.120000 4.746000 52.550000 11.360000 1 0 0
2459 350 3 -0.180000 6.096000 51.980000 10.840000 1 0 0
2460 350 4 0.060000 4.096000 52.260000 10.560000 1 0 0
2461 350 4 0.060000 4.566000 52.080000 12.320000 1 0 0
2462 350 4 0.060000 6.896000 52.730000 10.980000 1 0 0
2463 350 4 0.060000 6.026000 51.680000 9.770000 1 0 0
2464 350 4 0.060000 6.496000 51.250000 11.360000 1 0 0
2465 351 1 0.000000 37.740000 9.300000 50.280000 0 0 0
2466 351 2 -0.120000 37.800000 9.170000 49.530000 0 0 0
2467 351 3 -0.180000 37.770000 9.410000 50.940000 0 0 0
2468 351 4 0.060000 37.480000 10.150000 49.030000 0 0 0
2469 351 4 0.060000 36.890000 8.420000 49.360000 0 0 0
2470 351 4 0.060000 38.200000 8.600000 51.620000 0 0 0
2471 351 4 0.060000 36.780000 9.340000 51.230000 0 0 0
2472 351 4 0.060000 38.310000 10.360000 51.200000 0 0 0
2473 352 5 0.000000 37.380000 8.790000 47.720000 0 0 0
2474 352 2 -0.120000 37.160000 9.490000 47.600000 0 0 0
2475 352 2 -0.120000 37.580000 8.090000 47.820000 0 0 0
2476 352 4 0.060000 37.940000 9.990000 48.020000 0 0 0
2477 352 4 0.060000 37.190000 9.670000 46.490000 0 0 0
2478 352 4 0.060000 36.710000 7.460000 47.810000 0 0 0
2479 352 4 0.060000 38.030000 8.060000 48.800000 0 0 0
2480 353 5 0.000000 35.650000 7.080000 47.430000 0 0 0
2481 353 2 -0.120000 35.840000 7.410000 48.100000 0 0 0
2482 353 2 -0.120000 35.340000 6.730000 46.810000 0 0 0
2483 353 4 0.060000 36.540000 6.800000 48.650000 0 0 0
2484 353 4 0.060000 36.760000 8.040000 47.880000 0 0 0
2485 353 4 0.060000 36.180000 6.340000 46.170000 0 0 0
2486 353 4 0.060000 34.520000 7.310000 46.350000 0 0 0
2487 354 5 0.000000 36.800000 5.460000 46.160000 0 0 0
2488 354 2 -0.120000 36.950000 5.860000 46.830000 0 0 0
2489 354 2 -0.120000 36.620000 5.060000 45.500000 0 0 0
2490 354 4 0.060000 36.020000 5.980000 47.340000 0 0 0
2491 354 4 0.060000 37.610000 5.330000 47.450000 0 0 0
2492 354 4 0.060000 37.640000 4.880000 44.990000 0 0 0
2493 354 4 0.060000 36.220000 5.620000 44.760000 0 0 0
2494 355 5 0.000000 37.460000 4.410000 43.830000 0 0 0
2495 355 2 -0.120000 37.000000 5.020000 43.570000 0 0 0
2496 355 2 -0.120000 37.940000 3.790000 44.040000 0 0 0
2497 355 4 0.060000 36.640000 4.900000 42.610000 0 0 0
2498 355 4 0.060000 36.150000 5.020000 44.180000 0 0 0
2499 355 4 0.060000 37.880000 3.750000 45.090000 0 0 0
2500 355 4 0.060000 38.970000 4.170000 44.010000 0 0 0
2501 356 5 0.000000 38.520000 3.850000 41.510000 0 0 0
2502 356 2 -0.120000 39.250000 4.070000 41.450000 0 0 0
2503 356 2 -0.120000 37.780000 3.630000 41.570000 0 0 0
2504 356 4 0.060000 39.920000 3.360000 41.840000 0 0 0
2505 356 4 0.060000 39.460000 3.980000 40.390000 0 0 0
2506 356 4 0.060000 37.180000 4.440000 41.220000 0 0 0
2507 356 4 0.060000 37.510000 3.630000 42.570000 0 0 0
2508 357 5 0.000000 39.890000 4.070000 39.120000 0 0 0
2509 357 2 -0.120000 40.600000 4.390000 39.150000 0 0 0
2510 357 2 -0.120000 39.130000 3.890000 39.050000 0 0 0
2511 357 4 0.060000 41.130000 3.660000 39.820000 0 0 0
2512 357 4 0.060000 41.180000 4.110000 38.230000 0 0 0
2513 357 4 0.060000 38.530000 4.080000 39.870000 0 0 0
2514 357 4 0.060000 39.210000 2.840000 39.100000 0 0 0
2515 358 5 0.000000 39.640000 2.180000 37.180000 0 0 0
2516 358 2 -0.120000 40.020000 2.680000 37.600000 0 0 0
2517 358 2 -0.120000 39.230000 1.690000 36.770000 0 0 0
2518 358 4 0.060000 40.640000 3.020000 36.880000 0 0 0
2519 358 4 0.060000 39.520000 3.460000 38.130000 0 0 0
2520 358 4 0.060000 38.620000 0.950000 37.300000 0 0 0
2521 358 4 0.060000 40.040000 1.120000 36.370000 0 0 0
2522 359 5 0.000000 39.170000 0.600000 35.180000 0 0 0
2523 359 2 -0.120000 39.630000 1.100000 35.560000 0 0 0
2524 359 2 -0.120000 38.710000 0.090000 34.780000 0 0 0
2525 359 4 0.060000 40.370000 1.640000 34.930000 0 0 0
2526 359 4 0.060000 38.880000 1.910000 35.970000 0 0 0
2527 359 4 0.060000 38.040000 61.764000 35.540000 0 -1 0
2528 359 4 0.060000 39.330000 61.334000 34.400000 0 -1 0
2529 360 5 0.000000 38.960000 1.240000 32.610000 0 0 0
2530 360 2 -0.120000 39.670000 1.440000 32.820000 0 0 0
2531 360 2 -0.120000 38.280000 0.900000 32.440000 0 0 0
2532 360 4 0.060000 40.400000 1.580000 32.000000 0 0 0
2533 360 4 0.060000 39.440000 2.380000 33.280000 0 0 0
2534 360 4 0.060000 38.080000 1.290000 31.380000 0 0 0
2535 360 4 0.060000 37.480000 1.380000 33.170000 0 0 0
2536 361 5 0.000000 37.720000 1.430000 30.220000 0 0 0
2537 361 2 -0.120000 37.720000 1.820000 30.910000 0 0 0
2538 361 2 -0.120000 37.720000 1.030000 29.530000 0 0 0
2539 361 4 0.060000 36.590000 1.800000 31.090000 0 0 0
2540 361 4 0.060000 38.280000 1.310000 31.700000 0 0 0
2541 361 4 0.060000 38.730000 1.040000 29.180000 0 0 0
2542 361 4 0.060000 37.280000 1.740000 28.850000 0 0 0
2543 362 5 0.000000 36.160000 1.410000 28.190000 0 0 0
2544 362 2 -0.120000 36.240000 1.890000 28.740000 0 0 0
2545 362 2 -0.120000 36.030000 1.030000 27.570000 0 0 0
2546 362 4 0.060000 35.290000 1.980000 29.440000 0 0 0
2547 362 4 0.060000 36.840000 1.420000 29.510000 0 0 0
2548 362 4 0.060000 36.120000 61.894000 27.600000 0 -1 0
2549 362 4 0.060000 36.970000 1.080000 27.020000 0 0 0
2550 363 5 0.000000 34.810000 2.000000 26.060000 0 0 0
2551 363 2 -0.120000 35.540000 1.970000 25.790000 0 0 0
2552 363 2 -0.120000 34.150000 1.920000 26.420000 0 0 0
2553 363 4 0.060000 35.390000 1.380000 25.000000 0 0 0
2554 363 4 0.060000 35.760000 3.010000 25.440000 0 0 0
2555 363 4 0.060000 33.310000 2.210000 25.800000 0 0 0
2556 363 4 0.060000 33.940000 2.700000 27.010000 0 0 0
2557 364 5 0.000000 33.490000 0.640000 24.520000 0 0 0
2558 364 2 -0.120000 33.450000 0.630000 23.760000 0 0 0
2559 364 2 -0.120000 33.520000 0.630000 25.290000 0 0 0
2560 364 4 0.060000 33.990000 61.814000 23.260000 0 -1 0
2561 364 4 0.060000 32.380000 0.550000 23.490000 0 0 0
2562 364 4 0.060000 33.240000 1.660000 25.510000 0 0 0
2563 364 4 0.060000 34.550000 0.650000 25.720000 0 0 0
2564 365 5 0.000000 32.800000 61.774000 22.480000 0 -1 0
2565 365 2 -0.120000 32.650000 0.520000 22.480000 0 0 0
2566 365 2 -0.120000 33.050000 61.044000 22.460000 0 -1 0
2567 365 4 0.060000 31.600000 0.650000 22.330000 0 0 0
2568 365 4 0.060000 32.640000 0.830000 23.600000 0 0 0
2569 365 4 0.060000 33.460000 60.944000 21.420000 0 -1 0
2570 365 4 0.060000 32.270000 60.304000 22.730000 0 -1 0
2571 366 5 0.000000 32.900000 61.184000 19.960000 0 -1 0
2572 366 2 -0.120000 32.790000 61.944000 19.870000 0 -1 0
2573 366 2 -0.120000 32.970000 60.424000 19.930000 0 -1 0
2574 366 4 0.060000 32.410000 0.240000 20.860000 0 0 0
2575 366 4 0.060000 33.770000 0.440000 19.810000 0 0 0
2576 366 4 0.060000 32.060000 60.034000 20.070000 0 -1 0
2577 366 4 0.060000 33.770000 60.094000 20.470000 0 -1 0
2578 367 5 0.000000 32.430000 61.084000 17.490000 0 -1 0
2579 367 2 -0.120000 32.210000 61.874000 17.470000 0 -1 0
2580 367 2 -0.120000 32.610000 60.294000 17.500000 0 -1 0
2581 367 4 0.060000 33.120000 0.540000 17.160000 0 0 0
2582 367 4 0.060000 31.520000 0.000000 16.720000 0 0 0
2583 367 4 0.060000 31.910000 59.714000 18.140000 0 -1 0
2584 367 4 0.060000 33.590000 60.164000 17.940000 0 -1 0
2585 368 5 0.000000 32.440000 59.794000 15.480000 0 -1 0
2586 368 2 -0.120000 32.000000 60.384000 15.840000 0 -1 0
2587 368 2 -0.120000 32.880000 59.174000 15.260000 0 -1 0
2588 368 4 0.060000 32.000000 61.044000 15.000000 0 -1 0
2589 368 4 0.060000 30.920000 60.174000 15.780000 0 -1 0
2590 368 4 0.060000 33.990000 59.434000 15.420000 0 -1 0
2591 368 4 0.060000 32.800000 58.974000 14.130000 0 -1 0
2592 369 5 0.000000 34.680000 58.634000 14.630000 0 -1 0
2593 369 2 -0.120000 34.480000 59.274000 15.040000 0 -1 0
2594 369 2 -0.120000 34.890000 57.984000 14.230000 0 -1 0
2595 369 4 0.060000 33.370000 59.114000 15.150000 0 -1 0
2596 369 4 0.060000 34.950000 59.304000 15.950000 0 -1 0
2597 369 4 0.060000 36.040000 58.244000 13.940000 0 -1 0
2598 369 4 0.060000 34.340000 57.994000 13.280000 0 -1 0
2599 370 5 0.000000 36.930000 57.424000 14.280000 0 -1 0
2600 370 2 -0.120000 36.560000 58.094000 14.490000 0 -1 0
2601 370 2 -0.120000 37.290000 56.804000 13.940000 0 -1 0
2602 370 4 0.060000 35.610000 57.864000 14.390000 0 -1 0
2603 370 4 0.060000 36.800000 58.274000 15.490000 0 -1 0
2604 370 4 0.060000 37.000000 56.134000 14.720000 0 -1 0
2605 370 4 0.060000 38.420000 56.964000 13.930000 0 -1 0
2606 371 5 0.000000 37.020000 54.874000 13.650000 0 -1 0
2607 371 2 -0.120000 36.520000 55.444000 13.990000 0 -1 0
2608 371 2 -0.120000 37.500000 54.244000 13.340000 0 -1 0
2609 371 4 0.060000 36.710000 56.384000 13.300000 0 -1 0
2610 371 4 0.060000 35.430000 55.234000 14.050000 0 -1 0
2611 371 4 0.060000 37.910000 53.614000 14.230000 0 -1 0
2612 371 4 0.060000 38.260000 54.844000 12.780000 0 -1 0
2613 372 5 0.000000 37.020000 52.444000 12.870000 0 -1 0
2614 372 2 -0.120000 36.620000 53.014000 13.280000 0 -1 0
2615 372 2 -0.120000 37.460000 51.834000 12.570000 0 -1 0
2616 372 4 0.060000 36.510000 53.734000 12.480000 0 -1 0
2617 372 4 0.060000 35.760000 52.454000 13.550000 0 -1 0
2618 372 4 0.060000 38.360000 52.444000 12.250000 0 -1 0
2619 372 4 0.060000 36.920000 51.494000 11.800000 0 -1 0
2620 373 5 0.000000 37.000000 49.974000 12.150000 0 -1 0
2621 373 2 -0.120000 36.760000 50.594000 12.540000 0 -1 0
2622 373 2 -0.120000 37.250000 49.394000 11.770000 0 -1 0
2623 373 4 0.060000 35.980000 50.124000 13.100000 0 -1 0
2624 373 4 0.060000 37.620000 50.884000 13.290000 0 -1 0
2625 373 4 0.060000 37.810000 49.594000 10.860000 0 -1 0
2626 373 4 0.060000 36.390000 48.804000 11.300000 0 -1 0
2627 374 5 0.000000 36.190000 48.404000 10.810000 0 -1 0
2628 374 2 -0.120000 35.440000 48.324000 10.670000 0 -1 0
2629 374 2 -0.120000 36.950000 48.494000 10.970000 0 -1 0
2630 374 4 0.060000 35.220000 47.494000 9.940000 0 -1 0
2631 374 4 0.060000 34.900000 48.114000 11.600000 0 -1 0
2632 374 4 0.060000 37.080000 49.444000 11.420000 0 -1 0
2633 374 4 0.060000 37.380000 48.514000 10.000000 0 -1 0
2634 375 5 0.000000 33.880000 47.544000 9.930000 0 -1 0
2635 375 2 -0.120000 33.090000 47.504000 9.900000 0 -1 0
2636 375 2 -0.120000 34.690000 47.574000 9.860000 0 -1 0
2637 375 4 0.060000 32.730000 46.494000 9.450000 0 -1 0
2638 375 4 0.060000 32.690000 47.794000 10.820000 0 -1 0
2639 375 4 0.060000 34.900000 47.394000 10.950000 0 -1 0
2640 375 4 0.060000 35.050000 48.664000 9.640000 0 -1 0
2641 376 5 0.000000 32.340000 46.694000 8.270000 0 -1 0
2642 376 2 -0.120000 31.670000 46.894000 7.930000 0 -1 0
2643 376 2 -0.120000 33.000000 46.504000 8.620000 0 -1 0
2644 376 4 0.060000 31.870000 47.204000 6.940000 0 -1 0
2645 376 4 0.060000 31.090000 46.004000 7.680000 0 -1 0
2646 376 4 0.060000 32.700000 46.254000 9.570000 0 -1 0
2647 376 4 0.060000 33.720000 47.334000 8.730000 0 -1 0
2648 377 5 0.000000 32.730000 46.994000 5.640000 0 -1 0
2649 377 2 -0.120000 32.140000 47.204000 5.280000 0 -1 0
2650 377 2 -0.120000 33.340000 46.764000 6.020000 0 -1 0
2651 377 4 0.060000 32.260000 47.544000 4.290000 0 -1 0
2652 377 4 0.060000 31.360000 46.294000 5.290000 0 -1 0
2653 377 4 0.060000 33.070000 46.794000 7.120000 0 -1 0
2654 377 4 0.060000 34.050000 47.584000 5.730000 0 -1 0
2655 378 5 0.000000 33.000000 48.204000 3.320000 0 -1 0
2656 378 2 -0.120000 32.310000 48.404000 3.040000 0 -1 0
2657 378 2 -0.120000 33.690000 47.994000 3.620000 0 -1 0
2658 378 4 0.060000 32.470000 48.404000 1.980000 0 -1 0
2659 378 4 0.060000 31.680000 47.594000 3.120000 0 -1 0
2660 378 4 0.060000 33.620000 48.024000 4.790000 0 -1 0
2661 378 4 0.060000 34.360000 48.864000 3.290000 0 -1 0
2662 379 5 0.000000 32.300000 49.134000 1.030000 0 -1 0
2663 379 2 -0.120000 32.550000 49.774000 0.610000 0 -1 0
2664 379 2 -0.120000 32.060000 48.504000 1.440000 0 -1 0
2665 379 4 0.060000 33.570000 49.974000 0.800000 0 -1 0
2666 379 4 0.060000 32.380000 49.624000 61.514000 0 -1 -1
2667 379 4 0.060000 30.980000 48.204000 1.430000 0 -1 0
2668 379 4 0.060000 32.200000 48.704000 2.610000 0 -1 0
2669 380 5 0.000000 31.910000 49.684000 60.524000 0 -1 -1
2670 380 2 -0.120000 32.080000 50.304000 60.004000 0 -1 -1
2671 380 2 -0.120000 31.760000 49.064000 61.034000 0 -1 -1
2672 380 4 0.060000 33.070000 50.384000 59.794000 0 -1 -1
2673 380 4 0.060000 31.500000 50.204000 59.084000 0 -1 -1
2674 380 4 0.060000 30.650000 48.834000 61.154000 0 -1 -1
2675 380 4 0.060000 32.060000 49.204000 0.180000 0 -1 0
2676 381 5 0.000000 32.060000 50.154000 57.894000 0 -1 -1
2677 381 2 -0.120000 31.270000 50.284000 57.914000 0 -1 -1
2678 381 2 -0.120000 32.840000 50.104000 57.964000 0 -1 -1
2679 381 4 0.060000 30.840000 50.114000 56.974000 0 -1 -1
2680 381 4 0.060000 30.950000 49.644000 58.704000 0 -1 -1
2681 381 4 0.060000 33.290000 50.824000 57.284000 0 -1 -1
2682 381 4 0.060000 33.220000 49.114000 57.594000 0 -1 -1
2683 382 5 0.000000 31.870000 50.334000 55.284000 0 -1 -1
2684 382 2 -0.120000 31.060000 50.414000 55.114000 0 -1 -1
2685 382 2 -0.120000 32.660000 50.194000 55.354000 0 -1 -1
2686 382 4 0.060000 30.600000 49.664000 55.814000 0 -1 -1
2687 382 4 0.060000 30.840000 51.294000 55.534000 0 -1 -1
2688 382 4 0.060000 32.840000 50.694000 56.314000 0 -1 -1
2689 382 4 0.060000 33.360000 50.484000 54.624000 0 -1 -1
2690 383 5 0.000000 30.990000 50.584000 52.894000 0 -1 -1
2691 383 2 -0.120000 30.270000 50.824000 52.714000 0 -1 -1
2692 383 2 -0.120000 31.730000 50.334000 53.054000 0 -1 -1
2693 383 4 0.060000 29.730000 50.304000 51.884000 0 -1 -1
2694 383 4 0.060000 29.620000 50.544000 53.574000 0 -1 -1
2695 383 4 0.060000 31.960000 51.024000 53.894000 0 -1 -1
2696 383 4 0.060000 32.520000 50.594000 52.354000 0 -1 -1
2697 384 5 0.000000 30.280000 51.324000 50.744000 0 -1 -1
2698 384 2 -0.120000 30.090000 51.694000 51.374000 0 -1 -1
2699 384 2 -0.120000 30.450000 50.914000 50.114000 0 -1 -1
2700 384 4 0.060000 29.230000 51.424000 51.914000 0 -1 -1
2701 384 4 0.060000 30.900000 51.834000 52.134000 0 -1 -1
2702 384 4 0.060000 31.430000 51.374000 49.774000 0 -1 -1
2703 384 4 0.060000 29.870000 51.094000 49.224000 0 -1 -1
2704 385 5 0.000000 29.330000 53.324000 50.274000 0 -1 -1
2705 385 2 -0.120000 29.290000 53.764000 50.924000 0 -1 -1
2706 385 2 -0.120000 29.310000 53.014000 49.594000 0 -1 -1
2707 385 4 0.060000 28.250000 53.494000 51.224000 0 -1 -1
2708 385 4 0.060000 30.180000 53.284000 51.544000 0 -1 -1
2709 385 4 0.060000 29.280000 51.894000 49.724000 0 -1 -1
2710 385 4 0.060000 30.300000 53.134000 49.074000 0 -1 -1
2711 386 5 0.000000 28.170000 55.484000 49.784000 0 -1 -1
2712 386 2 -0.120000 28.110000 55.974000 50.394000 0 -1 -1
2713 386 2 -0.120000 28.260000 54.984000 49.154000 0 -1 -1
2714 386 4 0.060000 27.760000 56.924000 50.104000 0 -1 -1
2715 386 4 0.060000 27.210000 55.704000 50.984000 0 -1 -1
2716 386 4 0.060000 28.170000 53.914000 49.394000 0 -1 -1
2717 386 4 0.060000 29.250000 55.444000 48.864000 0 -1 -1
2718 387 5 0.000000 26.750000 57.244000 48.914000 0 -1 -1
2719 387 2 -0.120000 27.540000 57.364000 48.774000 0 -1 -1
2720 387 2 -0.120000 25.990000 57.004000 49.134000 0 -1 -1
2721 387 4 0.060000 27.830000 56.954000 47.844000 0 -1 -1
2722 387 4 0.060000 27.620000 58.394000 48.714000 0 -1 -1
2723 387 4 0.060000 25.390000 57.224000 48.174000 0 -1 -1
2724 387 4 0.060000 25.730000 57.714000 49.854000 0 -1 -1
2725 388 5 0.000000 25.340000 55.904000 47.184000 0 -1 -1
2726 388 2 -0.120000 26.040000 55.934000 46.994000 0 -1 -1
2727 388 2 -0.120000 24.660000 55.814000 47.394000 0 -1 -1
2728 388 4 0.060000 26.590000 55.904000 47.954000 0 -1 -1
2729 388 4 0.060000 26.250000 55.604000 46.074000 0 -1 -1
2730 388 4 0.060000 24.190000 56.204000 46.404000 0 -1 -1
2731 388 4 0.060000 24.230000 56.584000 48.034000 0 -1 -1
2732 389 5 0.000000 23.370000 56.994000 45.734000 0 -1 -1
2733 389 2 -0.120000 24.160000 57.104000 45.824000 0 -1 -1
2734 389 2 -0.120000 22.600000 56.914000 45.674000 0 -1 -1
2735 389 4 0.060000 24.390000 57.014000 46.914000 0 -1 -1
2736 389 4 0.060000 24.510000 56.264000 45.194000 0 -1 -1
2737 389 4 0.060000 22.370000 56.504000 44.714000 0 -1 -1
2738 389 4 0.060000 22.110000 57.834000 45.674000 0 -1 -1
2739 390 5 0.000000 20.810000 56.454000 46.394000 0 -1 -1
2740 390 2 -0.120000 20.540000 57.124000 46.434000 0 -1 -1
2741 390 2 -0.120000 21.070000 55.764000 46.364000 0 -1 -1
2742 390 4 0.060000 19.440000 57.124000 46.204000 0 -1 -1
2743 390 4 0.060000 20.560000 57.564000 47.434000 0 -1 -1
2744 390 4 0.060000 22.110000 55.904000 46.604000 0 -1 -1
2745 390 4 0.060000 21.190000 55.384000 45.324000 0 -1 -1
2746 391 5 0.000000 19.650000 54.574000 45.134000 0 -1 -1
2747 391 2 -0.120000 19.240000 55.164000 44.854000 0 -1 -1
2748 391 2 -0.120000 20.110000 53.984000 45.274000 0 -1 -1
2749 391 4 0.060000 18.250000 54.884000 44.494000 0 -1 -1
2750 391 4 0.060000 19.110000 55.614000 45.804000 0 -1 -1
2751 391 4 0.060000 19.630000 53.484000 46.084000 0 -1 -1
2752 391 4 0.060000 21.040000 54.284000 45.714000 0 -1 -1
2753 392 5 0.000000 19.380000 52.394000 44.464000 0 -1 -1
2754 392 2 -0.120000 18.800000 52.954000 44.364000 0 -1 -1
2755 392 2 -0.120000 20.010000 51.944000 44.664000 0 -1 -1
2756 392 4 0.060000 19.200000 53.484000 43.594000 0 -1 -1
2757 392 4 0.060000 17.930000 52.404000 44.154000 0 -1 -1
2758 392 4 0.060000 19.920000 51.374000 43.734000 0 -1 -1
2759 392 4 0.060000 19.800000 51.044000 45.244000 0 -1 -1
2760 393 5 0.000000 19.230000 49.824000 44.434000 0 -1 -1
2761 393 2 -0.120000 18.510000 50.134000 44.594000 0 -1 -1
2762 393 2 -0.120000 19.890000 49.384000 44.264000 0 -1 -1
2763 393 4 0.060000 18.380000 50.194000 45.654000 0 -1 -1
2764 393 4 0.060000 18.600000 51.214000 44.274000 0 -1 -1
2765 393 4 0.060000 20.710000 49.994000 44.634000 0 -1 -1
2766 393 4 0.060000 20.060000 49.404000 43.244000 0 -1 -1
2767 394 5 0.000000 19.260000 47.194000 44.374000 0 -1 -1
2768 394 2 -0.120000 19.240000 47.194000 43.614000 0 -1 -1
2769 394 2 -0.120000 19.290000 47.204000 45.144000 0 -1 -1
2770 394 4 0.060000 20.250000 46.634000 43.284000 0 -1 -1
2771 394 4 0.060000 18.350000 46.764000 43.284000 0 -1 -1
2772 394 4 0.060000 18.250000 47.384000 45.394000 0 -1 -1
2773 394 4 0.060000 20.110000 47.944000 45.544000 0 -1 -1
2774 395 5 0.000000 18.470000 45.034000 44.344000 0 -1 -1
2775 395 2 -0.120000 18.890000 45.684000 44.464000 0 -1 -1
2776 395 2 -0.120000 18.040000 44.404000 44.224000 0 -1 -1
2777 395 4 0.060000 19.010000 45.684000 45.534000 0 -1 -1
2778 395 4 0.060000 19.830000 45.284000 44.014000 0 -1 -1
2779 395 4 0.060000 18.260000 44.214000 43.224000 0 -1 -1
2780 395 4 0.060000 17.020000 44.614000 44.504000 0 -1 -1
2781 396 5 0.000000 16.790000 43.224000 43.944000 0 -1 -1
2782 396 2 -0.120000 16.620000 43.224000 43.174000 0 -1 -1
2783 396 2 -0.120000 16.940000 43.224000 44.704000 0 -1 -1
2784 396 4 0.060000 17.480000 42.764000 42.704000 0 -1 -1
2785 396 4 0.060000 15.650000 42.694000 43.014000 0 -1 -1
2786 396 4 0.060000 16.220000 43.754000 45.364000 0 -1 -1
2787 396 4 0.060000 17.920000 43.694000 44.864000 0 -1 -1
2788 397 5 0.000000 15.450000 41.074000 44.354000 0 -1 -1
2789 397 2 -0.120000 15.240000 40.924000 43.624000 0 -1 -1
2790 397 2 -0.120000 15.690000 41.194000 45.094000 0 -1 -1
2791 397 4 0.060000 15.970000 40.464000 43.034000 0 -1 -1
2792 397 4 0.060000 14.240000 40.484000 43.484000 0 -1 -1
2793 397 4 0.060000 14.830000 41.584000 45.514000 0 -1 -1
2794 397 4 0.060000 16.470000 41.994000 45.304000 0 -1 -1
2795 398 5 0.000000 14.650000 39.104000 43.504000 0 -1 -1
2796 398 2 -0.120000 14.030000 39.364000 43.844000 0 -1 -1
2797 398 2 -0.120000 15.220000 38.854000 43.104000 0 -1 -1
2798 398 4 0.060000 13.220000 38.744000 43.644000 0 -1 -1
2799 398 4 0.060000 14.150000 39.454000 44.894000 0 -1 -1
2800 398 4 0.060000 16.180000 38.654000 43.714000 0 -1 -1
2801 398 4 0.060000 15.520000 39.564000 42.384000 0 -1 -1
2802 399 5 0.000000 13.630000 37.784000 41.674000 0 -1 -1
2803 399 2 -0.120000 13.130000 38.074000 42.154000 0 -1 -1
2804 399 2 -0.120000 14.150000 37.494000 41.214000 0 -1 -1
2805 399 4 0.060000 12.180000 38.004000 41.634000 0 -1 -1
2806 399 4 0.060000 13.010000 37.384000 43.034000 0 -1 -1
2807 399 4 0.060000 15.180000 37.804000 41.484000 0 -1 -1
2808 399 4 0.060000 13.860000 38.074000 40.234000 0 -1 -1
2809 400 1 0.000000 12.820000 36.494000 39.334000 0 -1 -1
2810 400 2 -0.120000 12.110000 36.824000 39.614000 0 -1 -1
2811 400 3 -0.180000 13.460000 36.254000 39.094000 0 -1 -1
2812 400 4 0.060000 11.460000 36.534000 38.814000 0 -1 -1
2813 400 4 0.060000 11.930000 36.354000 40.574000 0 -1 -1
2814 400 4 0.060000 14.260000 37.004000 39.234000 0 -1 -1
2815 400 4 0.060000 13.390000 35.954000 38.024000 0 -1 -1
2816 400 4 0.060000 13.860000 35.524000 39.614000 0 -1 -1
2817 401 1 0.000000 0.646000 20.490000 5.640000 1 0 0
2818 401 2 -0.120000 0.706000 20.360000 4.890000 1 0 0
2819 401 3 -0.180000 0.676000 20.600000 6.300000 1 0 0
2820 401 4 0.060000 0.386000 21.340000 4.390000 1 0 0
2821 401 4 0.060000 61.800000 19.610000 4.720000 0 0 0
2822 401 4 0.060000 1.106000 19.790000 6.980000 1 0 0
2823 401 4 0.060000 61.690000 20.530000 6.590000 0 0 0
2824 401 4 0.060000 1.216000 21.550000 6.560000 1 0 0
2825 402 5 0.000000 60.180000 20.010000 5.190000 0 0 0
2826 402 2 -0.120000 59.960000 20.710000 5.070000 0 0 0
2827 402 2 -0.120000 60.380000 19.310000 5.290000 0 0 0
2828 402 4 0.060000 60.740000 21.210000 5.490000 0 0 0
2829 402 4 0.060000 59.990000 20.890000 3.960000 0 0 0
2830 402 4 0.060000 59.510000 18.680000 5.280000 0 0 0
2831 402 4 0.060000 60.830000 19.280000 6.270000 0 0 0
2832 403 5 0.000000 57.890000 19.030000 5.180000 0 0 0
2833 403 2 -0.120000 58.080000 19.360000 5.850000 0 0 0
2834 403 2 -0.120000 57.580000 18.680000 4.560000 0 0 0
2835 403 4 0.060000 58.780000 18.750000 6.400000 0 0 0
2836 403 4 0.060000 59.000000 19.990000 5.630000 0 0 0
2837 403 4 0.060000 58.420000 18.290000 3.920000 0 0 0
2838 403 4 0.060000 56.760000 19.260000 4.100000 0 0 0
2839 404 5 0.000000 55.500000 18.950000 6.140000 0 0 0
2840 404 2 -0.120000 55.650000 19.350000 6.810000 0 0 0
2841 404 2 -0.120000 55.320000 18.550000 5.480000 0 0 0
2842 404 4 0.060000 54.720000 19.470000 7.320000 0 0 0
2843 404 4 0.060000 56.310000 18.820000 7.430000 0 0 0
2844 404 4 0.060000 56.340000 18.370000 4.970000 0 0 0
2845 404 4 0.060000 54.920000 19.110000 4.740000 0 0 0
2846 405 5 0.000000 53.750000 18.990000 7.960000 0 0 0
2847 405 2 -0.120000 53.290000 19.600000 7.700000 0 0 0
2848 405 2 -0.120000 54.230000 18.370000 8.170000 0 0 0
2849 405 4 0.060000 52.930000 19.480000 6.740000 0 0 0
2850 405 4 0.060000 52.440000 19.600000 8.310000 0 0 0
2851 405 4 0.060000 54.170000 18.330000 9.220000 0 0 0
2852 405 4 0.060000 55.260000 18.750000 8.140000 0 0 0
2853 406 5 0.000000 55.160000 18.050000 9.900000 0 0 0
2854 406 2 -0.120000 55.890000 18.270000 9.840000 0 0 0
2855 406 2 -0.120000 54.420000 17.830000 9.960000 0 0 0
2856 406 4 0.060000 56.560000 17.560000 10.230000 0 0 0
2857 406 4 0.060000 56.100000 18.180000 8.780000 0 0 0
2858 406 4 0.060000 53.820000 18.640000 9.610000 0 0 0
2859 406 4 0.060000 54.150000 17.830000 10.960000 0 0 0
2860 407 5 0.000000 56.990000 16.990000 10.950000 0 0 0
2861 407 2 -0.120000 57.700000 17.310000 10.980000 0 0 0
2862 407 2 -0.120000 56.230000 16.810000 10.880000 0 0 0
2863 407 4 0.060000 58.230000 16.580000 11.650000 0 0 0
2864 407 4 0.060000 58.280000 17.030000 10.060000 0 0 0
2865 407 4 0.060000 55.630000 17.000000 11.700000 0 0 0
2866 407 4 0.060000 56.310000 15.760000 10.930000 0 0 0
2867 408 5 0.000000 59.370000 17.470000 9.940000 0 0 0
2868 408 2 -0.120000 59.750000 17.970000 10.360000 0 0 0
2869 408 2 -0.120000 58.960000 16.980000 9.530000 0 0 0
2870 408 4 0.060000 60.370000 18.310000 9.640000 0 0 0
2871 408 4 0.060000 59.250000 18.750000 10.890000 0 0 0
2872 408 4 0.060000 58.350000 16.240000 10.060000 0 0 0
2873 408 4 0.060000 59.770000 16.410000 9.130000 0 0 0
2874 409 5 0.000000 61.780000 17.840000 9.190000 0 0 0
2875 409 2 -0.120000 0.236000 18.340000 9.570000 1 0 0
2876 409 2 -0.120000 61.320000 17.330000 8.790000 0 0 0
2877 409 4 0.060000 0.976000 18.880000 8.940000 1 0 0
2878 409 4 0.060000 61.490000 19.150000 9.980000 0 0 0
2879 409 4 0.060000 60.650000 17.000000 9.550000 0 0 0
2880 409 4 0.060000 61.940000 16.570000 8.410000 0 0 0
2881 410 5 0.000000 1.726000 16.110000 9.370000 1 0 0
2882 410 2 -0.120000 2.436000 16.310000 9.580000 1 0 0
2883 410 2 -0.120000 1.046000 15.770000 9.200000 1 0 0
2884 410 4 0.060000 3.166000 16.450000 8.760000 1 0 0
2885 410 4 0.060000 2.206000 17.250000 10.040000 1 0 0
2886 410 4 0.060000 0.846000 16.160000 8.140000 1 0 0
2887 410 4 0.060000 0.246000 16.250000 9.930000 1 0 0
2888 411 5 0.000000 3.766000 15.580000 7.640000 1 0 0
2889 411 2 -0.120000 3.766000 15.970000 8.330000 1 0 0
2890 411 2 -0.120000 3.766000 15.180000 6.950000 1 0 0
2891 411 4 0.060000 2.636000 15.950000 8.510000 1 0 0
2892 411 4 0.060000 4.326000 15.460000 9.120000 1 0 0
2893 411 4 0.060000 4.776000 15.190000 6.600000 1 0 0
2894 411 4 0.060000 3.326000 15.890000 6.270000 1 0 0
2895 412 5 0.000000 5.476000 15.050000 5.810000 1 0 0
2896 412 2 -0.120000 5.556000 15.530000 6.360000 1 0 0
2897 412 2 -0.120000 5.346000 14.670000 5.190000 1 0 0
2898 412 4 0.060000 4.606000 15.620000 7.060000 1 0 0
2899 412 4 0.060000 6.156000 15.060000 7.130000 1 0 0
2900 412 4 0.060000 5.436000 13.530000 5.220000 1 0 0
2901 412 4 0.060000 6.286000 14.720000 4.640000 1 0 0
2902 413 5 0.000000 7.676000 15.770000 4.780000 1 0 0
2903 413 2 -0.120000 8.406000 15.740000 4.510000 1 0 0
2904 413 2 -0.120000 7.016000 15.690000 5.140000 1 0 0
2905 413 4 0.060000 8.256000 15.150000 3.720000 1 0 0
2906 413 4 0.060000 8.626000 16.780000 4.160000 1 0 0
2907 413 4 0.060000 6.176000 15.980000 4.520000 1 0 0
2908 413 4 0.060000 6.806000 16.470000 5.730000 1 0 0
2909 414 5 0.000000 9.506000 16.900000 3.740000 1 0 0
2910 414 2 -0.120000 9.466000 16.890000 2.980000 1 0 0
2911 414 2 -0.120000 9.536000 16.890000 4.510000 1 0 0
2912 414 4 0.060000 10.006000 16.070000 2.480000 1 0 0
2913 414 4 0.060000 8.396000 16.810000 2.710000 1 0 0
2914 414 4 0.060000 9.256000 17.920000 4.730000 1 0 0
2915 414 4 0.060000 10.566000 16.910000 4.940000 1 0 0
2916 415 5 0.000000 11.236000 18.800000 3.310000 1 0 0
2917 415 2 -0.120000 11.086000 19.550000 3.310000 1 0 0
2918 415 2 -0.120000 11.486000 18.070000 3.290000 1 0 0
2919 415 4 0.060000 10.036000 19.680000 3.160000 1 0 0
2920 415 4 0.060000 11.076000 19.860000 4.430000 1 0 0
2921 415 4 0.060000 11.896000 17.970000 2.250000 1 0 0
2922 415 4 0.060000 10.706000 17.330000 3.560000 1 0 0
2923 416 5 0.000000 13.236000 19.550000 2.530000 1 0 0
2924 416 2 -0.120000 13.126000 20.310000 2.440000 1 0 0
2925 416 2 -0.120000 13.306000 18.790000 2.500000 1 0 0
2926 416 4 0.060000 12.746000 20.610000 3.430000 1 0 0
2927 416 4 0.060000 14.106000 20.810000 2.380000 1 0 0
2928 416 4 0.060000 12.396000 18.400000 2.640000 1 0 0
2929 416 4 0.060000 14.106000 18.460000 3.040000 1 0 0
2930 417 5 0.000000 15.276000 20.330000 2.070000 1 0 0
2931 417 2 -0.120000 15.056000 21.120000 2.050000 1 0 0
2932 417 2 -0.120000 15.456000 19.540000 2.080000 1 0 0
2933 417 4 0.060000 15.966000 21.790000 1.740000 1 0 0
2934 417 4 0.060000 14.366000 21.250000 1.300000 1 0 0
2935 417 4 0.060000 14.756000 18.960000 2.720000 1 0 0
2936 417 4 0.060000 16.436000 19.410000 2.520000 1 0 0
2937 418 5 0.000000 17.156000 22.240000 2.480000 1 0 0
2938 418 2 -0.120000 16.716000 22.830000 2.840000 1 0 0
2939 418 2 -0.120000 17.596000 21.620000 2.260000 1 0 0
2940 418 4 0.060000 16.716000 23.490000 2.000000 1 0 0
2941 418 4 0.060000 15.636000 22.620000 2.780000 1 0 0
2942 418 4 0.060000 18.706000 21.880000 2.420000 1 0 0
2943 418 4 0.060000 17.516000 21.420000 1.130000 1 0 0
2944 419 5 0.000000 18.936000 24.240000 2.460000 1 0 0
2945 419 2 -0.120000 18.736000 24.880000 2.870000 1 0 0
2946 419 2 -0.120000 19.146000 23.590000 2.060000 1 0 0
2947 419 4 0.060000 17.626000 24.720000 2.980000 1 0 0
2948 419 4 0.060000 19.206000 24.910000 3.780000 1 0 0
2949 419 4 0.060000 20.296000 23.850000 1.770000 1 0 0
2950 419 4 0.060000 18.596000 23.600000 1.110000 1 0 0
2951 420 5 0.000000 20.686000 26.290000 2.770000 1 0 0
2952 420 2 -0.120000 20.316000 26.960000 2.980000 1 0 0
2953 420 2 -0.120000 21.046000 25.670000 2.430000 1 0 0
2954 420 4 0.060000 19.366000 26.730000 2.880000 1 0 0
2955 420 4 0.060000 20.556000 27.140000 3.980000 1 0 0
2956 420 4 0.060000 20.756000 25.000000 3.210000 1 0 0
2957 420 4 0.060000 22.176000 25.830000 2.420000 1 0 0
2958 421 5 0.000000 22.756000 27.500000 2.620000 1 0 0
2959 421 2 -0.120000 22.256000 28.070000 2.960000 1 0 0
2960 421 2 -0.120000 23.236000 26.870000 2.310000 1 0 0
2961 421 4 0.060000 22.446000 29.010000 2.270000 1 0 0
2962 421 4 0.060000 21.166000 27.860000 3.020000 1 0 0
2963 421 4 0.060000 23.646000 26.240000 3.200000 1 0 0
2964 421 4 0.060000 23.996000 27.470000 1.750000 1 0 0
2965 422 5 0.000000 25.226000 27.650000 2.030000 1 0 0
2966 422 2 -0.120000 24.826000 28.220000 2.440000 1 0 0
2967 422 2 -0.120000 25.666000 27.040000 1.730000 1 0 0
2968 422 4 0.060000 24.716000 28.940000 1.640000 1 0 0
2969 422 4 0.060000 23.966000 27.660000 2.710000 1 0 0
2970 422 4 0.060000 26.566000 27.650000 1.410000 1 0 0
2971 422 4 0.060000 25.126000 26.700000 0.960000 1 0 0
2972 423 5 0.000000 27.826000 27.840000 1.370000 1 0 0
2973 423 2 -0.120000 27.586000 28.460000 1.760000 1 0 0
2974 423 2 -0.120000 28.076000 27.260000 0.990000 1 0 0
2975 423 4 0.060000 26.806000 27.990000 2.320000 1 0 0
2976 423 4 0.060000 28.446000 28.750000 2.510000 1 0 0
2977 423 4 0.060000 28.636000 27.460000 0.080000 1 0 0
2978 423 4 0.060000 27.216000 26.670000 0.520000 1 0 0
2979 424 5 0.000000 28.176000 27.230000 61.194000 1 0 -1
2980 424 2 -0.120000 27.426000 27.150000 61.054000 1 0 -1
2981 424 2 -0.120000 28.936000 27.320000 61.354000 1 0 -1
2982 424 4 0.060000 27.206000 26.320000 60.324000 1 0 -1
2983 424 4 0.060000 26.886000 26.940000 61.984000 1 0 -1
2984 424 4 0.060000 29.066000 28.270000 61.804000 1 0 -1
2985 424 4 0.060000 29.366000 27.340000 60.384000 1 0 -1
2986 425 5 0.000000 27.686000 25.530000 59.384000 1 0 -1
2987 425 2 -0.120000 26.896000 25.490000 59.354000 1 0 -1
2988 425 2 -0.120000 28.496000 25.560000 59.314000 1 0 -1
2989 425 4 0.060000 26.536000 24.480000 58.904000 1 0 -1
2990 425 4 0.060000 26.496000 25.780000 60.274000 1 0 -1
2991 425 4 0.060000 28.706000 25.380000 60.404000 1 0 -1
2992 425 4 0.060000 28.856000 26.650000 59.094000 1 0 -1
2993 426 5 0.000000 26.706000 23.520000 58.004000 1 0 -1
2994 426 2 -0.120000 26.036000 23.720000 57.664000 1 0 -1
2995 426 2 -0.120000 27.366000 23.330000 58.354000 1 0 -1
2996 426 4 0.060000 26.236000 24.020000 56.674000 1 0 -1
2997 426 4 0.060000 25.456000 22.820000 57.414000 1 0 -1
2998 426 4 0.060000 27.066000 23.080000 59.304000 1 0 -1
2999 426 4 0.060000 28.086000 24.150000 58.464000 1 0 -1
3000 427 5 0.000000 26.156000 22.220000 56.074000 1 0 -1
3001 427 2 -0.120000 25.566000 22.430000 55.714000 1 0 -1
3002 427 2 -0.120000 26.766000 21.990000 56.454000 1 0 -1
3003 427 4 0.060000 25.686000 22.770000 54.724000 1 0 -1
3004 427 4 0.060000 24.786000 21.520000 55.724000 1 0 -1
3005 427 4 0.060000 26.496000 22.020000 57.554000 1 0 -1
3006 427 4 0.060000 27.476000 22.810000 56.164000 1 0 -1
3007 428 5 0.000000 25.396000 21.930000 53.614000 1 0 -1
3008 428 2 -0.120000 24.706000 22.130000 53.334000 1 0 -1
3009 428 2 -0.120000 26.086000 21.720000 53.914000 1 0 -1
3010 428 4 0.060000 24.866000 22.130000 52.274000 1 0 -1
3011 428 4 0.060000 24.076000 21.320000 53.414000 1 0 -1
3012 428 4 0.060000 26.016000 21.750000 55.084000 1 0 -1
3013 428 4 0.060000 26.756000 22.590000 53.584000 1 0 -1
3014 429 5 0.000000 24.566000 21.710000 51.114000 1 0 -1
3015 429 2 -0.120000 24.816000 22.350000 50.694000 1 0 -1
3016 429 2 -0.120000 24.326000 21.080000 51.524000 1 0 -1
3017 429 4 0.060000 25.836000 22.550000 50.884000 1 0 -1
3018 429 4 0.060000 24.646000 22.200000 49.594000 1 0 -1
3019 429 4 0.060000 23.246000 20.780000 51.514000 1 0 -1
3020 429 4 0.060000 24.466000 21.280000 52.694000 1 0 -1
3021 430 5 0.000000 23.656000 22.990000 48.944000 1 0 -1
3022 430 2 -0.120000 23.826000 23.610000 48.424000 1 0 -1
3023 430 2 -0.120000 23.506000 22.370000 49.454000 1 0 -1
3024 430 4 0.060000 24.816000 23.690000 48.214000 1 0 -1
3025 430 4 0.060000 23.246000 23.510000 47.504000 1 0 -1
3026 430 4 0.060000 22.396000 22.140000 49.574000 1 0 -1
3027 430 4 0.060000 23.806000 22.510000 50.604000 1 0 -1
3028 431 5 0.000000 22.466000 24.350000 47.324000 1 0 -1
3029 431 2 -0.120000 21.676000 24.480000 47.344000 1 0 -1
3030 431 2 -0.120000 23.246000 24.300000 47.394000 1 0 -1
3031 431 4 0.060000 21.246000 24.310000 46.404000 1 0 -1
3032 431 4 0.060000 21.356000 23.840000 48.134000 1 0 -1
3033 431 4 0.060000 23.696000 25.020000 46.714000 1 0 -1
3034 431 4 0.060000 23.626000 23.310000 47.024000 1 0 -1
3035 432 5 0.000000 20.946000 26.450000 46.924000 1 0 -1
3036 432 2 -0.120000 20.136000 26.530000 46.754000 1 0 -1
3037 432 2 -0.120000 21.736000 26.310000 46.994000 1 0 -1
3038 432 4 0.060000 19.676000 25.780000 47.454000 1 0 -1
3039 432 4 0.060000 19.916000 27.410000 47.174000 1 0 -1
3040 432 4 0.060000 21.916000 26.810000 47.954000 1 0 -1
3041 432 4 0.060000 22.436000 26.600000 46.264000 1 0 -1
3042 433 5 0.000000 19.566000 28.610000 46.604000 1 0 -1
3043 433 2 -0.120000 18.846000 28.850000 46.424000 1 0 -1
3044 433 2 -0.120000 20.306000 28.360000 46.764000 1 0 -1
3045 433 4 0.060000 18.306000 28.330000 45.594000 1 0 -1
3046 433 4 0.060000 18.196000 28.570000 47.284000 1 0 -1
3047 433 4 0.060000 20.536000 29.050000 47.604000 1 0 -1
3048 433 4 0.060000 21.096000 28.620000 46.064000 1 0 -1
3049 434 5 0.000000 17.726000 29.820000 47.454000 1 0 -1
3050 434 2 -0.120000 17.536000 30.190000 48.084000 1 0 -1
3051 434 2 -0.120000 17.896000 29.410000 46.824000 1 0 -1
3052 434 4 0.060000 16.676000 29.920000 48.624000 1 0 -1
3053 434 4 0.060000 18.346000 30.330000 48.844000 1 0 -1
3054 434 4 0.060000 18.876000 29.870000 46.484000 1 0 -1
3055 434 4 0.060000 17.316000 29.590000 45.934000 1 0 -1
3056 435 5 0.000000 15.326000 29.870000 48.334000 1 0 -1
3057 435 2 -0.120000 15.286000 30.310000 48.984000 1 0 -1
3058 435 2 -0.120000 15.306000 29.560000 47.654000 1 0 -1
3059 435 4 0.060000 14.246000 30.040000 49.284000 1 0 -1
3060 435 4 0.060000 16.176000 29.830000 49.604000 1 0 -1
3061 435 4 0.060000 15.276000 28.440000 47.784000 1 0 -1
3062 435 4 0.060000 16.296000 29.680000 47.134000 1 0 -1
3063 436 5 0.000000 13.156000 28.700000 48.074000 1 0 -1
3064 436 2 -0.120000 13.096000 29.190000 48.684000 1 0 -1
3065 436 2 -0.120000 13.246000 28.200000 47.444000 1 0 -1
3066 436 4 0.060000 12.746000 30.140000 48.394000 1 0 -1
3067 436 4 0.060000 12.196000 28.920000 49.274000 1 0 -1
3068 436 4 0.060000 13.156000 27.130000 47.684000 1 0 -1
3069 436 4 0.060000 14.236000 28.660000 47.154000 1 0 -1
3070 437 5 0.000000 12.646000 26.050000 48.384000 1 0 -1
3071 437 2 -0.120000 13.436000 26.170000 48.244000 1 0 -1
3072 437 2 -0.120000 11.886000 25.810000 48.604000 1 0 -1
3073 437 4 0.060000 13.726000 25.760000 47.314000 1 0 -1
3074 437 4 0.060000 13.516000 27.200000 48.184000 1 0 -1
3075 437 4 0.060000 11.286000 26.030000 47.644000 1 0 -1
3076 437 4 0.060000 11.626000 26.520000 49.324000 1 0 -1
3077 438 5 0.000000 10.706000 24.600000 48.764000 1 0 -1
3078 438 2 -0.120000 11.406000 24.630000 48.574000 1 0 -1
3079 438 2 -0.120000 10.026000 24.510000 48.974000 1 0 -1
3080 438 4 0.060000 11.956000 24.600000 49.534000 1 0 -1
3081 438 4 0.060000 11.616000 24.300000 47.654000 1 0 -1
3082 438 4 0.060000 9.556000 24.900000 47.984000 1 0 -1
3083 438 4 0.060000 9.596000 25.280000 49.614000 1 0 -1
3084 439 5 0.000000 8.446000 23.270000 48.314000 1 0 -1
3085 439 2 -0.120000 9.236000 23.380000 48.404000 1 0 -1
3086 439 2 -0.120000 7.676000 23.190000 48.254000 1 0 -1
3087 439 4 0.060000 9.466000 23.290000 49.494000 1 0 -1
3088 439 4 0.060000 9.586000 22.540000 47.774000 1 0 -1
3089 439 4 0.060000 7.446000 22.780000 47.294000 1 0 -1
3090 439 4 0.060000 7.186000 24.110000 48.254000 1 0 -1
3091 440 5 0.000000 6.136000 22.120000 47.784000 1 0 -1
3092 440 2 -0.120000 5.866000 22.790000 47.824000 1 0 -1
3093 440 2 -0.120000 6.396000 21.430000 47.754000 1 0 -1
3094 440 4 0.060000 4.766000 22.790000 47.594000 1 0 -1
3095 440 4 0.060000 5.886000 23.230000 48.824000 1 0 -1
3096 440 4 0.060000 7.436000 21.570000 47.994000 1 0 -1
3097 440 4 0.060000 6.516000 21.050000 46.714000 1 0 -1
3098 441 5 0.000000 4.196000 22.200000 46.464000 1 0 -1
3099 441 2 -0.120000 3.786000 22.790000 46.184000 1 0 -1
3100 441 2 -0.120000 4.656000 21.610000 46.604000 1 0 -1
3101 441 4 0.060000 2.796000 22.510000 45.824000 1 0 -1
3102 441 4 0.060000 3.656000 23.240000 47.134000 1 0 -1
3103 441 4 0.060000 4.176000 21.110000 47.414000 1 0 -1
3104 441 4 0.060000 5.586000 21.910000 47.044000 1 0 -1
3105 442 5 0.000000 2.136000 22.280000 45.114000 1 0 -1
3106 442 2 -0.120000 1.556000 22.840000 45.014000 1 0 -1
3107 442 2 -0.120000 2.766000 21.830000 45.314000 1 0 -1
3108 442 4 0.060000 1.956000 23.370000 44.244000 1 0 -1
3109 442 4 0.060000 0.686000 22.290000 44.804000 1 0 -1
3110 442 4 0.060000 2.676000 21.260000 44.384000 1 0 -1
3111 442 4 0.060000 2.556000 20.930000 45.894000 1 0 -1
3112 443 5 0.000000 0.246000 20.670000 46.014000 1 0 -1
3113 443 2 -0.120000 61.530000 20.980000 46.174000 0 0 -1
3114 443 2 -0.120000 0.906000 20.230000 45.844000 1 0 -1
3115 443 4 0.060000 61.400000 21.040000 47.234000 0 0 -1
3116 443 4 0.060000 61.620000 22.060000 45.854000 0 0 -1
3117 443 4 0.060000 1.726000 20.840000 46.214000 1 0 -1
3118 443 4 0.060000 1.076000 20.250000 44.824000 1 0 -1
3119 444 5 0.000000 61.440000 18.280000 45.194000 0 0 -1
3120 444 2 -0.120000 61.420000 18.280000 44.434000 0 0 -1
3121 444 2 -0.120000 61.470000 18.290000 45.964000 0 0 -1
3122 444 4 0.060000 0.426000 17.720000 44.104000 1 0 -1
3123 444 4 0.060000 60.530000 17.850000 44.104000 0 0 -1
3124 444 4 0.060000 60.430000 18.470000 46.214000 0 0 -1
3125 444 4 0.060000 0.286000 19.030000 46.364000 1 0 -1
3126 445 5 0.000000 60.740000 15.950000 44.934000 0 0 -1
3127 445 2 -0.120000 61.160000 16.600000 45.054000 0 0 -1
3128 445 2 -0.120000 60.310000 15.320000 44.814000 0 0 -1
3129 445 4 0.060000 61.280000 16.600000 46.124000 0 0 -1
3130 445 4 0.060000 0.096000 16.200000 44.604000 1 0 -1
3131 445 4 0.060000 60.530000 15.130000 43.814000 0 0 -1
3132 445 4 0.060000 59.290000 15.530000 45.094000 0 0 -1
3133 446 5 0.000000 60.990000 13.570000 45.204000 0 0 -1
3134 446 2 -0.120000 60.820000 13.570000 44.434000 0 0 -1
3135 446 2 -0.120000 61.140000 13.570000 45.964000 0 0 -1
3136 446 4 0.060000 61.680000 13.100000 43.964000 0 0 -1
3137 446 4 0.060000 59.850000 13.040000 44.274000 0 0 -1
3138 446 4 0.060000 60.420000 14.100000 46.624000 0 0 -1
3139 446 4 0.060000 0.116000 14.030000 46.124000 1 0 -1
3140 447 5 0.000000 0.126000 11.560000 45.414000 1 0 -1
3141 447 2 -0.120000 61.920000 11.410000 44.684000 0 0 -1
3142 447 2 -0.120000 0.366000 11.680000 46.154000 1 0 -1
3143 447 4 0.060000 0.646000 10.950000 44.094000 1 0 -1
3144 447 4 0.060000 60.920000 10.970000 44.544000 0 0 -1
3145 447 4 0.060000 61.510000 12.070000 46.574000 0 0 -1
3146 447 4 0.060000 1.146000 12.480000 46.364000 1 0 -1
3147 448 5 0.000000 1.116000 9.440000 45.984000 1 0 -1
3148 448 2 -0.120000 0.496000 9.700000 46.324000 1 0 -1
3149 448 2 -0.120000 1.686000 9.190000 45.584000 1 0 -1
3150 448 4 0.060000 61.690000 9.080000 46.124000 0 0 -1
3151 448 4 0.060000 0.616000 9.790000 47.374000 1 0 -1
3152 448 4 0.060000 2.646000 8.990000 46.194000 1 0 -1
3153 448 4 0.060000 1.986000 9.900000 44.864000 1 0 -1
3154 449 5 0.000000 3.576000 8.590000 46.664000 1 0 -1
3155 449 2 -0.120000 3.076000 8.880000 47.144000 1 0 -1
3156 449 2 -0.120000 4.096000 8.300000 46.204000 1 0 -1
3157 449 4 0.060000 2.126000 8.810000 46.624000 1 0 -1
3158 449 4 0.060000 2.956000 8.190000 48.024000 1 0 -1
3159 449 4 0.060000 5.126000 8.610000 46.474000 1 0 -1
3160 449 4 0.060000 3.806000 8.880000 45.224000 1 0 -1
3161 450 1 0.000000 3.406000 6.000000 46.374000 1 0 -1
3162 450 2 -0.120000 2.696000 6.330000 46.654000 1 0 -1
3163 450 3 -0.180000 4.046000 5.760000 46.134000 1 0 -1
3164 450 4 0.060000 2.046000 6.040000 45.854000 1 0 -1
3165 450 4 0.060000 2.516000 5.860000 47.614000 1 0 -1
3166 450 4 0.060000 4.846000 6.510000 46.274000 1 0 -1
3167 450 4 0.060000 3.976000 5.460000 45.064000 1 0 -1
3168 450 4 0.060000 4.446000 5.030000 46.654000 1 0 -1
3169 451 1 0.000000 55.990000 32.960000 3.600000 0 0 0
3170 451 2 -0.120000 56.050000 32.830000 2.850000 0 0 0
3171 451 3 -0.180000 56.020000 33.070000 4.260000 0 0 0
3172 451 4 0.060000 55.730000 33.810000 2.350000 0 0 0
3173 451 4 0.060000 55.140000 32.080000 2.680000 0 0 0
3174 451 4 0.060000 56.450000 32.260000 4.940000 0 0 0
3175 451 4 0.060000 55.030000 33.000000 4.550000 0 0 0
3176 451 4 0.060000 56.560000 34.020000 4.520000 0 0 0
3177 452 5 0.000000 54.200000 31.490000 2.490000 0 0 0
3178 452 2 -0.120000 53.980000 32.190000 2.370000 0 0 0
3179 452 2 -0.120000 54.400000 30.790000 2.590000 0 0 0
3180 452 4 0.060000 54.760000 32.690000 2.790000 0 0 0
3181 452 4 0.060000 54.010000 32.370000 1.260000 0 0 0
3182 452 4 0.060000 53.530000 30.160000 2.580000 0 0 0
3183 452 4 0.060000 54.850000 30.760000 3.570000 0 0 0
3184 453 5 0.000000 52.520000 30.290000 0.940000 0 0 0
3185 453 2 -0.120000 52.710000 30.620000 1.610000 0 0 0
3186 453 2 -0.120000 52.210000 29.940000 0.320000 0 0 0
3187 453 4 0.060000 53.410000 30.010000 2.160000 0 0 0
3188 453 4 0.060000 53.630000 31.250000 1.390000 0 0 0
3189 453 4 0.060000 53.050000 29.550000 61.684000 0 0 -1
3190 453 4 0.060000 51.390000 30.520000 61.864000 0 0 -1
3191 454 5 0.000000 51.030000 28.500000 0.900000 0 0 0
3192 454 2 -0.120000 51.180000 28.900000 1.570000 0 0 0
3193 454 2 -0.120000 50.850000 28.100000 0.240000 0 0 0
3194 454 4 0.060000 50.250000 29.020000 2.080000 0 0 0
3195 454 4 0.060000 51.840000 28.370000 2.190000 0 0 0
3196 454 4 0.060000 51.870000 27.920000 61.734000 0 0 -1
3197 454 4 0.060000 50.450000 28.660000 61.504000 0 0 -1
3198 455 5 0.000000 49.770000 26.330000 0.760000 0 0 0
3199 455 2 -0.120000 49.310000 26.940000 0.500000 0 0 0
3200 455 2 -0.120000 50.250000 25.710000 0.970000 0 0 0
3201 455 4 0.060000 48.950000 26.820000 61.544000 0 0 -1
3202 455 4 0.060000 48.460000 26.940000 1.110000 0 0 0
3203 455 4 0.060000 50.190000 25.670000 2.020000 0 0 0
3204 455 4 0.060000 51.280000 26.090000 0.940000 0 0 0
3205 456 5 0.000000 48.070000 24.820000 61.604000 0 0 -1
3206 456 2 -0.120000 48.800000 25.040000 61.544000 0 0 -1
3207 456 2 -0.120000 47.330000 24.600000 61.664000 0 0 -1
3208 456 4 0.060000 49.470000 24.330000 61.934000 0 0 -1
3209 456 4 0.060000 49.010000 24.950000 60.484000 0 0 -1
3210 456 4 0.060000 46.730000 25.410000 61.314000 0 0 -1
3211 456 4 0.060000 47.060000 24.600000 0.660000 0 0 0
3212 457 5 0.000000 46.790000 23.230000 59.944000 0 0 -1
3213 457 2 -0.120000 47.500000 23.550000 59.974000 0 0 -1
3214 457 2 -0.120000 46.030000 23.050000 59.874000 0 0 -1
3215 457 4 0.060000 48.030000 22.820000 60.644000 0 0 -1
3216 457 4 0.060000 48.080000 23.270000 59.054000 0 0 -1
3217 457 4 0.060000 45.430000 23.240000 60.694000 0 0 -1
3218 457 4 0.060000 46.110000 22.000000 59.924000 0 0 -1
3219 458 5 0.000000 45.680000 22.010000 57.794000 0 0 -1
3220 458 2 -0.120000 46.060000 22.510000 58.214000 0 0 -1
3221 458 2 -0.120000 45.270000 21.520000 57.384000 0 0 -1
3222 458 4 0.060000 46.680000 22.850000 57.494000 0 0 -1
3223 458 4 0.060000 45.560000 23.290000 58.744000 0 0 -1
3224 458 4 0.060000 44.660000 20.780000 57.914000 0 0 -1
3225 458 4 0.060000 46.080000 20.950000 56.984000 0 0 -1
3226 459 5 0.000000 44.840000 20.740000 55.704000 0 0 -1
3227 459 2 -0.120000 45.300000 21.240000 56.084000 0 0 -1
3228 459 2 -0.120000 44.380000 20.230000 55.304000 0 0 -1
3229 459 4 0.060000 46.040000 21.780000 55.454000 0 0 -1
3230 459 4 0.060000 44.550000 22.050000 56.494000 0 0 -1
3231 459 4 0.060000 43.710000 19.900000 56.064000 0 0 -1
3232 459 4 0.060000 45.000000 19.470000 54.924000 0 0 -1
3233 460 5 0.000000 44.070000 19.190000 53.814000 0 0 -1
3234 460 2 -0.120000 44.780000 19.390000 54.024000 0 0 -1
3235 460 2 -0.120000 43.390000 18.850000 53.644000 0 0 -1
3236 460 4 0.060000 45.510000 19.530000 53.204000 0 0 -1
3237 460 4 0.060000 44.550000 20.330000 54.484000 0 0 -1
3238 460 4 0.060000 43.190000 19.240000 52.584000 0 0 -1
3239 460 4 0.060000 42.590000 19.330000 54.374000 0 0 -1
3240 461 5 0.000000 43.630000 17.590000 51.764000 0 0 -1
3241 461 2 -0.120000 43.630000 17.980000 52.454000 0 0 -1
3242 461 2 -0.120000 43.630000 17.190000 51.074000 0 0 -1
3243 461 4 0.060000 42.500000 17.960000 52.634000 0 0 -1
3244 461 4 0.060000 44.190000 17.470000 53.244000 0 0 -1
3245 461 4 0.060000 44.640000 17.200000 50.724000 0 0 -1
3246 461 4 0.060000 43.190000 17.900000 50.394000 0 0 -1
3247 462 5 0.000000 42.020000 18.340000 49.814000 0 0 -1
3248 462 2 -0.120000 42.100000 18.820000 50.364000 0 0 -1
3249 462 2 -0.120000 41.890000 17.960000 49.194000 0 0 -1
3250 462 4 0.060000 41.150000 18.910000 51.064000 0 0 -1
3251 462 4 0.060000 42.700000 18.350000 51.134000 0 0 -1
3252 462 4 0.060000 41.980000 16.820000 49.224000 0 0 -1
3253 462 4 0.060000 42.830000 18.010000 48.644000 0 0 -1
3254 463 5 0.000000 40.410000 19.090000 47.794000 0 0 -1
3255 463 2 -0.120000 41.140000 19.060000 47.524000 0 0 -1
3256 463 2 -0.120000 39.750000 19.010000 48.154000 0 0 -1
3257 463 4 0.060000 40.990000 18.470000 46.734000 0 0 -1
3258 463 4 0.060000 41.360000 20.100000 47.174000 0 0 -1
3259 463 4 0.060000 38.910000 19.300000 47.534000 0 0 -1
3260 463 4 0.060000 39.540000 19.790000 48.744000 0 0 -1
3261 464 5 0.000000 38.430000 18.030000 46.874000 0 0 -1
3262 464 2 -0.120000 38.390000 18.020000 46.114000 0 0 -1
3263 464 2 -0.120000 38.460000 18.020000 47.644000 0 0 -1
3264 464 4 0.060000 38.930000 17.200000 45.614000 0 0 -1
3265 464 4 0.060000 37.320000 17.940000 45.844000 0 0 -1
3266 464 4 0.060000 38.180000 19.050000 47.864000 0 0 -1
3267 464 4 0.060000 39.490000 18.040000 48.074000 0 0 -1
3268 465 5 0.000000 35.880000 17.500000 46.604000 0 0 -1
3269 465 2 -0.120000 35.730000 18.250000 46.604000 0 0 -1
3270 465 2 -0.120000 36.130000 16.770000 46.584000 0 0 -1
3271 465 4 0.060000 34.680000 18.380000 46.454000 0 0 -1
3272 465 4 0.060000 35.720000 18.560000 47.724000 0 0 -1
3273 465 4 0.060000 36.540000 16.670000 45.544000 0 0 -1
3274 465 4 0.060000 35.350000 16.030000 46.854000 0 0 -1
3275 466 5 0.000000 34.090000 16.300000 45.704000 0 0 -1
3276 466 2 -0.120000 33.980000 17.060000 45.614000 0 0 -1
3277 466 2 -0.120000 34.160000 15.540000 45.674000 0 0 -1
3278 466 4 0.060000 33.600000 17.360000 46.604000 0 0 -1
3279 466 4 0.060000 34.960000 17.560000 45.554000 0 0 -1
3280 466 4 0.060000 33.250000 15.150000 45.814000 0 0 -1
3281 466 4 0.060000 34.960000 15.210000 46.214000 0 0 -1
3282 467 5 0.000000 33.140000 14.580000 44.274000 0 0 -1
3283 467 2 -0.120000 32.920000 15.370000 44.254000 0 0 -1
3284 467 2 -0.120000 33.320000 13.790000 44.284000 0 0 -1
3285 467 4 0.060000 33.830000 16.040000 43.944000 0 0 -1
3286 467 4 0.060000 32.230000 15.500000 43.504000 0 0 -1
3287 467 4 0.060000 32.620000 13.210000 44.924000 0 0 -1
3288 467 4 0.060000 34.300000 13.660000 44.724000 0 0 -1
3289 468 5 0.000000 32.000000 12.640000 42.674000 0 0 -1
3290 468 2 -0.120000 31.560000 13.230000 43.034000 0 0 -1
3291 468 2 -0.120000 32.440000 12.020000 42.454000 0 0 -1
3292 468 4 0.060000 31.560000 13.890000 42.194000 0 0 -1
3293 468 4 0.060000 30.480000 13.020000 42.974000 0 0 -1
3294 468 4 0.060000 33.550000 12.280000 42.614000 0 0 -1
3295 468 4 0.060000 32.360000 11.820000 41.324000 0 0 -1
3296 469 5 0.000000 30.340000 10.880000 41.324000 0 0 -1
3297 469 2 -0.120000 30.140000 11.520000 41.734000 0 0 -1
3298 469 2 -0.120000 30.550000 10.230000 40.924000 0 0 -1
3299 469 4 0.060000 29.030000 11.360000 41.844000 0 0 -1
3300 469 4 0.060000 30.610000 11.550000 42.644000 0 0 -1
3301 469 4 0.060000 31.700000 10.490000 40.634000 0 0 -1
3302 469 4 0.060000 30.000000 10.240000 39.974000 0 0 -1
3303 470 5 0.000000 28.470000 9.700000 40.144000 0 0 -1
3304 470 2 -0.120000 28.100000 10.370000 40.354000 0 0 -1
3305 470 2 -0.120000 28.830000 9.080000 39.804000 0 0 -1
3306 470 4 0.060000 27.150000 10.140000 40.254000 0 0 -1
3307 470 4 0.060000 28.340000 10.550000 41.354000 0 0 -1
3308 470 4 0.060000 28.540000 8.410000 40.584000 0 0 -1
3309 470 4 0.060000 29.960000 9.240000 39.794000 0 0 -1
3310 471 5 0.000000 26.620000 8.610000 38.644000 0 0 -1
3311 471 2 -0.120000 26.120000 9.180000 38.984000 0 0 -1
3312 471 2 -0.120000 27.100000 7.980000 38.334000 0 0 -1
3313 471 4 0.060000 26.310000 10.120000 38.294000 0 0 -1
3314 471 4 0.060000 25.030000 8.970000 39.044000 0 0 -1
3315 471 4 0.060000 27.510000 7.350000 39.224000 0 0 -1
3316 471 4 0.060000 27.860000 8.580000 37.774000 0 0 -1
3317 472 5 0.000000 24.810000 7.160000 38.224000 0 0 -1
3318 472 2 -0.120000 24.410000 7.730000 38.634000 0 0 -1
3319 472 2 -0.120000 25.250000 6.550000 37.924000 0 0 -1
3320 472 4 0.060000 24.300000 8.450000 37.834000 0 0 -1
3321 472 4 0.060000 23.550000 7.170000 38.904000 0 0 -1
3322 472 4 0.060000 26.150000 7.160000 37.604000 0 0 -1
3323 472 4 0.060000 24.710000 6.210000 37.154000 0 0 -1
3324 473 5 0.000000 22.860000 6.090000 38.974000 0 0 -1
3325 473 2 -0.120000 22.620000 6.710000 39.364000 0 0 -1
3326 473 2 -0.120000 23.110000 5.510000 38.594000 0 0 -1
3327 473 4 0.060000 21.840000 6.240000 39.924000 0 0 -1
3328 473 4 0.060000 23.480000 7.000000 40.114000 0 0 -1
3329 473 4 0.060000 23.670000 5.710000 37.684000 0 0 -1
3330 473 4 0.060000 22.250000 4.920000 38.124000 0 0 -1
3331 474 5 0.000000 22.420000 6.480000 41.444000 0 0 -1
3332 474 2 -0.120000 21.670000 6.400000 41.304000 0 0 -1
3333 474 2 -0.120000 23.180000 6.570000 41.604000 0 0 -1
3334 474 4 0.060000 21.450000 5.570000 40.574000 0 0 -1
3335 474 4 0.060000 21.130000 6.190000 42.234000 0 0 -1
3336 474 4 0.060000 23.310000 7.520000 42.054000 0 0 -1
3337 474 4 0.060000 23.610000 6.590000 40.634000 0 0 -1
3338 475 5 0.000000 23.130000 8.370000 43.074000 0 0 -1
3339 475 2 -0.120000 22.340000 8.330000 43.044000 0 0 -1
3340 475 2 -0.120000 23.940000 8.400000 43.004000 0 0 -1
3341 475 4 0.060000 21.980000 7.320000 42.594000 0 0 -1
3342 475 4 0.060000 21.940000 8.620000 43.964000 0 0 -1
3343 475 4 0.060000 24.150000 8.220000 44.094000 0 0 -1
3344 475 4 0.060000 24.300000 9.490000 42.784000 0 0 -1
3345 476 5 0.000000 24.520000 9.960000 43.814000 0 0 -1
3346 476 2 -0.120000 23.850000 10.160000 43.474000 0 0 -1
3347 476 2 -0.120000 25.180000 9.770000 44.164000 0 0 -1
3348 476 4 0.060000 24.050000 10.470000 42.484000 0 0 -1
3349 476 4 0.060000 23.270000 9.270000 43.224000 0 0 -1
3350 476 4 0.060000 24.880000 9.520000 45.114000 0 0 -1
3351 476 4 0.060000 25.900000 10.600000 44.274000 0 0 -1
3352 477 5 0.000000 26.520000 11.190000 44.494000 0 0 -1
3353 477 2 -0.120000 25.930000 11.400000 44.134000 0 0 -1
3354 477 2 -0.120000 27.130000 10.960000 44.874000 0 0 -1
3355 477 4 0.060000 26.050000 11.740000 43.144000 0 0 -1
3356 477 4 0.060000 25.150000 10.490000 44.144000 0 0 -1
3357 477 4 0.060000 26.860000 10.990000 45.974000 0 0 -1
3358 477 4 0.060000 27.840000 11.780000 44.584000 0 0 -1
3359 478 5 0.000000 28.630000 12.070000 45.644000 0 0 -1
3360 478 2 -0.120000 27.940000 12.270000 45.364000 0 0 -1
3361 478 2 -0.120000 29.320000 11.860000 45.944000 0 0 -1
3362 478 4 0.060000 28.100000 12.270000 44.304000 0 0 -1
3363 478 4 0.060000 27.310000 11.460000 45.444000 0 0 -1
3364 478 4 0.060000 29.250000 11.890000 47.114000 0 0 -1
3365 478 4 0.060000 29.990000 12.730000 45.614000 0 0 -1
3366 479 5 0.000000 30.310000 13.280000 46.964000 0 0 -1
3367 479 2 -0.120000 30.560000 13.920000 46.544000 0 0 -1
3368 479 2 -0.120000 30.070000 12.650000 47.374000 0 0 -1
3369 479 4 0.060000 31.580000 14.120000 46.734000 0 0 -1
3370 479 4 0.060000 30.390000 13.770000 45.444000 0 0 -1
3371 479 4 0.060000 28.990000 12.350000 47.364000 0 0 -1
3372 479 4 0.060000 30.210000 12.850000 48.544000 0 0 -1
3373 480 5 0.000000 31.810000 14.490000 48.774000 0 0 -1
3374 480 2 -0.120000 31.980000 15.110000 48.254000 0 0 -1
3375 480 2 -0.120000 31.660000 13.870000 49.284000 0 0 -1
3376 480 4 0.060000 32.970000 15.190000 48.044000 0 0 -1
3377 480 4 0.060000 31.400000 15.010000 47.334000 0 0 -1
3378 480 4 0.060000 30.550000 13.640000 49.404000 0 0 -1
3379 480 4 0.060000 31.960000 14.010000 50.434000 0 0 -1
3380 481 5 0.000000 32.650000 16.090000 50.404000 0 0 -1
3381 481 2 -0.120000 31.860000 16.220000 50.424000 0 0 -1
3382 481 2 -0.120000 33.430000 16.040000 50.474000 0 0 -1
3383 481 4 0.060000 31.430000 16.050000 49.484000 0 0 -1
3384 481 4 0.060000 31.540000 15.580000 51.214000 0 0 -1
3385 481 4 0.060000 33.880000 16.760000 49.794000 0 0 -1
3386 481 4 0.060000 33.810000 15.050000 50.104000 0 0 -1
3387 482 5 0.000000 31.630000 15.530000 52.644000 0 0 -1
3388 482 2 -0.120000 30.820000 15.610000 52.474000 0 0 -1
3389 482 2 -0.120000 32.420000 15.390000 52.714000 0 0 -1
3390 482 4 0.060000 30.360000 14.860000 53.174000 0 0 -1
3391 482 4 0.060000 30.600000 16.490000 52.894000 0 0 -1
3392 482 4 0.060000 32.600000 15.890000 53.674000 0 0 -1
3393 482 4 0.060000 33.120000 15.680000 51.984000 0 0 -1
3394 483 5 0.000000 30.810000 15.110000 54.904000 0 0 -1
3395 483 2 -0.120000 30.090000 15.350000 54.724000 0 0 -1
3396 483 2 -0.120000 31.550000 14.860000 55.064000 0 0 -1
3397 483 4 0.060000 29.550000 14.830000 53.894000 0 0 -1
3398 483 4 0.060000 29.440000 15.070000 55.584000 0 0 -1
3399 483 4 0.060000 31.780000 15.550000 55.904000 0 0 -1
3400 483 4 0.060000 32.340000 15.120000 54.364000 0 0 -1
3401 484 5 0.000000 29.200000 15.710000 56.424000 0 0 -1
3402 484 2 -0.120000 29.010000 16.080000 57.054000 0 0 -1
3403 484 2 -0.120000 29.370000 15.300000 55.794000 0 0 -1
3404 484 4 0.060000 28.150000 15.810000 57.594000 0 0 -1
3405 484 4 0.060000 29.820000 16.220000 57.814000 0 0 -1
3406 484 4 0.060000 30.350000 15.760000 55.454000 0 0 -1
3407 484 4 0.060000 28.790000 15.480000 54.904000 0 0 -1
3408 485 5 0.000000 27.740000 17.080000 57.954000 0 0 -1
3409 485 2 -0.120000 27.700000 17.520000 58.604000 0 0 -1
3410 485 2 -0.120000 27.720000 16.770000 57.274000 0 0 -1
3411 485 4 0.060000 26.660000 17.250000 58.904000 0 0 -1
3412 485 4 0.060000 28.590000 17.040000 59.224000 0 0 -1
3413 485 4 0.060000 27.690000 15.650000 57.404000 0 0 -1
3414 485 4 0.060000 28.710000 16.890000 56.754000 0 0 -1
3415 486 5 0.000000 26.340000 17.340000 59.814000 0 0 -1
3416 486 2 -0.120000 26.280000 17.830000 60.424000 0 0 -1
3417 486 2 -0.120000 26.430000 16.840000 59.184000 0 0 -1
3418 486 4 0.060000 25.930000 18.780000 60.134000 0 0 -1
3419 486 4 0.060000 25.380000 17.560000 61.014000 0 0 -1
3420 486 4 0.060000 26.340000 15.770000 59.424000 0 0 -1
3421 486 4 0.060000 27.420000 17.300000 58.894000 0 0 -1
3422 487 5 0.000000 27.650000 16.510000 61.884000 0 0 -1
3423 487 2 -0.120000 28.440000 16.630000 61.744000 0 0 -1
3424 487 2 -0.120000 26.890000 16.270000 0.100000 0 0 0
3425 487 4 0.060000 28.730000 16.220000 60.814000 0 0 -1
3426 487 4 0.060000 28.520000 17.660000 61.684000 0 0 -1
3427 487 4 0.060000 26.290000 16.490000 61.144000 0 0 -1
3428 487 4 0.060000 26.630000 16.980000 0.820000 0 0 0
3429 488 5 0.000000 29.020000 15.670000 1.540000 0 0 0
3430 488 2 -0.120000 29.720000 15.700000 1.350000 0 0 0
3431 488 2 -0.120000 28.340000 15.580000 1.750000 0 0 0
3432 488 4 0.060000 30.270000 15.670000 2.310000 0 0 0
3433 488 4 0.060000 29.930000 15.370000 0.430000 0 0 0
3434 488 4 0.060000 27.870000 15.970000 0.760000 0 0 0
3435 488 4 0.060000 27.910000 16.350000 2.390000 0 0 0
3436 489 5 0.000000 29.580000 14.510000 3.500000 0 0 0
3437 489 2 -0.120000 30.370000 14.620000 3.590000 0 0 0
3438 489 2 -0.120000 28.810000 14.430000 3.440000 0 0 0
3439 489 4 0.060000 30.600000 14.530000 4.680000 0 0 0
3440 489 4 0.060000 30.720000 13.780000 2.960000 0 0 0
3441 489 4 0.060000 28.580000 14.020000 2.480000 0 0 0
3442 489 4 0.060000 28.320000 15.350000 3.440000 0 0 0
3443 490 5 0.000000 29.670000 14.110000 6.080000 0 0 0
3444 490 2 -0.120000 29.400000 14.780000 6.120000 0 0 0
3445 490 2 -0.120000 29.930000 13.420000 6.050000 0 0 0
3446 490 4 0.060000 28.300000 14.780000 5.890000 0 0 0
3447 490 4 0.060000 29.420000 15.220000 7.120000 0 0 0
3448 490 4 0.060000 30.970000 13.560000 6.290000 0 0 0
3449 490 4 0.060000 30.050000 13.040000 5.010000 0 0 0
3450 491 5 0.000000 29.830000 13.670000 8.560000 0 0 0
3451 491 2 -0.120000 29.420000 14.260000 8.280000 0 0 0
3452 491 2 -0.120000 30.290000 13.080000 8.700000 0 0 0
3453 491 4 0.060000 28.430000 13.980000 7.920000 0 0 0
3454 491 4 0.060000 29.290000 14.710000 9.230000 0 0 0
3455 491 4 0.060000 29.810000 12.580000 9.510000 0 0 0
3456 491 4 0.060000 31.220000 13.380000 9.140000 0 0 0
3457 492 5 0.000000 29.000000 12.870000 11.090000 0 0 0
3458 492 2 -0.120000 28.420000 13.430000 10.990000 0 0 0
3459 492 2 -0.120000 29.630000 12.420000 11.290000 0 0 0
3460 492 4 0.060000 28.820000 13.960000 10.220000 0 0 0
3461 492 4 0.060000 27.550000 12.880000 10.780000 0 0 0
3462 492 4 0.060000 29.540000 11.850000 10.360000 0 0 0
3463 492 4 0.060000 29.420000 11.520000 11.870000 0 0 0
3464 493 5 0.000000 28.580000 14.810000 12.950000 0 0 0
3465 493 2 -0.120000 27.860000 15.120000 13.110000 0 0 0
3466 493 2 -0.120000 29.240000 14.370000 12.780000 0 0 0
3467 493 4 0.060000 27.730000 15.180000 14.170000 0 0 0
3468 493 4 0.060000 27.950000 16.200000 12.790000 0 0 0
3469 493 4 0.060000 30.060000 14.980000 13.150000 0 0 0
3470 493 4 0.060000 29.410000 14.390000 11.760000 0 0 0
3471 494 5 0.000000 28.770000 16.930000 14.310000 0 0 0
3472 494 2 -0.120000 28.750000 16.930000 13.550000 0 0 0
3473 494 2 -0.120000 28.800000 16.940000 15.080000 0 0 0
3474 494 4 0.060000 29.760000 16.370000 13.220000 0 0 0
3475 494 4 0.060000 27.860000 16.500000 13.220000 0 0 0
3476 494 4 0.060000 27.760000 17.120000 15.330000 0 0 0
3477 494 4 0.060000 29.620000 17.680000 15.480000 0 0 0
3478 495 5 0.000000 31.400000 17.400000 14.070000 0 0 0
3479 495 2 -0.120000 31.820000 18.050000 14.190000 0 0 0
3480 495 2 -0.120000 30.970000 16.770000 13.950000 0 0 0
3481 495 4 0.060000 31.940000 18.050000 15.260000 0 0 0
3482 495 4 0.060000 32.760000 17.650000 13.740000 0 0 0
3483 495 4 0.060000 31.190000 16.580000 12.950000 0 0 0
3484 495 4 0.060000 29.950000 16.980000 14.230000 0 0 0
3485 496 5 0.000000 33.300000 17.930000 12.940000 0 0 0
3486 496 2 -0.120000 33.130000 17.930000 12.170000 0 0 0
3487 496 2 -0.120000 33.450000 17.930000 13.700000 0 0 0
3488 496 4 0.060000 33.990000 17.460000 11.700000 0 0 0
3489 496 4 0.060000 32.160000 17.400000 12.010000 0 0 0
3490 496 4 0.060000 32.730000 18.460000 14.360000 0 0 0
3491 496 4 0.060000 34.430000 18.390000 13.860000 0 0 0
3492 497 5 0.000000 35.260000 18.490000 11.370000 0 0 0
3493 497 2 -0.120000 35.050000 18.340000 10.640000 0 0 0
3494 497 2 -0.120000 35.500000 18.610000 12.110000 0 0 0
3495 497 4 0.060000 35.780000 17.880000 10.050000 0 0 0
3496 497 4 0.060000 34.050000 17.900000 10.500000 0 0 0
3497 497 4 0.060000 34.640000 19.000000 12.530000 0 0 0
3498 497 4 0.060000 36.280000 19.410000 12.320000 0 0 0
3499 498 5 0.000000 37.740000 18.520000 10.720000 0 0 0
3500 498 2 -0.120000 37.120000 18.780000 11.060000 0 0 0
3501 498 2 -0.120000 38.310000 18.270000 10.320000 0 0 0
3502 498 4 0.060000 36.310000 18.160000 10.860000 0 0 0
3503 498 4 0.060000 37.240000 18.870000 12.110000 0 0 0
3504 498 4 0.060000 39.270000 18.070000 10.930000 0 0 0
3505 498 4 0.060000 38.610000 18.980000 9.600000 0 0 0
3506 499 5 0.000000 39.990000 19.040000 9.520000 0 0 0
3507 499 2 -0.120000 39.490000 19.330000 10.000000 0 0 0
3508 499 2 -0.120000 40.510000 18.750000 9.060000 0 0 0
3509 499 4 0.060000 38.540000 19.260000 9.480000 0 0 0
3510 499 4 0.060000 39.370000 18.640000 10.880000 0 0 0
3511 499 4 0.060000 41.540000 19.060000 9.330000 0 0 0
3512 499 4 0.060000 40.220000 19.330000 8.080000 0 0 0
3513 500 1 0.000000 42.490000 18.180000 10.110000 0 0 0
3514 500 2 -0.120000 41.780000 18.510000 10.390000 0 0 0
3515 500 3 -0.180000 43.130000 17.940000 9.870000 0 0 0
3516 500 4 0.060000 41.130000 18.220000 9.590000 0 0 0
3517 500 4 0.060000 41.600000 18.040000 11.350000 0 0 0
3518 500 4 0.060000 43.930000 18.690000 10.010000 0 0 0
3519 500 4 0.060000 43.060000 17.640000 8.800000 0 0 0
3520 500 4 0.060000 43.530000 17.210000 10.390000 0 0 0

Bonds

1 1 2 3
2 2 2 4
3 2 2 5
4 2 3 6
5 2 3 7
6 2 3 8
7 1 10 11
8 2 10 12
9 2 10 13
10 2 11 14
11 2 11 15
12 1 17 18
13 2 17 19
14 2 17 20
15 2 18 21
16 2 18 22
17 1 24 25
18 2 24 26
19 2 24 27
20 2 25 28
21 2 25 29
22 1 31 32
23 2 31 33
24 2 31 34
25 2 32 35
26 2 32 36
27 1 38 39
28 2 38 40
29 2 38 41
30 2 39 42
31 2 39 43
32 1 45 46
33 2 45 47
34 2 45 48
35 2 46 49
36 2 46 50
37 1 52 53
38 2 52 54
39 2 52 55
40 2 53 56
41 2 53 57
42 1 59 60
43 2 59 61
44 2 59 62
45 2 60 63
46 2 60 64
47 1 66 67
48 2 66 68
49 2 66 69
50 2 67 70
51 2 67 71
52 1 73 74
53 2 73 75
54 2 73 76
55 2 74 77
56 2 74 78
57 1 80 81
58 2 80 82
59 2 80 83
60 2 81 84
61 2 81 85
62 1 87 88
63 2 87 89
64 2 87 90
65 2 88 91
66 2 88 92
67 1 94 95
68 2 94 96
69 2 94 97
70 2 95 98
71 2 95 99
72 1 101 102
73 2 101 103
74 2 101 104
75 2 102 105
76 2 102 106
77 1 108 109
78 2 108 110
79 2 108 111
80 2 109 112
81 2 109 113
82 1 115 116
83 2 115 117
84 2 115 118
85 2 116 119
86 2 116 120
87 1 122 123
88 2 122 124
89 2 122 125
90 2 123 126
91 2 123 127
92 1 129 130
93 2 129 131
94 2 129 132
95 2 130 133
96 2 130 134
97 1 136 137
98 2 136 138
99 2 136 139
100 2 137 140
101 2 137 141
102 1 143 144
103 2 143 145
104 2 143 146
105 2 144 147
106 2 144 148
107 1 150 151
108 2 150 152
109 2 150 153
110 2 151 154
111 2 151 155
112 1 157 158
113 2 157 159
114 2 157 160
115 2 158 161
116 2 158 162
117 1 164 165
118 2 164 166
119 2 164 167
120 2 165 168
121 2 165 169
122 1 171 172
123 2 171 173
124 2 171 174
125 2 172 175
126 2 172 176
127 1 178 179
128 2 178 180
129 2 178 181
130 2 179 182
131 2 179 183
132 1 185 186
133 2 185 187
134 2 185 188
135 2 186 189
136 2 186 190
137 1 192 193
138 2 192 194
139 2 192 195
140 2 193 196
141 2 193 197
142 1 199 200
143 2 199 201
144 2 199 202
145 2 200 203
146 2 200 204
147 1 206 207
148 2 206 208
149 2 206 209
150 2 207 210
151 2 207 211
152 1 213 214
153 2 213 215
154 2 213 216
155 2 214 217
156 2 214 218
157 1 220 221
158 2 220 222
159 2 220 223
160 2 221 224
161 2 221 225
162 1 227 228
163 2 227 229
164 2 227 230
165 2 228 231
166 2 228 232
167 1 234 235
168 2 234 236
169 2 234 237
170 2 235 238
171 2 235 239
172 1 241 242
173 2 241 243
174 2 241 244
175 2 242 245
176 2 242 246
177 1 248 249
178 2 248 250
179 2 248 251
180 2 249 252
181 2 249 253
182 1 255 256
183 2 255 257
184 2 255 258
185 2 256 259
186 2 256 260
187 1 262 263
188 2 262 264
189 2 262 265
190 2 263 266
191 2 263 267
192 1 269 270
193 2 269 271
194 2 269 272
195 2 270 273
196 2 270 274
197 1 276 277
198 2 276 278
199 2 276 279
200 2 277 280
201 2 277 281
202 1 283 284
203 2 283 285
204 2 283 286
205 2 284 287
206 2 284 288
207 1 290 291
208 2 290 292
209 2 290 293
210 2 291 294
211 2 291 295
212 1 297 298
213 2 297 299
214 2 297 300
215 2 298 301
216 2 298 302
217 1 304 305
218 2 304 306
219 2 304 307
220 2 305 308
221 2 305 309
222 1 311 312
223 2 311 313
224 2 311 314
225 2 312 315
226 2 312 316
227 1 318 319
228 2 318 320
229 2 318 321
230 2 319 322
231 2 319 323
232 1 325 326
233 2 325 327
234 2 325 328
235 2 326 329
236 2 326 330
237 1 332 333
238 2 332 334
239 2 332 335
240 2 333 336
241 2 333 337
242 1 339 340
243 2 339 341
244 2 339 342
245 2 340 343
246 2 340 344
247 1 346 347
248 2 346 348
249 2 346 349
250 2 347 350
251 2 347 351
252 2 347 352
253 1 354 355
254 2 354 356
255 2 354 357
256 2 355 358
257 2 355 359
258 2 355 360
259 1 362 363
260 2 362 364
261 2 362 365
262 2 363 366
263 2 363 367
264 1 369 370
265 2 369 371
266 2 369 372
267 2 370 373
268 2 370 374
269 1 376 377
270 2 376 378
271 2 376 379
272 2 377 380
273 2 377 381
274 1 383 384
275 2 383 385
276 2 383 386
277 2 384 387
278 2 384 388
279 1 390 391
280 2 390 392
281 2 390 393
282 2 391 394
283 2 391 395
284 1 397 398
285 2 397 399
286 2 397 400
287 2 398 401
288 2 398 402
289 1 404 405
290 2 404 406
291 2 404 407
292 2 405 408
293 2 405 409
294 1 411 412
295 2 411 413
296 2 411 414
297 2 412 415
298 2 412 416
299 1 418 419
300 2 418 420
301 2 418 421
302 2 419 422
303 2 419 423
304 1 425 426
305 2 425 427
306 2 425 428
307 2 426 429
308 2 426 430
309 1 432 433
310 2 432 434
311 2 432 435
312 2 433 436
313 2 433 437
314 1 439 440
315 2 439 441
316 2 439 442
317 2 440 443
318 2 440 444
319 1 446 447
320 2 446 448
321 2 446 449
322 2 447 450
323 2 447 451
324 1 453 454
325 2 453 455
326 2 453 456
327 2 454 457
328 2 454 458
329 1 460 461
330 2 460 462
331 2 460 463
332 2 461 464
333 2 461 465
334 1 467 468
335 2 467 469
336 2 467 470
337 2 468 471
338 2 468 472
339 1 474 475
340 2 474 476
341 2 474 477
342 2 475 478
343 2 475 479
344 1 481 482
345 2 481 483
346 2 481 484
347 2 482 485
348 2 482 486
349 1 488 489
350 2 488 490
351 2 488 491
352 2 489 492
353 2 489 493
354 1 495 496
355 2 495 497
356 2 495 498
357 2 496 499
358 2 496 500
359 1 502 503
360 2 502 504
361 2 502 505
362 2 503 506
363 2 503 507
364 1 509 510
365 2 509 511
366 2 509 512
367 2 510 513
368 2 510 514
369 1 516 517
370 2 516 518
371 2 516 519
372 2 517 520
373 2 517 521
374 1 523 524
375 2 523 525
376 2 523 526
377 2 524 527
378 2 524 528
379 1 530 531
380 2 530 532
381 2 530 533
382 2 531 534
383 2 531 535
384 1 537 538
385 2 537 539
386 2 537 540
387 2 538 541
388 2 538 542
389 1 544 545
390 2 544 546
391 2 544 547
392 2 545 548
393 2 545 549
394 1 551 552
395 2 551 553
396 2 551 554
397 2 552 555
398 2 552 556
399 1 558 559
400 2 558 560
401 2 558 561
402 2 559 562
403 2 559 563
404 1 565 566
405 2 565 567
406 2 565 568
407 2 566 569
408 2 566 570
409 1 572 573
410 2 572 574
411 2 572 575
412 2 573 576
413 2 573 577
414 1 579 580
415 2 579 581
416 2 579 582
417 2 580 583
418 2 580 584
419 1 586 587
420 2 586 588
421 2 586 589
422 2 587 590
423 2 587 591
424 1 593 594
425 2 593 595
426 2 593 596
427 2 594 597
428 2 594 598
429 1 600 601
430 2 600 602
431 2 600 603
432 2 601 604
433 2 601 605
434 1 607 608
435 2 607 609
436 2 607 610
437 2 608 611
438 2 608 612
439 1 614 615
440 2 614 616
441 2 614 617
442 2 615 618
443 2 615 619
444 1 621 622
445 2 621 623
446 2 621 624
447 2 622 625
448 2 622 626
449 1 628 629
450 2 628 630
451 2 628 631
452 2 629 632
453 2 629 633
454 1 635 636
455 2 635 637
456 2 635 638
457 2 636 639
458 2 636 640
459 1 642 643
460 2 642 644
461 2 642 645
462 2 643 646
463 2 643 647
464 1 649 650
465 2 649 651
466 2 649 652
467 2 650 653
468 2 650 654
469 1 656 657
470 2 656 658
471 2 656 659
472 2 657 660
473 2 657 661
474 1 663 664
475 2 663 665
476 2 663 666
477 2 664 667
478 2 664 668
479 1 670 671
480 2 670 672
481 2 670 673
482 2 671 674
483 2 671 675
484 1 677 678
485 2 677 679
486 2 677 680
487 2 678 681
488 2 678 682
489 1 684 685
490 2 684 686
491 2 684 687
492 2 685 688
493 2 685 689
494 1 691 692
495 2 691 693
496 2 691 694
497 2 692 695
498 2 692 696
499 1 698 699
500 2 698 700
501 2 698 701
502 2 699 702
503 2 699 703
504 2 699 704
505 1 706 707
506 2 706 708
507 2 706 709
508 2 707 710
509 2 707 711
510 2 707 712
511 1 714 715
512 2 714 716
513 2 714 717
514 2 715 718
515 2 715 719
516 1 721 722
517 2 721 723
518 2 721 724
519 2 722 725
520 2 722 726
521 1 728 729
522 2 728 730
523 2 728 731
524 2 729 732
525 2 729 733
526 1 735 736
527 2 735 737
528 2 735 738
529 2 736 739
530 2 736 740
531 1 742 743
532 2 742 744
533 2 742 745
534 2 743 746
535 2 743 747
536 1 749 750
537 2 749 751
538 2 749 752
539 2 750 753
540 2 750 754
541 1 756 757
542 2 756 758
543 2 756 759
544 2 757 760
545 2 757 761
546 1 763 764
547 2 763 765
548 2 763 766
549 2 764 767
550 2 764 768
551 1 770 771
552 2 770 772
553 2 770 773
554 2 771 774
555 2 771 775
556 1 777 778
557 2 777 779
558 2 777 780
559 2 778 781
560 2 778 782
561 1 784 785
562 2 784 786
563 2 784 787
564 2 785 788
565 2 785 789
566 1 791 792
567 2 791 793
568 2 791 794
569 2 792 795
570 2 792 796
571 1 798 799
572 2 798 800
573 2 798 801
574 2 799 802
575 2 799 803
576 1 805 806
577 2 805 807
578 2 805 808
579 2 806 809
580 2 806 810
581 1 812 813
582 2 812 814
583 2 812 815
584 2 813 816
585 2 813 817
586 1 819 820
587 2 819 821
588 2 819 822
589 2 820 823
590 2 820 824
591 1 826 827
592 2 826 828
593 2 826 829
594 2 827 830
595 2 827 831
596 1 833 834
597 2 833 835
598 2 833 836
599 2 834 837
600 2 834 838
601 1 840 841
602 2 840 842
603 2 840 843
604 2 841 844
605 2 841 845
606 1 847 848
607 2 847 849
608 2 847 850
609 2 848 851
610 2 848 852
611 1 854 855
612 2 854 856
613 2 854 857
614 2 855 858
615 2 855 859
616 1 861 862
617 2 861 863
618 2 861 864
619 2 862 865
620 2 862 866
621 1 868 869
622 2 868 870
623 2 868 871
624 2 869 872
625 2 869 873
626 1 875 876
627 2 875 877
628 2 875 878
629 2 876 879
630 2 876 880
631 1 882 883
632 2 882 884
633 2 882 885
634 2 883 886
635 2 883 887
636 1 889 890
637 2 889 891
638 2 889 892
639 2 890 893
640 2 890 894
641 1 896 897
642 2 896 898
643 2 896 899
644 2 897 900
645 2 897 901
646 1 903 904
647 2 903 905
648 2 903 906
649 2 904 907
650 2 904 908
651 1 910 911
652 2 910 912
653 2 910 913
654 2 911 914
655 2 911 915
656 1 917 918
657 2 917 919
658 2 917 920
659 2 918 921
660 2 918 922
661 1 924 925
662 2 924 926
663 2 924 927
664 2 925 928
665 2 925 929
666 1 931 932
667 2 931 933
668 2 931 934
669 2 932 935
670 2 932 936
671 1 938 939
672 2 938 940
673 2 938 941
674 2 939 942
675 2 939 943
676 1 945 946
677 2 945 947
678 2 945 948
679 2 946 949
680 2 946 950
681 1 952 953
682 2 952 954
683 2 952 955
684 2 953 956
685 2 953 957
686 1 959 960
687 2 959 961
688 2 959 962
689 2 960 963
690 2 960 964
691 1 966 967
692 2 966 968
693 2 966 969
694 2 967 970
695 2 967 971
696 1 973 974
697 2 973 975
698 2 973 976
699 2 974 977
700 2 974 978
701 1 980 981
702 2 980 982
703 2 980 983
704 2 981 984
705 2 981 985
706 1 987 988
707 2 987 989
708 2 987 990
709 2 988 991
710 2 988 992
711 1 994 995
712 2 994 996
713 2 994 997
714 2 995 998
715 2 995 999
716 1 1001 1002
717 2 1001 1003
718 2 1001 1004
719 2 1002 1005
720 2 1002 1006
721 1 1008 1009
722 2 1008 1010
723 2 1008 1011
724 2 1009 1012
725 2 1009 1013
726 1 1015 1016
727 2 1015 1017
728 2 1015 1018
729 2 1016 1019
730 2 1016 1020
731 1 1022 1023
732 2 1022 1024
733 2 1022 1025
734 2 1023 1026
735 2 1023 1027
736 1 1029 1030
737 2 1029 1031
738 2 1029 1032
739 2 1030 1033
740 2 1030 1034
741 1 1036 1037
742 2 1036 1038
743 2 1036 1039
744 2 1037 1040
745 2 1037 1041
746 1 1043 1044
747 2 1043 1045
748 2 1043 1046
749 2 1044 1047
750 2 1044 1048
751 1 1050 1051
752 2 1050 1052
753 2 1050 1053
754 2 1051 1054
755 2 1051 1055
756 2 1051 1056
757 1 1058 1059
758 2 1058 1060
759 2 1058 1061
760 2 1059 1062
761 2 1059 1063
762 2 1059 1064
763 1 1066 1067
764 2 1066 1068
765 2 1066 1069
766 2 1067 1070
767 2 1067 1071
768 1 1073 1074
769 2 1073 1075
770 2 1073 1076
771 2 1074 1077
772 2 1074 1078
773 1 1080 1081
774 2 1080 1082
775 2 1080 1083
776 2 1081 1084
777 2 1081 1085
778 1 1087 1088
779 2 1087 1089
780 2 1087 1090
781 2 1088 1091
782 2 1088 1092
783 1 1094 1095
784 2 1094 1096
785 2 1094 1097
786 2 1095 1098
787 2 1095 1099
788 1 1101 1102
789 2 1101 1103
790 2 1101 1104
791 2 1102 1105
792 2 1102 1106
793 1 1108 1109
794 2 1108 1110
795 2 1108 1111
796 2 1109 1112
797 2 1109 1113
798 1 1115 1116
799 2 1115 1117
800 2 1115 1118
801 2 1116 1119
802 2 1116 1120
803 1 1122 1123
804 2 1122 1124
805 2 1122 1125
806 2 1123 1126
807 2 1123 1127
808 1 1129 1130
809 2 1129 1131
810 2 1129 1132
811 2 1130 1133
812 2 1130 1134
813 1 1136 1137
814 2 1136 1138
815 2 1136 1139
816 2 1137 1140
817 2 1137 1141
818 1 1143 1144
819 2 1143 1145
820 2 1143 1146
821 2 1144 1147
822 2 1144 1148
823 1 1150 1151
824 2 1150 1152
825 2 1150 1153
826 2 1151 1154
827 2 1151 1155
828 1 1157 1158
829 2 1157 1159
830 2 1157 1160
831 2 1158 1161
832 2 1158 1162
833 1 1164 1165
834 2 1164 1166
835 2 1164 1167
836 2 1165 1168
837 2 1165 1169
838 1 1171 1172
839 2 1171 1173
840 2 1171 1174
841 2 1172 1175
842 2 1172 1176
843 1 1178 1179
844 2 1178 1180
845 2 1178 1181
846 2 1179 1182
847 2 1179 1183
848 1 1185 1186
849 2 1185 1187
850 2 1185 1188
851 2 1186 1189
852 2 1186 1190
853 1 1192 1193
854 2 1192 1194
855 2 1192 1195
856 2 1193 1196
857 2 1193 1197
858 1 1199 1200
859 2 1199 1201
860 2 1199 1202
861 2 1200 1203
862 2 1200 1204
863 1 1206 1207
864 2 1206 1208
865 2 1206 1209
866 2 1207 1210
867 2 1207 1211
868 1 1213 1214
869 2 1213 1215
870 2 1213 1216
871 2 1214 1217
872 2 1214 1218
873 1 1220 1221
874 2 1220 1222
875 2 1220 1223
876 2 1221 1224
877 2 1221 1225
878 1 1227 1228
879 2 1227 1229
880 2 1227 1230
881 2 1228 1231
882 2 1228 1232
883 1 1234 1235
884 2 1234 1236
885 2 1234 1237
886 2 1235 1238
887 2 1235 1239
888 1 1241 1242
889 2 1241 1243
890 2 1241 1244
891 2 1242 1245
892 2 1242 1246
893 1 1248 1249
894 2 1248 1250
895 2 1248 1251
896 2 1249 1252
897 2 1249 1253
898 1 1255 1256
899 2 1255 1257
900 2 1255 1258
901 2 1256 1259
902 2 1256 1260
903 1 1262 1263
904 2 1262 1264
905 2 1262 1265
906 2 1263 1266
907 2 1263 1267
908 1 1269 1270
909 2 1269 1271
910 2 1269 1272
911 2 1270 1273
912 2 1270 1274
913 1 1276 1277
914 2 1276 1278
915 2 1276 1279
916 2 1277 1280
917 2 1277 1281
918 1 1283 1284
919 2 1283 1285
920 2 1283 1286
921 2 1284 1287
922 2 1284 1288
923 1 1290 1291
924 2 1290 1292
925 2 1290 1293
926 2 1291 1294
927 2 1291 1295
928 1 1297 1298
929 2 1297 1299
930 2 1297 1300
931 2 1298 1301
932 2 1298 1302
933 1 1304 1305
934 2 1304 1306
935 2 1304 1307
936 2 1305 1308
937 2 1305 1309
938 1 1311 1312
939 2 1311 1313
940 2 1311 1314
941 2 1312 1315
942 2 1312 1316
943 1 1318 1319
944 2 1318 1320
945 2 1318 1321
946 2 1319 1322
947 2 1319 1323
948 1 1325 1326
949 2 1325 1327
950 2 1325 1328
951 2 1326 1329
952 2 1326 1330
953 1 1332 1333
954 2 1332 1334
955 2 1332 1335
956 2 1333 1336
957 2 1333 1337
958 1 1339 1340
959 2 1339 1341
960 2 1339 1342
961 2 1340 1343
962 2 1340 1344
963 1 1346 1347
964 2 1346 1348
965 2 1346 1349
966 2 1347 1350
967 2 1347 1351
968 1 1353 1354
969 2 1353 1355
970 2 1353 1356
971 2 1354 1357
972 2 1354 1358
973 1 1360 1361
974 2 1360 1362
975 2 1360 1363
976 2 1361 1364
977 2 1361 1365
978 1 1367 1368
979 2 1367 1369
980 2 1367 1370
981 2 1368 1371
982 2 1368 1372
983 1 1374 1375
984 2 1374 1376
985 2 1374 1377
986 2 1375 1378
987 2 1375 1379
988 1 1381 1382
989 2 1381 1383
990 2 1381 1384
991 2 1382 1385
992 2 1382 1386
993 1 1388 1389
994 2 1388 1390
995 2 1388 1391
996 2 1389 1392
997 2 1389 1393
998 1 1395 1396
999 2 1395 1397
1000 2 1395 1398
1001 2 1396 1399
1002 2 1396 1400
1003 1 1402 1403
1004 2 1402 1404
1005 2 1402 1405
1006 2 1403 1406
1007 2 1403 1407
1008 2 1403 1408
1009 1 1410 1411
1010 2 1410 1412
1011 2 1410 1413
1012 2 1411 1414
1013 2 1411 1415
1014 2 1411 1416
1015 1 1418 1419
1016 2 1418 1420
1017 2 1418 1421
1018 2 1419 1422
1019 2 1419 1423
1020 1 1425 1426
1021 2 1425 1427
1022 2 1425 1428
1023 2 1426 1429
1024 2 1426 1430
1025 1 1432 1433
1026 2 1432 1434
1027 2 1432 1435
1028 2 1433 1436
1029 2 1433 1437
1030 1 1439 1440
1031 2 1439 1441
1032 2 1439 1442
1033 2 1440 1443
1034 2 1440 1444
1035 1 1446 1447
1036 2 1446 1448
1037 2 1446 1449
1038 2 1447 1450
1039 2 1447 1451
1040 1 1453 1454
1041 2 1453 1455
1042 2 1453 1456
1043 2 1454 1457
1044 2 1454 1458
1045 1 1460 1461
1046 2 1460 1462
1047 2 1460 1463
1048 2 1461 1464
1049 2 1461 1465
1050 1 1467 1468
1051 2 1467 1469
1052 2 1467 1470
1053 2 1468 1471
1054 2 1468 1472
1055 1 1474 1475
1056 2 1474 1476
1057 2 1474 1477
1058 2 1475 1478
1059 2 1475 1479
1060 1 1481 1482
1061 2 1481 1483
1062 2 1481 1484
1063 2 1482 1485
1064 2 1482 1486
1065 1 1488 1489
1066 2 1488 1490
1067 2 1488 1491
1068 2 1489 1492
1069 2 1489 1493
1070 1 1495 1496
1071 2 1495 1497
1072 2 1495 1498
1073 2 1496 1499
1074 2 1496 1500
1075 1 1502 1503
1076 2 1502 1504
1077 2 1502 1505
1078 2 1503 1506
1079 2 1503 1507
1080 1 1509 1510
1081 2 1509 1511
1082 2 1509 1512
1083 2 1510 1513
1084 2 1510 1514
1085 1 1516 1517
1086 2 1516 1518
1087 2 1516 1519
1088 2 1517 1520
1089 2 1517 1521
1090 1 1523 1524
1091 2 1523 1525
1092 2 1523 1526
1093 2 1524 1527
1094 2 1524 1528
1095 1 1530 1531
1096 2 1530 1532
1097 2 1530 1533
1098 2 1531 1534
1099 2 1531 1535
1100 1 1537 1538
1101 2 1537 1539
1102 2 1537 1540
1103 2 1538 1541
1104 2 1538 1542
1105 1 1544 1545
1106 2 1544 1546
1107 2 1544 1547
1108 2 1545 1548
1109 2 1545 1549
1110 1 1551 1552
1111 2 1551 1553
1112 2 1551 1554
1113 2 1552 1555
1114 2 1552 1556
1115 1 1558 1559
1116 2 1558 1560
1117 2 1558 1561
1118 2 1559 1562
1119 2 1559 1563
1120 1 1565 1566
1121 2 1565 1567
1122 2 1565 1568
1123 2 1566 1569
1124 2 1566 1570
1125 1 1572 1573
1126 2 1572 1574
1127 2 1572 1575
1128 2 1573 1576
1129 2 1573 1577
1130 1 1579 1580
1131 2 1579 1581
1132 2 1579 1582
1133 2 1580 1583
1134 2 1580 1584
1135 1 1586 1587
1136 2 1586 1588
1137 2 1586 1589
1138 2 1587 1590
1139 2 1587 1591
1140 1 1593 1594
1141 2 1593 1595
1142 2 1593 1596
1143 2 1594 1597
1144 2 1594 1598
1145 1 1600 1601
1146 2 1600 1602
1147 2 1600 1603
1148 2 1601 1604
1149 2 1601 1605
1150 1 1607 1608
1151 2 1607 1609
1152 2 1607 1610
1153 2 1608 1611
1154 2 1608 1612
1155 1 1614 1615
1156 2 1614 1616
1157 2 1614 1617
1158 2 1615 1618
1159 2 1615 1619
1160 1 1621 1622
1161 2 1621 1623
1162 2 1621 1624
1163 2 1622 1625
1164 2 1622 1626
1165 1 1628 1629
1166 2 1628 1630
1167 2 1628 1631
1168 2 1629 1632
1169 2 1629 1633
1170 1 1635 1636
1171 2 1635 1637
1172 2 1635 1638
1173 2 1636 1639
1174 2 1636 1640
1175 1 1642 1643
1176 2 1642 1644
1177 2 1642 1645
1178 2 1643 1646
1179 2 1643 1647
1180 1 1649 1650
1181 2 1649 1651
1182 2 1649 1652
1183 2 1650 1653
1184 2 1650 1654
1185 1 1656 1657
1186 2 1656 1658
1187 2 1656 1659
1188 2 1657 1660
1189 2 1657 1661
1190 1 1663 1664
1191 2 1663 1665
1192 2 1663 1666
1193 2 1664 1667
1194 2 1664 1668
1195 1 1670 1671
1196 2 1670 1672
1197 2 1670 1673
1198 2 1671 1674
1199 2 1671 1675
1200 1 1677 1678
1201 2 1677 1679
1202 2 1677 1680
1203 2 1678 1681
1204 2 1678 1682
1205 1 1684 1685
1206 2 1684 1686
1207 2 1684 1687
1208 2 1685 1688
1209 2 1685 1689
1210 1 1691 1692
1211 2 1691 1693
1212 2 1691 1694
1213 2 1692 1695
1214 2 1692 1696
1215 1 1698 1699
1216 2 1698 1700
1217 2 1698 1701
1218 2 1699 1702
1219 2 1699 1703
1220 1 1705 1706
1221 2 1705 1707
1222 2 1705 1708
1223 2 1706 1709
1224 2 1706 1710
1225 1 1712 1713
1226 2 1712 1714
1227 2 1712 1715
1228 2 1713 1716
1229 2 1713 1717
1230 1 1719 1720
1231 2 1719 1721
1232 2 1719 1722
1233 2 1720 1723
1234 2 1720 1724
1235 1 1726 1727
1236 2 1726 1728
1237 2 1726 1729
1238 2 1727 1730
1239 2 1727 1731
1240 1 1733 1734
1241 2 1733 1735
1242 2 1733 1736
1243 2 1734 1737
1244 2 1734 1738
1245 1 1740 1741
1246 2 1740 1742
1247 2 1740 1743
1248 2 1741 1744
1249 2 1741 1745
1250 1 1747 1748
1251 2 1747 1749
1252 2 1747 1750
1253 2 1748 1751
1254 2 1748 1752
1255 1 1754 1755
1256 2 1754 1756
1257 2 1754 1757
1258 2 1755 1758
1259 2 1755 1759
1260 2 1755 1760
1261 1 1762 1763
1262 2 1762 1764
1263 2 1762 1765
1264 2 1763 1766
1265 2 1763 1767
1266 2 1763 1768
1267 1 1770 1771
1268 2 1770 1772
1269 2 1770 1773
1270 2 1771 1774
1271 2 1771 1775
1272 1 1777 1778
1273 2 1777 1779
1274 2 1777 1780
1275 2 1778 1781
1276 2 1778 1782
1277 1 1784 1785
1278 2 1784 1786
1279 2 1784 1787
1280 2 1785 1788
1281 2 1785 1789
1282 1 1791 1792
1283 2 1791 1793
1284 2 1791 1794
1285 2 1792 1795
1286 2 1792 1796
1287 1 1798 1799
1288 2 1798 1800
1289 2 1798 1801
1290 2 1799 1802
1291 2 1799 1803
1292 1 1805 1806
1293 2 1805 1807
1294 2 1805 1808
1295 2 1806 1809
1296 2 1806 1810
1297 1 1812 1813
1298 2 1812 1814
1299 2 1812 1815
1300 2 1813 1816
1301 2 1813 1817
1302 1 1819 1820
1303 2 1819 1821
1304 2 1819 1822
1305 2 1820 1823
1306 2 1820 1824
1307 1 1826 1827
1308 2 1826 1828
1309 2 1826 1829
1310 2 1827 1830
1311 2 1827 1831
1312 1 1833 1834
1313 2 1833 1835
1314 2 1833 1836
1315 2 1834 1837
1316 2 1834 1838
1317 1 1840 1841
1318 2 1840 1842
1319 2 1840 1843
1320 2 1841 1844
1321 2 1841 1845
1322 1 1847 1848
1323 2 1847 1849
1324 2 1847 1850
1325 2 1848 1851
1326 2 1848 1852
1327 1 1854 1855
1328 2 1854 1856
1329 2 1854 1857
1330 2 1855 1858
1331 2 1855 1859
1332 1 1861 1862
1333 2 1861 1863
1334 2 1861 1864
1335 2 1862 1865
1336 2 1862 1866
1337 1 1868 1869
1338 2 1868 1870
1339 2 1868 1871
1340 2 1869 1872
1341 2 1869 1873
1342 1 1875 1876
1343 2 1875 1877
1344 2 1875 1878
1345 2 1876 1879
1346 2 1876 1880
1347 1 1882 1883
1348 2 1882 1884
1349 2 1882 1885
1350 2 1883 1886
1351 2 1883 1887
1352 1 1889 1890
1353 2 1889 1891
1354 2 1889 1892
1355 2 1890 1893
1356 2 1890 1894
1357 1 1896 1897
1358 2 1896 1898
1359 2 1896 1899
1360 2 1897 1900
1361 2 1897 1901
1362 1 1903 1904
1363 2 1903 1905
1364 2 1903 1906
1365 2 1904 1907
1366 2 1904 1908
1367 1 1910 1911
1368 2 1910 1912
1369 2 1910 1913
1370 2 1911 1914
1371 2 1911 1915
1372 1 1917 1918
1373 2 1917 1919
1374 2 1917 1920
1375 2 1918 1921
1376 2 1918 1922
1377 1 1924 1925
1378 2 1924 1926
1379 2 1924 1927
1380 2 1925 1928
1381 2 1925 1929
1382 1 1931 1932
1383 2 1931 1933
1384 2 1931 1934
1385 2 1932 1935
1386 2 1932 1936
1387 1 1938 1939
1388 2 1938 1940
1389 2 1938 1941
1390 2 1939 1942
1391 2 1939 1943
1392 1 1945 1946
1393 2 1945 1947
1394 2 1945 1948
1395 2 1946 1949
1396 2 1946 1950
1397 1 1952 1953
1398 2 1952 1954
1399 2 1952 1955
1400 2 1953 1956
1401 2 1953 1957
1402 1 1959 1960
1403 2 1959 1961
1404 2 1959 1962
1405 2 1960 1963
1406 2 1960 1964
1407 1 1966 1967
1408 2 1966 1968
1409 2 1966 1969
1410 2 1967 1970
1411 2 1967 1971
1412 1 1973 1974
1413 2 1973 1975
1414 2 1973 1976
1415 2 1974 1977
1416 2 1974 1978
1417 1 1980 1981
1418 2 1980 1982
1419 2 1980 1983
1420 2 1981 1984
1421 2 1981 1985
1422 1 1987 1988
1423 2 1987 1989
1424 2 1987 1990
1425 2 1988 1991
1426 2 1988 1992
1427 1 1994 1995
1428 2 1994 1996
1429 2 1994 1997
1430 2 1995 1998
1431 2 1995 1999
1432 1 2001 2002
1433 2 2001 2003
1434 2 2001 2004
1435 2 2002 2005
1436 2 2002 2006
1437 1 2008 2009
1438 2 2008 2010
1439 2 2008 2011
1440 2 2009 2012
1441 2 2009 2013
1442 1 2015 2016
1443 2 2015 2017
1444 2 2015 2018
1445 2 2016 2019
1446 2 2016 2020
1447 1 2022 2023
1448 2 2022 2024
1449 2 2022 2025
1450 2 2023 2026
1451 2 2023 2027
1452 1 2029 2030
1453 2 2029 2031
1454 2 2029 2032
1455 2 2030 2033
1456 2 2030 2034
1457 1 2036 2037
1458 2 2036 2038
1459 2 2036 2039
1460 2 2037 2040
1461 2 2037 2041
1462 1 2043 2044
1463 2 2043 2045
1464 2 2043 2046
1465 2 2044 2047
1466 2 2044 2048
1467 1 2050 2051
1468 2 2050 2052
1469 2 2050 2053
1470 2 2051 2054
1471 2 2051 2055
1472 1 2057 2058
1473 2 2057 2059
1474 2 2057 2060
1475 2 2058 2061
1476 2 2058 2062
1477 1 2064 2065
1478 2 2064 2066
1479 2 2064 2067
1480 2 2065 2068
1481 2 2065 2069
1482 1 2071 2072
1483 2 2071 2073
1484 2 2071 2074
1485 2 2072 2075
1486 2 2072 2076
1487 1 2078 2079
1488 2 2078 2080
1489 2 2078 2081
1490 2 2079 2082
1491 2 2079 2083
1492 1 2085 2086
1493 2 2085 2087
1494 2 2085 2088
1495 2 2086 2089
1496 2 2086 2090
1497 1 2092 2093
1498 2 2092 2094
1499 2 2092 2095
1500 2 2093 2096
1501 2 2093 2097
1502 1 2099 2100
1503 2 2099 2101
1504 2 2099 2102
1505 2 2100 2103
1506 2 2100 2104
1507 1 2106 2107
1508 2 2106 2108
1509 2 2106 2109
1510 2 2107 2110
1511 2 2107 2111
1512 2 2107 2112
1513 1 2114 2115
1514 2 2114 2116
1515 2 2114 2117
1516 2 2115 2118
1517 2 2115 2119
1518 2 2115 2120
1519 1 2122 2123
1520 2 2122 2124
1521 2 2122 2125
1522 2 2123 2126
1523 2 2123 2127
1524 1 2129 2130
1525 2 2129 2131
1526 2 2129 2132
1527 2 2130 2133
1528 2 2130 2134
1529 1 2136 2137
1530 2 2136 2138
1531 2 2136 2139
1532 2 2137 2140
1533 2 2137 2141
1534 1 2143 2144
1535 2 2143 2145
1536 2 2143 2146
1537 2 2144 2147
1538 2 2144 2148
1539 1 2150 2151
1540 2 2150 2152
1541 2 2150 2153
1542 2 2151 2154
1543 2 2151 2155
1544 1 2157 2158
1545 2 2157 2159
1546 2 2157 2160
1547 2 2158 2161
1548 2 2158 2162
1549 1 2164 2165
1550 2 2164 2166
1551 2 2164 2167
1552 2 2165 2168
1553 2 2165 2169
1554 1 2171 2172
1555 2 2171 2173
1556 2 2171 2174
1557 2 2172 2175
1558 2 2172 2176
1559 1 2178 2179
1560 2 2178 2180
1561 2 2178 2181
1562 2 2179 2182
1563 2 2179 2183
1564 1 2185 2186
1565 2 2185 2187
1566 2 2185 2188
1567 2 2186 2189
1568 2 2186 2190
1569 1 2192 2193
1570 2 2192 2194
1571 2 2192 2195
1572 2 2193 2196
1573 2 2193 2197
1574 1 2199 2200
1575 2 2199 2201
1576 2 2199 2202
1577 2 2200 2203
1578 2 2200 2204
1579 1 2206 2207
1580 2 2206 2208
1581 2 2206 2209
1582 2 2207 2210
1583 2 2207 2211
1584 1 2213 2214
1585 2 2213 2215
1586 2 2213 2216
1587 2 2214 2217
1588 2 2214 2218
1589 1 2220 2221
1590 2 2220 2222
1591 2 2220 2223
1592 2 2221 2224
1593 2 2221 2225
1594 1 2227 2228
1595 2 2227 2229
1596 2 2227 2230
1597 2 2228 2231
1598 2 2228 2232
1599 1 2234 2235
1600 2 2234 2236
1601 2 2234 2237
1602 2 2235 2238
1603 2 2235 2239
1604 1 2241 2242
1605 2 2241 2243
1606 2 2241 2244
1607 2 2242 2245
1608 2 2242 2246
1609 1 2248 2249
1610 2 2248 2250
1611 2 2248 2251
1612 2 2249 2252
1613 2 2249 2253
1614 1 2255 2256
1615 2 2255 2257
1616 2 2255 2258
1617 2 2256 2259
1618 2 2256 2260
1619 1 2262 2263
1620 2 2262 2264
1621 2 2262 2265
1622 2 2263 2266
1623 2 2263 2267
1624 1 2269 2270
1625 2 2269 2271
1626 2 2269 2272
1627 2 2270 2273
1628 2 2270 2274
1629 1 2276 2277
1630 2 2276 2278
1631 2 2276 2279
1632 2 2277 2280
1633 2 2277 2281
1634 1 2283 2284
1635 2 2283 2285
1636 2 2283 2286
1637 2 2284 2287
1638 2 2284 2288
1639 1 2290 2291
1640 2 2290 2292
1641 2 2290 2293
1642 2 2291 2294
1643 2 2291 2295
1644 1 2297 2298
1645 2 2297 2299
1646 2 2297 2300
1647 2 2298 2301
1648 2 2298 2302
1649 1 2304 2305
1650 2 2304 2306
1651 2 2304 2307
1652 2 2305 2308
1653 2 2305 2309
1654 1 2311 2312
1655 2 2311 2313
1656 2 2311 2314
1657 2 2312 2315
1658 2 2312 2316
1659 1 2318 2319
1660 2 2318 2320
1661 2 2318 2321
1662 2 2319 2322
1663 2 2319 2323
1664 1 2325 2326
1665 2 2325 2327
1666 2 2325 2328
1667 2 2326 2329
1668 2 2326 2330
1669 1 2332 2333
1670 2 2332 2334
1671 2 2332 2335
1672 2 2333 2336
1673 2 2333 2337
1674 1 2339 2340
1675 2 2339 2341
1676 2 2339 2342
1677 2 2340 2343
1678 2 2340 2344
1679 1 2346 2347
1680 2 2346 2348
1681 2 2346 2349
1682 2 2347 2350
1683 2 2347 2351
1684 1 2353 2354
1685 2 2353 2355
1686 2 2353 2356
1687 2 2354 2357
1688 2 2354 2358
1689 1 2360 2361
1690 2 2360 2362
1691 2 2360 2363
1692 2 2361 2364
1693 2 2361 2365
1694 1 2367 2368
1695 2 2367 2369
1696 2 2367 2370
1697 2 2368 2371
1698 2 2368 2372
1699 1 2374 2375
1700 2 2374 2376
1701 2 2374 2377
1702 2 2375 2378
1703 2 2375 2379
1704 1 2381 2382
1705 2 2381 2383
1706 2 2381 2384
1707 2 2382 2385
1708 2 2382 2386
1709 1 2388 2389
1710 2 2388 2390
1711 2 2388 2391
1712 2 2389 2392
1713 2 2389 2393
1714 1 2395 2396
1715 2 2395 2397
1716 2 2395 2398
1717 2 2396 2399
1718 2 2396 2400
1719 1 2402 2403
1720 2 2402 2404
1721 2 2402 2405
1722 2 2403 2406
1723 2 2403 2407
1724 1 2409 2410
1725 2 2409 2411
1726 2 2409 2412
1727 2 2410 2413
1728 2 2410 2414
1729 1 2416 2417
1730 2 2416 2418
1731 2 2416 2419
1732 2 2417 2420
1733 2 2417 2421
1734 1 2423 2424
1735 2 2423 2425
1736 2 2423 2426
1737 2 2424 2427
1738 2 2424 2428
1739 1 2430 2431
1740 2 2430 2432
1741 2 2430 2433
1742 2 2431 2434
1743 2 2431 2435
1744 1 2437 2438
1745 2 2437 2439
1746 2 2437 2440
1747 2 2438 2441
1748 2 2438 2442
1749 1 2444 2445
1750 2 2444 2446
1751 2 2444 2447
1752 2 2445 2448
1753 2 2445 2449
1754 1 2451 2452
1755 2 2451 2453
1756 2 2451 2454
1757 2 2452 2455
1758 2 2452 2456
1759 1 2458 2459
1760 2 2458 2460
1761 2 2458 2461
1762 2 2459 2462
1763 2 2459 2463
1764 2 2459 2464
1765 1 2466 2467
1766 2 2466 2468
1767 2 2466 2469
1768 2 2467 2470
1769 2 2467 2471
1770 2 2467 2472
1771 1 2474 2475
1772 2 2474 2476
1773 2 2474 2477
1774 2 2475 2478
1775 2 2475 2479
1776 1 2481 2482
1777 2 2481 2483
1778 2 2481 2484
1779 2 2482 2485
1780 2 2482 2486
1781 1 2488 2489
1782 2 2488 2490
1783 2 2488 2491
1784 2 2489 2492
1785 2 2489 2493
1786 1 2495 2496
1787 2 2495 2497
1788 2 2495 2498
1789 2 2496 2499
1790 2 2496 2500
1791 1 2502 2503
1792 2 2502 2504
1793 2 2502 2505
1794 2 2503 2506
1795 2 2503 2507
1796 1 2509 2510
1797 2 2509 2511
1798 2 2509 2512
1799 2 2510 2513
1800 2 2510 2514
1801 1 2516 2517
1802 2 2516 2518
1803 2 2516 2519
1804 2 2517 2520
1805 2 2517 2521
1806 1 2523 2524
1807 2 2523 2525
1808 2 2523 2526
1809 2 2524 2527
1810 2 2524 2528
1811 1 2530 2531
1812 2 2530 2532
1813 2 2530 2533
1814 2 2531 2534
1815 2 2531 2535
1816 1 2537 2538
1817 2 2537 2539
1818 2 2537 2540
1819 2 2538 2541
1820 2 2538 2542
1821 1 2544 2545
1822 2 2544 2546
1823 2 2544 2547
1824 2 2545 2548
1825 2 2545 2549
1826 1 2551 2552
1827 2 2551 2553
1828 2 2551 2554
1829 2 2552 2555
1830 2 2552 2556
1831 1 2558 2559
1832 2 2558 2560
1833 2 2558 2561
1834 2 2559 2562
1835 2 2559 2563
1836 1 2565 2566
1837 2 2565 2567
1838 2 2565 2568
1839 2 2566 2569
1840 2 2566 2570
1841 1 2572 2573
1842 2 2572 2574
1843 2 2572 2575
1844 2 2573 2576
1845 2 2573 2577
1846 1 2579 2580
1847 2 2579 2581
1848 2 2579 2582
1849 2 2580 2583
1850 2 2580 2584
1851 1 2586 2587
1852 2 2586 2588
1853 2 2586 2589
1854 2 2587 2590
1855 2 2587 2591
1856 1 2593 2594
1857 2 2593 2595
1858 2 2593 2596
1859 2 2594 2597
1860 2 2594 2598
1861 1 2600 2601
1862 2 2600 2602
1863 2 2600 2603
1864 2 2601 2604
1865 2 2601 2605
1866 1 2607 2608
1867 2 2607 2609
1868 2 2607 2610
1869 2 2608 2611
1870 2 2608 2612
1871 1 2614 2615
1872 2 2614 2616
1873 2 2614 2617
1874 2 2615 2618
1875 2 2615 2619
1876 1 2621 2622
1877 2 2621 2623
1878 2 2621 2624
1879 2 2622 2625
1880 2 2622 2626
1881 1 2628 2629
1882 2 2628 2630
1883 2 2628 2631
1884 2 2629 2632
1885 2 2629 2633
1886 1 2635 2636
1887 2 2635 2637
1888 2 2635 2638
1889 2 2636 2639
1890 2 2636 2640
1891 1 2642 2643
1892 2 2642 2644
1893 2 2642 2645
1894 2 2643 2646
1895 2 2643 2647
1896 1 2649 2650
1897 2 2649 2651
1898 2 2649 2652
1899 2 2650 2653
1900 2 2650 2654
1901 1 2656 2657
1902 2 2656 2658
1903 2 2656 2659
1904 2 2657 2660
1905 2 2657 2661
1906 1 2663 2664
1907 2 2663 2665
1908 2 2663 2666
1909 2 2664 2667
1910 2 2664 2668
1911 1 2670 2671
1912 2 2670 2672
1913 2 2670 2673
1914 2 2671 2674
1915 2 2671 2675
1916 1 2677 2678
1917 2 2677 2679
1918 2 2677 2680
1919 2 2678 2681
1920 2 2678 2682
1921 1 2684 2685
1922 2 2684 2686
1923 2 2684 2687
1924 2 2685 2688
1925 2 2685 2689
1926 1 2691 2692
1927 2 2691 2693
1928 2 2691 2694
1929 2 2692 2695
1930 2 2692 2696
1931 1 2698 2699
1932 2 2698 2700
1933 2 2698 2701
1934 2 2699 2702
1935 2 2699 2703
1936 1 2705 2706
1937 2 2705 2707
1938 2 2705 2708
1939 2 2706 2709
1940 2 2706 2710
1941 1 2712 2713
1942 2 2712 2714
1943 2 2712 2715
1944 2 2713 2716
1945 2 2713 2717
1946 1 2719 2720
1947 2 2719 2721
1948 2 2719 2722
1949 2 2720 2723
1950 2 2720 2724
1951 1 2726 2727
1952 2 2726 2728
1953 2 2726 2729
1954 2 2727 2730
1955 2 2727 2731
1956 1 2733 2734
1957 2 2733 2735
1958 2 2733 2736
1959 2 2734 2737
1960 2 2734 2738
1961 1 2740 2741
1962 2 2740 2742
1963 2 2740 2743
1964 2 2741 2744
1965 2 2741 2745
1966 1 2747 2748
1967 2 2747 2749
1968 2 2747 2750
1969 2 2748 2751
1970 2 2748 2752
1971 1 2754 2755
1972 2 2754 2756
1973 2 2754 2757
1974 2 2755 2758
1975 2 2755 2759
1976 1 2761 2762
1977 2 2761 2763
1978 2 2761 2764
1979 2 2762 2765
1980 2 2762 2766
1981 1 2768 2769
1982 2 2768 2770
1983 2 2768 2771
1984 2 2769 2772
1985 2 2769 2773
1986 1 2775 2776
1987 2 2775 2777
1988 2 2775 2778
1989 2 2776 2779
1990 2 2776 2780
1991 1 2782 2783
1992 2 2782 2784
1993 2 2782 2785
1994 2 2783 2786
1995 2 2783 2787
1996 1 2789 2790
1997 2 2789 2791
1998 2 2789 2792
1999 2 2790 2793
2000 2 2790 2794
2001 1 2796 2797
2002 2 2796 2798
2003 2 2796 2799
2004 2 2797 2800
2005 2 2797 2801
2006 1 2803 2804
2007 2 2803 2805
2008 2 2803 2806
2009 2 2804 2807
2010 2 2804 2808
2011 1 2810 2811
2012 2 2810 2812
2013 2 2810 2813
2014 2 2811 2814
2015 2 2811 2815
2016 2 2811 2816
2017 1 2818 2819
2018 2 2818 2820
2019 2 2818 2821
2020 2 2819 2822
2021 2 2819 2823
2022 2 2819 2824
2023 1 2826 2827
2024 2 2826 2828
2025 2 2826 2829
2026 2 2827 2830
2027 2 2827 2831
2028 1 2833 2834
2029 2 2833 2835
2030 2 2833 2836
2031 2 2834 2837
2032 2 2834 2838
2033 1 2840 2841
2034 2 2840 2842
2035 2 2840 2843
2036 2 2841 2844
2037 2 2841 2845
2038 1 2847 2848
2039 2 2847 2849
2040 2 2847 2850
2041 2 2848 2851
2042 2 2848 2852
2043 1 2854 2855
2044 2 2854 2856
2045 2 2854 2857
2046 2 2855 2858
2047 2 2855 2859
2048 1 2861 2862
2049 2 2861 2863
2050 2 2861 2864
2051 2 2862 2865
2052 2 2862 2866
2053 1 2868 2869
2054 2 2868 2870
2055 2 2868 2871
2056 2 2869 2872
2057 2 2869 2873
2058 1 2875 2876
2059 2 2875 2877
2060 2 2875 2878
2061 2 2876 2879
2062 2 2876 2880
2063 1 2882 2883
2064 2 2882 2884
2065 2 2882 2885
2066 2 2883 2886
2067 2 2883 2887
2068 1 2889 2890
2069 2 2889 2891
2070 2 2889 2892
2071 2 2890 2893
2072 2 2890 2894
2073 1 2896 2897
2074 2 2896 2898
2075 2 2896 2899
2076 2 2897 2900
2077 2 2897 2901
2078 1 2903 2904
2079 2 2903 2905
2080 2 2903 2906
2081 2 2904 2907
2082 2 2904 2908
2083 1 2910 2911
2084 2 2910 2912
2085 2 2910 2913
2086 2 2911 2914
2087 2 2911 2915
2088 1 2917 2918
2089 2 2917 2919
2090 2 2917 2920
2091 2 2918 2921
2092 2 2918 2922
2093 1 2924 2925
2094 2 2924 2926
2095 2 2924 2927
2096 2 2925 2928
2097 2 2925 2929
2098 1 2931 2932
2099 2 2931 2933
2100 2 2931 2934
2101 2 2932 2935
2102 2 2932 2936
2103 1 2938 2939
2104 2 2938 2940
2105 2 2938 2941
2106 2 2939 2942
2107 2 2939 2943
2108 1 2945 2946
2109 2 2945 2947
2110 2 2945 2948
2111 2 2946 2949
2112 2 2946 2950
2113 1 2952 2953
2114 2 2952 2954
2115 2 2952 2955
2116 2 2953 2956
2117 2 2953 2957
2118 1 2959 2960
2119 2 2959 2961
2120 2 2959 2962
2121 2 2960 2963
2122 2 2960 2964
2123 1 2966 2967
2124 2 2966 2968
2125 2 2966 2969
2126 2 2967 2970
2127 2 2967 2971
2128 1 2973 2974
2129 2 2973 2975
2130 2 2973 2976
2131 2 2974 2977
2132 2 2974 2978
2133 1 2980 2981
2134 2 2980 2982
2135 2 2980 2983
2136 2 2981 2984
2137 2 2981 2985
2138 1 2987 2988
2139 2 2987 2989
2140 2 2987 2990
2141 2 2988 2991
2142 2 2988 2992
2143 1 2994 2995
2144 2 2994 2996
2145 2 2994 2997
2146 2 2995 2998
2147 2 2995 2999
2148 1 3001 3002
2149 2 3001 3003
2150 2 3001 3004
2151 2 3002 3005
2152 2 3002 3006
2153 1 3008 3009
2154 2 3008 3010
2155 2 3008 3011
2156 2 3009 3012
2157 2 3009 3013
2158 1 3015 3016
2159 2 3015 3017
2160 2 3015 3018
2161 2 3016 3019
2162 2 3016 3020
2163 1 3022 3023
2164 2 3022 3024
2165 2 3022 3025
2166 2 3023 3026
2167 2 3023 3027
2168 1 3029 3030
2169 2 3029 3031
2170 2 3029 3032
2171 2 3030 3033
2172 2 3030 3034
2173 1 3036 3037
2174 2 3036 3038
2175 2 3036 3039
2176 2 3037 3040
2177 2 3037 3041
2178 1 3043 3044
2179 2 3043 3045
2180 2 3043 3046
2181 2 3044 3047
2182 2 3044 3048
2183 1 3050 3051
2184 2 3050 3052
2185 2 3050 3053
2186 2 3051 3054
2187 2 3051 3055
2188 1 3057 3058
2189 2 3057 3059
2190 2 3057 3060
2191 2 3058 3061
2192 2 3058 3062
2193 1 3064 3065
2194 2 3064 3066
2195 2 3064 3067
2196 2 3065 3068
2197 2 3065 3069
2198 1 3071 3072
2199 2 3071 3073
2200 2 3071 3074
2201 2 3072 3075
2202 2 3072 3076
2203 1 3078 3079
2204 2 3078 3080
2205 2 3078 3081
2206 2 3079 3082
2207 2 3079 3083
2208 1 3085 3086
2209 2 3085 3087
2210 2 3085 3088
2211 2 3086 3089
2212 2 3086 3090
2213 1 3092 3093
2214 2 3092 3094
2215 2 3092 3095
2216 2 3093 3096
2217 2 3093 3097
2218 1 3099 3100
2219 2 3099 3101
2220 2 3099 3102
2221 2 3100 3103
2222 2 3100 3104
2223 1 3106 3107
2224 2 3106 3108
2225 2 3106 3109
2226 2 3107 3110
2227 2 3107 3111
2228 1 3113 3114
2229 2 3113 3115
2230 2 3113 3116
2231 2 3114 3117
2232 2 3114 3118
2233 1 3120 3121
2234 2 3120 3122
2235 2 3120 3123
2236 2 3121 3124
2237 2 3121 3125
2238 1 3127 3128
2239 2 3127 3129
2240 2 3127 3130
2241 2 3128 3131
2242 2 3128 3132
2243 1 3134 3135
2244 2 3134 3136
2245 2 3134 3137
2246 2 3135 3138
2247 2 3135 3139
2248 1 3141 3142
2249 2 3141 3143
2250 2 3141 3144
2251 2 3142 3145
2252 2 3142 3146
2253 1 3148 3149
2254 2 3148 3150
2255 2 3148 3151
2256 2 3149 3152
2257 2 3149 3153
2258 1 3155 3156
2259 2 3155 3157
2260 2 3155 3158
2261 2 3156 3159
2262 2 3156 3160
2263 1 3162 3163
2264 2 3162 3164
2265 2 3162 3165
2266 2 3163 3166
2267 2 3163 3167
2268 2 3163 3168
2269 1 3170 3171
2270 2 3170 3172
2271 2 3170 3173
2272 2 3171 3174
2273 2 3171 3175
2274 2 3171 3176
2275 1 3178 3179
2276 2 3178 3180
2277 2 3178 3181
2278 2 3179 3182
2279 2 3179 3183
2280 1 3185 3186
2281 2 3185 3187
2282 2 3185 3188
2283 2 3186 3189
2284 2 3186 3190
2285 1 3192 3193
2286 2 3192 3194
2287 2 3192 3195
2288 2 3193 3196
2289 2 3193 3197
2290 1 3199 3200
2291 2 3199 3201
2292 2 3199 3202
2293 2 3200 3203
2294 2 3200 3204
2295 1 3206 3207
2296 2 3206 3208
2297 2 3206 3209
2298 2 3207 3210
2299 2 3207 3211
2300 1 3213 3214
2301 2 3213 3215
2302 2 3213 3216
2303 2 3214 3217
2304 2 3214 3218
2305 1 3220 3221
2306 2 3220 3222
2307 2 3220 3223
2308 2 3221 3224
2309 2 3221 3225
2310 1 3227 3228
2311 2 3227 3229
2312 2 3227 3230
2313 2 3228 3231
2314 2 3228 3232
2315 1 3234 3235
2316 2 3234 3236
2317 2 3234 3237
2318 2 3235 3238
2319 2 3235 3239
2320 1 3241 3242
2321 2 3241 3243
2322 2 3241 3244
2323 2 3242 3245
2324 2 3242 3246
2325 1 3248 3249
2326 2 3248 3250
2327 2 3248 3251
2328 2 3249 3252
2329 2 3249 3253
2330 1 3255 3256
2331 2 3255 3257
2332 2 3255 3258
2333 2 3256 3259
2334 2 3256 3260
2335 1 3262 3263
2336 2 3262 3264
2337 2 3262 3265
2338 2 3263 3266
2339 2 3263 3267
2340 1 3269 3270
2341 2 3269 3271
2342 2 3269 3272
2343 2 3270 3273
2344 2 3270 3274
2345 1 3276 3277
2346 2 3276 3278
2347 2 3276 3279
2348 2 3277 3280
2349 2 3277 3281
2350 1 3283 3284
2351 2 3283 3285
2352 2 3283 3286
2353 2 3284 3287
2354 2 3284 3288
2355 1 3290 3291
2356 2 3290 3292
2357 2 3290 3293
2358 2 3291 3294
2359 2 3291 3295
2360 1 3297 3298
2361 2 3297 3299
2362 2 3297 3300
2363 2 3298 3301
2364 2 3298 3302
2365 1 3304 3305
2366 2 3304 3306
2367 2 3304 3307
2368 2 3305 3308
2369 2 3305 3309
2370 1 3311 3312
2371 2 3311 3313
2372 2 3311 3314
2373 2 3312 3315
2374 2 3312 3316
2375 1 3318 3319
2376 2 3318 3320
2377 2 3318 3321
2378 2 3319 3322
2379 2 3319 3323
2380 1 3325 3326
2381 2 3325 3327
2382 2 3325 3328
2383 2 3326 3329
2384 2 3326 3330
2385 1 3332 3333
2386 2 3332 3334
2387 2 3332 3335
2388 2 3333 3336
2389 2 3333 3337
2390 1 3339 3340
2391 2 3339 3341
2392 2 3339 3342
2393 2 3340 3343
2394 2 3340 3344
2395 1 3346 3347
2396 2 3346 3348
2397 2 3346 3349
2398 2 3347 3350
2399 2 3347 3351
2400 1 3353 3354
2401 2 3353 3355
2402 2 3353 3356
2403 2 3354 3357
2404 2 3354 3358
2405 1 3360 3361
2406 2 3360 3362
2407 2 3360 3363
2408 2 3361 3364
2409 2 3361 3365
2410 1 3367 3368
2411 2 3367 3369
2412 2 3367 3370
2413 2 3368 3371
2414 2 3368 3372
2415 1 3374 3375
2416 2 3374 3376
2417 2 3374 3377
2418 2 3375 3378
2419 2 3375 3379
2420 1 3381 3382
2421 2 3381 3383
2422 2 3381 3384
2423 2 3382 3385
2424 2 3382 3386
2425 1 3388 3389
2426 2 3388 3390
2427 2 3388 3391
2428 2 3389 3392
2429 2 3389 3393
2430 1 3395 3396
2431 2 3395 3397
2432 2 3395 3398
2433 2 3396 3399
2434 2 3396 3400
2435 1 3402 3403
2436 2 3402 3404
2437 2 3402 3405
2438 2 3403 3406
2439 2 3403 3407
2440 1 3409 3410
2441 2 3409 3411
2442 2 3409 3412
2443 2 3410 3413
2444 2 3410 3414
2445 1 3416 3417
2446 2 3416 3418
2447 2 3416 3419
2448 2 3417 3420
2449 2 3417 3421
2450 1 3423 3424
2451 2 3423 3425
2452 2 3423 3426
2453 2 3424 3427
2454 2 3424 3428
2455 1 3430 3431
2456 2 3430 3432
2457 2 3430 3433
2458 2 3431 3434
2459 2 3431 3435
2460 1 3437 3438
2461 2 3437 3439
2462 2 3437 3440
2463 2 3438 3441
2464 2 3438 3442
2465 1 3444 3445
2466 2 3444 3446
2467 2 3444 3447
2468 2 3445 3448
2469 2 3445 3449
2470 1 3451 3452
2471 2 3451 3453
2472 2 3451 3454
2473 2 3452 3455
2474 2 3452 3456
2475 1 3458 3459
2476 2 3458 3460
2477 2 3458 3461
2478 2 3459 3462
2479 2 3459 3463
2480 1 3465 3466
2481 2 3465 3467
2482 2 3465 3468
2483 2 3466 3469
2484 2 3466 3470
2485 1 3472 3473
2486 2 3472 3474
2487 2 3472 3475
2488 2 3473 3476
2489 2 3473 3477
2490 1 3479 3480
2491 2 3479 3481
2492 2 3479 3482
2493 2 3480 3483
2494 2 3480 3484
2495 1 3486 3487
2496 2 3486 3488
2497 2 3486 3489
2498 2 3487 3490
2499 2 3487 3491
2500 1 3493 3494
2501 2 3493 3495
2502 2 3493 3496
2503 2 3494 3497
2504 2 3494 3498
2505 1 3500 3501
2506 2 3500 3502
2507 2 3500 3503
2508 2 3501 3504
2509 2 3501 3505
2510 1 3507 3508
2511 2 3507 3509
2512 2 3507 3510
2513 2 3508 3511
2514 2 3508 3512
2515 1 3514 3515
2516 2 3514 3516
2517 2 3514 3517
2518 2 3515 3518
2519 2 3515 3519
2520 2 3515 3520
2521 3 1 9
2522 1 2 10
2523 4 9 16
2524 1 11 17
2525 4 16 23
2526 1 18 24
2527 4 23 30
2528 1 25 31
2529 4 30 37
2530 1 32 38
2531 4 37 44
2532 1 39 45
2533 4 44 51
2534 1 46 52
2535 4 51 58
2536 1 53 59
2537 4 58 65
2538 1 60 66
2539 4 65 72
2540 1 67 73
2541 4 72 79
2542 1 74 80
2543 4 79 86
2544 1 81 87
2545 4 86 93
2546 1 88 94
2547 4 93 100
2548 1 95 101
2549 4 100 107
2550 1 102 108
2551 4 107 114
2552 1 109 115
2553 4 114 121
2554 1 116 122
2555 4 121 128
2556 1 123 129
2557 4 128 135
2558 1 130 136
2559 4 135 142
2560 1 137 143
2561 4 142 149
2562 1 144 150
2563 4 149 156
2564 1 151 157
2565 4 156 163
2566 1 158 164
2567 4 163 170
2568 1 165 171
2569 4 170 177
2570 1 172 178
2571 4 177 184
2572 1 179 185
2573 4 184 191
2574 1 186 192
2575 4 191 198
2576 1 193 199
2577 4 198 205
2578 1 200 206
2579 4 205 212
2580 1 207 213
2581 4 212 219
2582 1 214 220
2583 4 219 226
2584 1 221 227
2585 4 226 233
2586 1 228 234
2587 4 233 240
2588 1 235 241
2589 4 240 247
2590 1 242 248
2591 4 247 254
2592 1 249 255
2593 4 254 261
2594 1 256 262
2595 4 261 268
2596 1 263 269
2597 4 268 275
2598 1 270 276
2599 4 275 282
2600 1 277 283
2601 4 282 289
2602 1 284 290
2603 4 289 296
2604 1 291 297
2605 4 296 303
2606 1 298 304
2607 4 303 310
2608 1 305 311
2609 4 310 317
2610 1 312 318
2611 4 317 324
2612 1 319 325
2613 4 324 331
2614 1 326 332
2615 4 331 338
2616 1 333 339
2617 3 338 345
2618 1 340 346
2619 3 353 361
2620 1 354 362
2621 4 361 368
2622 1 363 369
2623 4 368 375
2624 1 370 376
2625 4 375 382
2626 1 377 383
2627 4 382 389
2628 1 384 390
2629 4 389 396
2630 1 391 397
2631 4 396 403
2632 1 398 404
2633 4 403 410
2634 1 405 411
2635 4 410 417
2636 1 412 418
2637 4 417 424
2638 1 419 425
2639 4 424 431
2640 1 426 432
2641 4 431 438
2642 1 433 439
2643 4 438 445
2644 1 440 446
2645 4 445 452
2646 1 447 453
2647 4 452 459
2648 1 454 460
2649 4 459 466
2650 1 461 467
2651 4 466 473
2652 1 468 474
2653 4 473 480
2654 1 475 481
2655 4 480 487
2656 1 482 488
2657 4 487 494
2658 1 489 495
2659 4 494 501
2660 1 496 502
2661 4 501 508
2662 1 503 509
2663 4 508 515
2664 1 510 516
2665 4 515 522
2666 1 517 523
2667 4 522 529
2668 1 524 530
2669 4 529 536
2670 1 531 537
2671 4 536 543
2672 1 538 544
2673 4 543 550
2674 1 545 551
2675 4 550 557
2676 1 552 558
2677 4 557 564
2678 1 559 565
2679 4 564 571
2680 1 566 572
2681 4 571 578
2682 1 573 579
2683 4 578 585
2684 1 580 586
2685 4 585 592
2686 1 587 593
2687 4 592 599
2688 1 594 600
2689 4 599 606
2690 1 601 607
2691 4 606 613
2692 1 608 614
2693 4 613 620
2694 1 615 621
2695 4 620 627
2696 1 622 628
2697 4 627 634
2698 1 629 635
2699 4 634 641
2700 1 636 642
2701 4 641 648
2702 1 643 649
2703 4 648 655
2704 1 650 656
2705 4 655 662
2706 1 657 663
2707 4 662 669
2708 1 664 670
2709 4 669 676
2710 1 671 677
2711 4 676 683
2712 1 678 684
2713 4 683 690
2714 1 685 691
2715 3 690 697
2716 1 692 698
2717 3 705 713
2718 1 706 714
2719 4 713 720
2720 1 715 721
2721 4 720 727
2722 1 722 728
2723 4 727 734
2724 1 729 735
2725 4 734 741
2726 1 736 742
2727 4 741 748
2728 1 743 749
2729 4 748 755
2730 1 750 756
2731 4 755 762
2732 1 757 763
2733 4 762 769
2734 1 764 770
2735 4 769 776
2736 1 771 777
2737 4 776 783
2738 1 778 784
2739 4 783 790
2740 1 785 791
2741 4 790 797
2742 1 792 798
2743 4 797 804
2744 1 799 805
2745 4 804 811
2746 1 806 812
2747 4 811 818
2748 1 813 819
2749 4 818 825
2750 1 820 826
2751 4 825 832
2752 1 827 833
2753 4 832 839
2754 1 834 840
2755 4 839 846
2756 1 841 847
2757 4 846 853
2758 1 848 854
2759 4 853 860
2760 1 855 861
2761 4 860 867
2762 1 862 868
2763 4 867 874
2764 1 869 875
2765 4 874 881
2766 1 876 882
2767 4 881 888
2768 1 883 889
2769 4 888 895
2770 1 890 896
2771 4 895 902
2772 1 897 903
2773 4 902 909
2774 1 904 910
2775 4 909 916
2776 1 911 917
2777 4 916 923
2778 1 918 924
2779 4 923 930
2780 1 925 931
2781 4 930 937
2782 1 932 938
2783 4 937 944
2784 1 939 945
2785 4 944 951
2786 1 946 952
2787 4 951 958
2788 1 953 959
2789 4 958 965
2790 1 960 966
2791 4 965 972
2792 1 967 973
2793 4 972 979
2794 1 974 980
2795 4 979 986
2796 1 981 987
2797 4 986 993
2798 1 988 994
2799 4 993 1000
2800 1 995 1001
2801 4 1000 1007
2802 1 1002 1008
2803 4 1007 1014
2804 1 1009 1015
2805 4 1014 1021
2806 1 1016 1022
2807 4 1021 1028
2808 1 1023 1029
2809 4 1028 1035
2810 1 1030 1036
2811 4 1035 1042
2812 1 1037 1043
2813 3 1042 1049
2814 1 1044 1050
2815 3 1057 1065
2816 1 1058 1066
2817 4 1065 1072
2818 1 1067 1073
2819 4 1072 1079
2820 1 1074 1080
2821 4 1079 1086
2822 1 1081 1087
2823 4 1086 1093
2824 1 1088 1094
2825 4 1093 1100
2826 1 1095 1101
2827 4 1100 1107
2828 1 1102 1108
2829 4 1107 1114
2830 1 1109 1115
2831 4 1114 1121
2832 1 1116 1122
2833 4 1121 1128
2834 1 1123 1129
2835 4 1128 1135
2836 1 1130 1136
2837 4 1135 1142
2838 1 1137 1143
2839 4 1142 1149
2840 1 1144 1150
2841 4 1149 1156
2842 1 1151 1157
2843 4 1156 1163
2844 1 1158 1164
2845 4 1163 1170
2846 1 1165 1171
2847 4 1170 1177
2848 1 1172 1178
2849 4 1177 1184
2850 1 1179 1185
2851 4 1184 1191
2852 1 1186 1192
2853 4 1191 1198
2854 1 1193 1199
2855 4 1198 1205
2856 1 1200 1206
2857 4 1205 1212
2858 1 1207 1213
2859 4 1212 1219
2860 1 1214 1220
2861 4 1219 1226
2862 1 1221 1227
2863 4 1226 1233
2864 1 1228 1234
2865 4 1233 1240
2866 1 1235 1241
2867 4 1240 1247
2868 1 1242 1248
2869 4 1247 1254
2870 1 1249 1255
2871 4 1254 1261
2872 1 1256 1262
2873 4 1261 1268
2874 1 1263 1269
2875 4 1268 1275
2876 1 1270 1276
2877 4 1275 1282
2878 1 1277 1283
2879 4 1282 1289
2880 1 1284 1290
2881 4 1289 1296
2882 1 1291 1297
2883 4 1296 1303
2884 1 1298 1304
2885 4 1303 1310
2886 1 1305 1311
2887 4 1310 1317
2888 1 1312 1318
2889 4 1317 1324
2890 1 1319 1325
2891 4 1324 1331
2892 1 1326 1332
2893 4 1331 1338
2894 1 1333 1339
2895 4 1338 1345
2896 1 1340 1346
2897 4 1345 1352
2898 1 1347 1353
2899 4 1352 1359
2900 1 1354 1360
2901 4 1359 1366
2902 1 1361 1367
2903 4 1366 1373
2904 1 1368 1374
2905 4 1373 1380
2906 1 1375 1381
2907 4 1380 1387
2908 1 1382 1388
2909 4 1387 1394
2910 1 1389 1395
2911 3 1394 1401
2912 1 1396 1402
2913 3 1409 1417
2914 1 1410 1418
2915 4 1417 1424
2916 1 1419 1425
2917 4 1424 1431
2918 1 1426 1432
2919 4 1431 1438
2920 1 1433 1439
2921 4 1438 1445
2922 1 1440 1446
2923 4 1445 1452
2924 1 1447 1453
2925 4 1452 1459
2926 1 1454 1460
2927 4 1459 1466
2928 1 1461 1467
2929 4 1466 1473
2930 1 1468 1474
2931 4 1473 1480
2932 1 1475 1481
2933 4 1480 1487
2934 1 1482 1488
2935 4 1487 1494
2936 1 1489 1495
2937 4 1494 1501
2938 1 1496 1502
2939 4 1501 1508
2940 1 1503 1509
2941 4 1508 1515
2942 1 1510 1516
2943 4 1515 1522
2944 1 1517 1523
2945 4 1522 1529
2946 1 1524 1530
2947 4 1529 1536
2948 1 1531 1537
2949 4 1536 1543
2950 1 1538 1544
2951 4 1543 1550
2952 1 1545 1551
2953 4 1550 1557
2954 1 1552 1558
2955 4 1557 1564
2956 1 1559 1565
2957 4 1564 1571
2958 1 1566 1572
2959 4 1571 1578
2960 1 1573 1579
2961 4 1578 1585
2962 1 1580 1586
2963 4 1585 1592
2964 1 1587 1593
2965 4 1592 1599
2966 1 1594 1600
2967 4 1599 1606
2968 1 1601 1607
2969 4 1606 1613
2970 1 1608 1614
2971 4 1613 1620
2972 1 1615 1621
2973 4 1620 1627
2974 1 1622 1628
2975 4 1627 1634
2976 1 1629 1635
2977 4 1634 1641
2978 1 1636 1642
2979 4 1641 1648
2980 1 1643 1649
2981 4 1648 1655
2982 1 1650 1656
2983 4 1655 1662
2984 1 1657 1663
2985 4 1662 1669
2986 1 1664 1670
2987 4 1669 1676
2988 1 1671 1677
2989 4 1676 1683
2990 1 1678 1684
2991 4 1683 1690
2992 1 1685 1691
2993 4 1690 1697
2994 1 1692 1698
2995 4 1697 1704
2996 1 1699 1705
2997 4 1704 1711
2998 1 1706 1712
2999 4 1711 1718
3000 1 1713 1719
3001 4 1718 1725
3002 1 1720 1726
3003 4 1725 1732
3004 1 1727 1733
3005 4 1732 1739
3006 1 1734 1740
3007 4 1739 1746
3008 1 1741 1747
3009 3 1746 1753
3010 1 1748 1754
3011 3 1761 1769
3012 1 1762 1770
3013 4 1769 1776
3014 1 1771 1777
3015 4 1776 1783
3016 1 1778 1784
3017 4 1783 1790
3018 1 1785 1791
3019 4 1790 1797
3020 1 1792 1798
3021 4 1797 1804
3022 1 1799 1805
3023 4 1804 1811
3024 1 1806 1812
3025 4 1811 1818
3026 1 1813 1819
3027 4 1818 1825
3028 1 1820 1826
3029 4 1825 1832
3030 1 1827 1833
3031 4 1832 1839
3032 1 1834 1840
3033 4 1839 1846
3034 1 1841 1847
3035 4 1846 1853
3036 1 1848 1854
3037 4 1853 1860
3038 1 1855 1861
3039 4 1860 1867
3040 1 1862 1868
3041 4 1867 1874
3042 1 1869 1875
3043 4 1874 1881
3044 1 1876 1882
3045 4 1881 1888
3046 1 1883 1889
3047 4 1888 1895
3048 1 1890 1896
3049 4 1895 1902
3050 1 1897 1903
3051 4 1902 1909
3052 1 1904 1910
3053 4 1909 1916
3054 1 1911 1917
3055 4 1916 1923
3056 1 1918 1924
3057 4 1923 1930
3058 1 1925 1931
3059 4 1930 1937
3060 1 1932 1938
3061 4 1937 1944
3062 1 1939 1945
3063 4 1944 1951
3064 1 1946 1952
3065 4 1951 1958
3066 1 1953 1959
3067 4 1958 1965
3068 1 1960 1966
3069 4 1965 1972
3070 1 1967 1973
3071 4 1972 1979
3072 1 1974 1980
3073 4 1979 1986
3074 1 1981 1987
3075 4 1986 1993
3076 1 1988 1994
3077 4 1993 2000
3078 1 1995 2001
3079 4 2000 2007
3080 1 2002 2008
3081 4 2007 2014
3082 1 2009 2015
3083 4 2014 2021
3084 1 2016 2022
3085 4 2021 2028
3086 1 2023 2029
3087 4 2028 2035
3088 1 2030 2036
3089 4 2035 2042
3090 1 2037 2043
3091 4 2042 2049
3092 1 2044 2050
3093 4 2049 2056
3094 1 2051 2057
3095 4 2056 2063
3096 1 2058 2064
3097 4 2063 2070
3098 1 2065 2071
3099 4 2070 2077
3100 1 2072 2078
3101 4 2077 2084
3102 1 2079 2085
3103 4 2084 2091
3104 1 2086 2092
3105 4 2091 2098
3106 1 2093 2099
3107 3 2098 2105
3108 1 2100 2106
3109 3 2113 2121
3110 1 2114 2122
3111 4 2121 2128
3112 1 2123 2129
3113 4 2128 2135
3114 1 2130 2136
3115 4 2135 2142
3116 1 2137 2143
3117 4 2142 2149
3118 1 2144 2150
3119 4 2149 2156
3120 1 2151 2157
3121 4 2156 2163
3122 1 2158 2164
3123 4 2163 2170
3124 1 2165 2171
3125 4 2170 2177
3126 1 2172 2178
3127 4 2177 2184
3128 1 2179 2185
3129 4 2184 2191
3130 1 2186 2192
3131 4 2191 2198
3132 1 2193 2199
3133 4 2198 2205
3134 1 2200 2206
3135 4 2205 2212
3136 1 2207 2213
3137 4 2212 2219
3138 1 2214 2220
3139 4 2219 2226
3140 1 2221 2227
3141 4 2226 2233
3142 1 2228 2234
3143 4 2233 2240
3144 1 2235 2241
3145 4 2240 2247
3146 1 2242 2248
3147 4 2247 2254
3148 1 2249 2255
3149 4 2254 2261
3150 1 2256 2262
3151 4 2261 2268
3152 1 2263 2269
3153 4 2268 2275
3154 1 2270 2276
3155 4 2275 2282
3156 1 2277 2283
3157 4 2282 2289
3158 1 2284 2290
3159 4 2289 2296
3160 1 2291 2297
3161 4 2296 2303
3162 1 2298 2304
3163 4 2303 2310
3164 1 2305 2311
3165 4 2310 2317
3166 1 2312 2318
3167 4 2317 2324
3168 1 2319 2325
3169 4 2324 2331
3170 1 2326 2332
3171 4 2331 2338
3172 1 2333 2339
3173 4 2338 2345
3174 1 2340 2346
3175 4 2345 2352
3176 1 2347 2353
3177 4 2352 2359
3178 1 2354 2360
3179 4 2359 2366
3180 1 2361 2367
3181 4 2366 2373
3182 1 2368 2374
3183 4 2373 2380
3184 1 2375 2381
3185 4 2380 2387
3186 1 2382 2388
3187 4 2387 2394
3188 1 2389 2395
3189 4 2394 2401
3190 1 2396 2402
3191 4 2401 2408
3192 1 2403 2409
3193 4 2408 2415
3194 1 2410 2416
3195 4 2415 2422
3196 1 2417 2423
3197 4 2422 2429
3198 1 2424 2430
3199 4 2429 2436
3200 1 2431 2437
3201 4 2436 2443
3202 1 2438 2444
3203 4 2443 2450
3204 1 2445 2451
3205 3 2450 2457
3206 1 2452 2458
3207 3 2465 2473
3208 1 2466 2474
3209 4 2473 2480
3210 1 2475 2481
3211 4 2480 2487
3212 1 2482 2488
3213 4 2487 2494
3214 1 2489 2495
3215 4 2494 2501
3216 1 2496 2502
3217 4 2501 2508
3218 1 2503 2509
3219 4 2508 2515
3220 1 2510 2516
3221 4 2515 2522
3222 1 2517 2523
3223 4 2522 2529
3224 1 2524 2530
3225 4 2529 2536
3226 1 2531 2537
3227 4 2536 2543
3228 1 2538 2544
3229 4 2543 2550
3230 1 2545 2551
3231 4 2550 2557
3232 1 2552 2558
3233 4 2557 2564
3234 1 2559 2565
3235 4 2564 2571
3236 1 2566 2572
3237 4 2571 2578
3238 1 2573 2579
3239 4 2578 2585
3240 1 2580 2586
3241 4 2585 2592
3242 1 2587 2593
3243 4 2592 2599
3244 1 2594 2600
3245 4 2599 2606
3246 1 2601 2607
3247 4 2606 2613
3248 1 2608 2614
3249 4 2613 2620
3250 1 2615 2621
3251 4 2620 2627
3252 1 2622 2628
3253 4 2627 2634
3254 1 2629 2635
3255 4 2634 2641
3256 1 2636 2642
3257 4 2641 2648
3258 1 2643 2649
3259 4 2648 2655
3260 1 2650 2656
3261 4 2655 2662
3262 1 2657 2663
3263 4 2662 2669
3264 1 2664 2670
3265 4 2669 2676
3266 1 2671 2677
3267 4 2676 2683
3268 1 2678 2684
3269 4 2683 2690
3270 1 2685 2691
3271 4 2690 2697
3272 1 2692 2698
3273 4 2697 2704
3274 1 2699 2705
3275 4 2704 2711
3276 1 2706 2712
3277 4 2711 2718
3278 1 2713 2719
3279 4 2718 2725
3280 1 2720 2726
3281 4 2725 2732
3282 1 2727 2733
3283 4 2732 2739
3284 1 2734 2740
3285 4 2739 2746
3286 1 2741 2747
3287 4 2746 2753
3288 1 2748 2754
3289 4 2753 2760
3290 1 2755 2761
3291 4 2760 2767
3292 1 2762 2768
3293 4 2767 2774
3294 1 2769 2775
3295 4 2774 2781
3296 1 2776 2782
3297 4 2781 2788
3298 1 2783 2789
3299 4 2788 2795
3300 1 2790 2796
3301 4 2795 2802
3302 1 2797 2803
3303 3 2802 2809
3304 1 2804 2810
3305 3 2817 2825
3306 1 2818 2826
3307 4 2825 2832
3308 1 2827 2833
3309 4 2832 2839
3310 1 2834 2840
3311 4 2839 2846
3312 1 2841 2847
3313 4 2846 2853
3314 1 2848 2854
3315 4 2853 2860
3316 1 2855 2861
3317 4 2860 2867
3318 1 2862 2868
3319 4 2867 2874
3320 1 2869 2875
3321 4 2874 2881
3322 1 2876 2882
3323 4 2881 2888
3324 1 2883 2889
3325 4 2888 2895
3326 1 2890 2896
3327 4 2895 2902
3328 1 2897 2903
3329 4 2902 2909
3330 1 2904 2910
3331 4 2909 2916
3332 1 2911 2917
3333 4 2916 2923
3334 1 2918 2924
3335 4 2923 2930
3336 1 2925 2931
3337 4 2930 2937
3338 1 2932 2938
3339 4 2937 2944
3340 1 2939 2945
3341 4 2944 2951
3342 1 2946 2952
3343 4 2951 2958
3344 1 2953 2959
3345 4 2958 2965
3346 1 2960 2966
3347 4 2965 2972
3348 1 2967 2973
3349 4 2972 2979
3350 1 2974 2980
3351 4 2979 2986
3352 1 2981 2987
3353 4 2986 2993
3354 1 2988 2994
3355 4 2993 3000
3356 1 2995 3001
3357 4 3000 3007
3358 1 3002 3008
3359 4 3007 3014
3360 1 3009 3015
3361 4 3014 3021
3362 1 3016 3022
3363 4 3021 3028
3364 1 3023 3029
3365 4 3028 3035
3366 1 3030 3036
3367 4 3035 3042
3368 1 3037 3043
3369 4 3042 3049
3370 1 3044 3050
3371 4 3049 3056
3372 1 3051 3057
3373 4 3056 3063
3374 1 3058 3064
3375 4 3063 3070
3376 1 3065 3071
3377 4 3070 3077
3378 1 3072 3078
3379 4 3077 3084
3380 1 3079 3085
3381 4 3084 3091
3382 1 3086 3092
3383 4 3091 3098
3384 1 3093 3099
3385 4 3098 3105
3386 1 3100 3106
3387 4 3105 3112
3388 1 3107 3113
3389 4 3112 3119
3390 1 3114 3120
3391 4 3119 3126
3392 1 3121 3127
3393 4 3126 3133
3394 1 3128 3134
3395 4 3133 3140
3396 1 3135 3141
3397 4 3140 3147
3398 1 3142 3148
3399 4 3147 3154
3400 1 3149 3155
3401 3 3154 3161
3402 1 3156 3162
3403 3 3169 3177
3404 1 3170 3178
3405 4 3177 3184
3406 1 3179 3185
3407 4 3184 3191
3408 1 3186 3192
3409 4 3191 3198
3410 1 3193 3199
3411 4 3198 3205
3412 1 3200 3206
3413 4 3205 3212
3414 1 3207 3213
3415 4 3212 3219
3416 1 3214 3220
3417 4 3219 3226
3418 1 3221 3227
3419 4 3226 3233
3420 1 3228 3234
3421 4 3233 3240
3422 1 3235 3241
3423 4 3240 3247
3424 1 3242 3248
3425 4 3247 3254
3426 1 3249 3255
3427 4 3254 3261
3428 1 3256 3262
3429 4 3261 3268
3430 1 3263 3269
3431 4 3268 3275
3432 1 3270 3276
3433 4 3275 3282
3434 1 3277 3283
3435 4 3282 3289
3436 1 3284 3290
3437 4 3289 3296
3438 1 3291 3297
3439 4 3296 3303
3440 1 3298 3304
3441 4 3303 3310
3442 1 3305 3311
3443 4 3310 3317
3444 1 3312 3318
3445 4 3317 3324
3446 1 3319 3325
3447 4 3324 3331
3448 1 3326 3332
3449 4 3331 3338
3450 1 3333 3339
3451 4 3338 3345
3452 1 3340 3346
3453 4 3345 3352
3454 1 3347 3353
3455 4 3352 3359
3456 1 3354 3360
3457 4 3359 3366
3458 1 3361 3367
3459 4 3366 3373
3460 1 3368 3374
3461 4 3373 3380
3462 1 3375 3381
3463 4 3380 3387
3464 1 3382 3388
3465 4 3387 3394
3466 1 3389 3395
3467 4 3394 3401
3468 1 3396 3402
3469 4 3401 3408
3470 1 3403 3409
3471 4 3408 3415
3472 1 3410 3416
3473 4 3415 3422
3474 1 3417 3423
3475 4 3422 3429
3476 1 3424 3430
3477 4 3429 3436
3478 1 3431 3437
3479 4 3436 3443
3480 1 3438 3444
3481 4 3443 3450
3482 1 3445 3451
3483 4 3450 3457
3484 1 3452 3458
3485 4 3457 3464
3486 1 3459 3465
3487 4 3464 3471
3488 1 3466 3472
3489 4 3471 3478
3490 1 3473 3479
3491 4 3478 3485
3492 1 3480 3486
3493 4 3485 3492
3494 1 3487 3493
3495 4 3492 3499
3496 1 3494 3500
3497 4 3499 3506
3498 1 3501 3507
3499 3 3506 3513
3500 1 3508 3514

Angles

1 1 2 3 6
2 1 2 3 7
3 1 2 3 8
4 1 4 2 3
5 2 4 2 5
6 1 5 2 3
7 2 6 3 7
8 2 6 3 8
9 2 7 3 8
10 1 10 11 14
11 1 10 11 15
12 1 12 10 11
13 2 12 10 13
14 1 13 10 11
15 2 14 11 15
16 1 17 18 21
17 1 17 18 22
18 1 19 17 18
19 2 19 17 20
20 1 20 17 18
21 2 21 18 22
22 1 24 25 28
23 1 24 25 29
24 1 26 24 25
25 2 26 24 27
26 1 27 24 25
27 2 28 25 29
28 1 31 32 35
29 1 31 32 36
30 1 33 31 32
31 2 33 31 34
32 1 34 31 32
33 2 35 32 36
34 1 38 39 42
35 1 38 39 43
36 1 40 38 39
37 2 40 38 41
38 1 41 38 39
39 2 42 39 43
40 1 45 46 49
41 1 45 46 50
42 1 47 45 46
43 2 47 45 48
44 1 48 45 46
45 2 49 46 50
46 1 52 53 56
47 1 52 53 57
48 1 54 52 53
49 2 54 52 55
50 1 55 52 53
51 2 56 53 57
52 1 59 60 63
53 1 59 60 64
54 1 61 59 60
55 2 61 59 62
56 1 62 59 60
57 2 63 60 64
58 1 66 67 70
59 1 66 67 71
60 1 68 66 67
61 2 68 66 69
62 1 69 66 67
63 2 70 67 71
64 1 73 74 77
65 1 73 74 78
66 1 75 73 74
67 2 75 73 76
68 1 76 73 74
69 2 77 74 78
70 1 80 81 84
71 1 80 81 85
72 1 82 80 81
73 2 82 80 83
74 1 83 80 81
75 2 84 81 85
76 1 87 88 91
77 1 87 88 92
78 1 89 87 88
79 2 89 87 90
80 1 90 87 88
81 2 91 88 92
82 1 94 95 98
83 1 94 95 99
84 1 96 94 95
85 2 96 94 97
86 1 97 94 95
87 2 98 95 99
88 1 101 102 105
89 1 101 102 106
90 1 103 101 102
91 2 103 101 104
92 1 104 101 102
93 2 105 102 106
94 1 108 109 112
95 1 108 109 113
96 1 110 108 109
97 2 110 108 111
98 1 111 108 109
99 2 112 109 113
100 1 115 116 119
101 1 115 116 120
102 1 117 115 116
103 2 117 115 118
104 1 118 115 116
105 2 119 116 120
106 1 122 123 126
107 1 122 123 127
108 1 124 122 123
109 2 124 122 125
110 1 125 122 123
111 2 126 123 127
112 1 129 130 133
113 1 129 130 134
114 1 131 129 130
115 2 131 129 132
116 1 132 129 130
117 2 133 130 134
118 1 136 137 140
119 1 136 137 141
120 1 138 136 137
121 2 138 136 139
122 1 139 136 137
123 2 140 137 141
124 1 143 144 147
125 1 143 144 148
126 1 145 143 144
127 2 145 143 146
128 1 146 143 144
129 2 147 144 148
130 1 150 151 154
131 1 150 151 155
132 1 152 150 151
133 2 152 150 153
134 1 153 150 151
135 2 154 151 155
136 1 157 158 161
137 1 157 158 162
138 1 159 157 158
139 2 159 157 160
140 1 160 157 158
141 2 161 158 162
142 1 164 165 168
143 1 164 165 169
144 1 166 164 165
145 2 166 164 167
146 1 167 164 165
147 2 168 165 169
148 1 171 172 175
149 1 171 172 176
150 1 173 171 172
151 2 173 171 174
152 1 174 171 172
153 2 175 172 176
154 1 178 179 182
155 1 178 179 183
156 1 180 178 179
157 2 180 178 181
158 1 181 178 179
159 2 182 179 183
160 1 185 186 189
161 1 185 186 190
162 1 187 185 186
163 2 187 185 188
164 1 188 185 186
165 2 189 186 190
166 1 192 193 196
167 1 192 193 197
168 1 194 192 193
169 2 194 192 195
170 1 195 192 193
171 2 196 193 197
172 1 199 200 203
173 1 199 200 204
174 1 201 199 200
175 2 201 199 202
176 1 202 199 200
177 2 203 200 204
178 1 206 207 210
179 1 206 207 211
180 1 208 206 207
181 2 208 206 209
182 1 209 206 207
183 2 210 207 211
184 1 213 214 217
185 1 213 214 218
186 1 215 213 214
187 2 215 213 216
188 1 216 213 214
189 2 217 214 218
190 1 220 221 224
191 1 220 221 225
192 1 222 220 221
193 2 222 220 223
194 1 223 220 221
195 2 224 221 225
196 1 227 228 231
197 1 227 228 232
198 1 229 227 228
199 2 229 227 230
200 1 230 227 228
201 2 231 228 232
202 1 234 235 238
203 1 234 235 239
204 1 236 234 235
205 2 236 234 237
206 1 237 234 235
207 2 238 235 239
208 1 241 242 245
209 1 241 242 246
210 1 243 241 242
211 2 243 241 244
212 1 244 241 242
213 2 245 242 246
214 1 248 249 252
215 1 248 249 253
216 1 250 248 249
217 2 250 248 251
218 1 251 248 249
219 2 252 249 253
220 1 255 256 259
221 1 255 256 260
222 1 257 255 256
223 2 257 255 258
224 1 258 255 256
225 2 259 256 260
226 1 262 263 266
227 1 262 263 267
228 1 264 262 263
229 2 264 262 265
230 1 265 262 263
231 2 266 263 267
232 1 269 270 273
233 1 269 270 274
234 1 271 269 270
235 2 271 269 272
236 1 272 269 270
237 2 273 270 274
238 1 276 277 280
239 1 276 277 281
240 1 278 276 277
241 2 278 276 279
242 1 279 276 277
243 2 280 277 281
244 1 283 284 287
245 1 283 284 288
246 1 285 283 284
247 2 285 283 286
248 1 286 283 284
249 2 287 284 288
250 1 290 291 294
251 1 290 291 295
252 1 292 290 291
253 2 292 290 293
254 1 293 290 291
255 2 294 291 295
256 1 297 298 301
257 1 297 298 302
258 1 299 297 298
259 2 299 297 300
260 1 300 297 298
261 2 301 298 302
262 1 304 305 308
263 1 304 305 309
264 1 306 304 305
265 2 306 304 307
266 1 307 304 305
267 2 308 305 309
268 1 311 312 315
269 1 311 312 316
270 1 313 311 312
271 2 313 311 314
272 1 314 311 312
273 2 315 312 316
274 1 318 319 322
275 1 318 319 323
276 1 320 318 319
277 2 320 318 321
278 1 321 318 319
279 2 322 319 323
280 1 325 326 329
281 1 325 326 330
282 1 327 325 326
283 2 327 325 328
284 1 328 325 326
285 2 329 326 330
286 1 332 333 336
287 1 332 333 337
288 1 334 332 333
289 2 334 332 335
290 1 335 332 333
291 2 336 333 337
292 1 339 340 343
293 1 339 340 344
294 1 341 339 340
295 2 341 339 342
296 1 342 339 340
297 2 343 340 344
298 1 346 347 350
299 1 346 347 351
300 1 346 347 352
301 1 348 346 347
302 2 348 346 349
303 1 349 346 347
304 2 350 347 351
305 2 350 347 352
306 2 351 347 352
307 1 354 355 358
308 1 354 355 359
309 1 354 355 360
310 1 356 354 355
311 2 356 354 357
312 1 357 354 355
313 2 358 355 359
314 2 358 355 360
315 2 359 355 360
316 1 362 363 366
317 1 362 363 367
318 1 364 362 363
319 2 364 362 365
320 1 365 362 363
321 2 366 363 367
322 1 369 370 373
323 1 369 370 374
324 1 371 369 370
325 2 371 369 372
326 1 372 369 370
327 2 373 370 374
328 1 376 377 380
329 1 376 377 381
330 1 378 376 377
331 2 378 376 379
332 1 379 376 377
333 2 380 377 381
334 1 383 384 387
335 1 383 384 388
336 1 385 383 384
337 2 385 383 386
338 1 386 383 384
339 2 387 384 388
340 1 390 391 394
341 1 390 391 395
342 1 392 390 391
343 2 392 390 393
344 1 393 390 391
345 2 394 391 395
346 1 397 398 401
347 1 397 398 402
348 1 399 397 398
349 2 399 397 400
350 1 400 397 398
351 2 401 398 402
352 1 404 405 408
353 1 404 405 409
354 1 406 404 405
355 2 406 404 407
356 1 407 404 405
357 2 408 405 409
358 1 411 412 415
359 1 411 412 416
360 1 413 411 412
361 2 413 411 414
362 1 414 411 412
363 2 415 412 416
364 1 418 419 422
365 1 418 419 423
366 1 420 418 419
367 2 420 418 421
368 1 421 418 419
369 2 422 419 423
370 1 425 426 429
371 1 425 426 430
372 1 427 425 426
373 2 427 425 428
374 1 428 425 426
375 2 429 426 430
376 1 432 433 436
377 1 432 433 437
378 1 434 432 433
379 2 434 432 435
380 1 435 432 433
381 2 436 433 437
382 1 439 440 443
383 1 439 440 444
384 1 441 439 440
385 2 441 439 442
386 1 442 439 440
387 2 443 440 444
388 1 446 447 450
389 1 446 447 451
390 1 448 446 447
391 2 448 446 449
392 1 449 446 447
393 2 450 447 451
394 1 453 454 457
395 1 453 454 458
396 1 455 453 454
397 2 455 453 456
398 1 456 453 454
399 2 457 454 458
400 1 460 461 464
401 1 460 461 465
402 1 462 460 461
403 2 462 460 463
404 1 463 460 461
405 2 464 461 465
406 1 467 468 471
407 1 467 468 472
408 1 469 467 468
409 2 469 467 470
410 1 470 467 468
411 2 471 468 472
412 1 474 475 478
413 1 474 475 479
414 1 476 474 475
415 2 476 474 477
416 1 477 474 475
417 2 478 475 479
418 1 481 482 485
419 1 481 482 486
420 1 483 481 482
421 2 483 481 484
422 1 484 481 482
423 2 485 482 486
424 1 488 489 492
425 1 488 489 493
426 1 490 488 489
427 2 490 488 491
428 1 491 488 489
429 2 492 489 493
430 1 495 496 499
431 1 495 496 500
432 1 497 495 496
433 2 497 495 498
434 1 498 495 496
435 2 499 496 500
436 1 502 503 506
437 1 502 503 507
438 1 504 502 503
439 2 504 502 505
440 1 505 502 503
441 2 506 503 507
442 1 509 510 513
443 1 509 510 514
444 1 511 509 510
445 2 511 509 512
446 1 512 509 510
447 2 513 510 514
448 1 516 517 520
449 1 516 517 521
450 1 518 516 517
451 2 518 516 519
452 1 519 516 517
453 2 520 517 521
454 1 523 524 527
455 1 523 524 528
456 1 525 523 524
457 2 525 523 526
458 1 526 523 524
459 2 527 524 528
460 1 530 531 534
461 1 530 531 535
462 1 532 530 531
463 2 532 530 533
464 1 533 530 531
465 2 534 531 535
466 1 537 538 541
467 1 537 538 542
468 1 539 537 538
469 2 539 537 540
470 1 540 537 538
471 2 541 538 542
472 1 544 545 548
473 1 544 545 549
474 1 546 544 545
475 2 546 544 547
476 1 547 544 545
477 2 548 545 549
478 1 551 552 555
479 1 551 552 556
480 1 553 551 552
481 2 553 551 554
482 1 554 551 552
483 2 555 552 556
484 1 558 559 562
485 1 558 559 563
486 1 560 558 559
487 2 560 558 561
488 1 561 558 559
489 2 562 559 563
490 1 565 566 569
491 1 565 566 570
492 1 567 565 566
493 2 567 565 568
494 1 568 565 566
495 2 569 566 570
496 1 572 573 576
497 1 572 573 577
498 1 574 572 573
499 2 574 572 575
500 1 575 572 573
501 2 576 573 577
502 1 579 580 583
503 1 579 580 584
504 1 581 579 580
505 2 581 579 582
506 1 582 579 580
507 2 583 580 584
508 1 586 587 590
509 1 586 587 591
510 1 588 586 587
511 2 588 586 589
512 1 589 586 587
513 2 590 587 591
514 1 593 594 597
515 1 593 594 598
516 1 595 593 594
517 2 595 593 596
518 1 596 593 594
519 2 597 594 598
520 1 600 601 604
521 1 600 601 605
522 1 602 600 601
523 2 602 600 603
524 1 603 600 601
525 2 604 601 605
526 1 607 608 611
527 1 607 608 612
528 1 609 607 608
529 2 609 607 610
530 1 610 607 608
531 2 611 608 612
532 1 614 615 618
533 1 614 615 619
534 1 616 614 615
535 2 616 614 617
536 1 617 614 615
537 2 618 615 619
538 1 621 622 625
539 1 621 622 626
540 1 623 621 622
541 2 623 621 624
542 1 624 621 622
543 2 625 622 626
544 1 628 629 632
545 1 628 629 633
546 1 630 628 629
547 2 630 628 631
548 1 631 628 629
549 2 632 629 633
550 1 635 636 639
551 1 635 636 640
552 1 637 635 636
553 2 637 635 638
554 1 638 635 636
555 2 639 636 640
556 1 642 643 646
557 1 642 643 647
558 1 644 642 643
559 2 644 642 645
560 1 645 642 643
561 2 646 643 647
562 1 649 650 653
563 1 649 650 654
564 1 651 649 650
565 2 651 649 652
566 1 652 649 650
567 2 653 650 654
568 1 656 657 660
569 1 656 657 661
570 1 658 656 657
571 2 658 656 659
572 1 659 656 657
573 2 660 657 661
574 1 663 664 667
575 1 663 664 668
576 1 665 663 664
577 2 665 663 666
578 1 666 663 664
579 2 667 664 668
580 1 670 671 674
581 1 670 671 675
582 1 672 670 671
583 2 672 670 673
584 1 673 670 671
585 2 674 671 675
586 1 677 678 681
587 1 677 678 682
588 1 679 677 678
589 2 679 677 680
590 1 680 677 678
591 2 681 678 682
592 1 684 685 688
593 1 684 685 689
594 1 686 684 685
595 2 686 684 687
596 1 687 684 685
597 2 688 685 689
598 1 691 692 695
599 1 691 692 696
600 1 693 691 692
601 2 693 691 694
602 1 694 691 692
603 2 695 692 696
604 1 698 699 702
605 1 698 699 703
606 1 698 699 704
607 1 700 698 699
608 2 700 698 701
609 1 701 698 699
610 2 702 699 703
611 2 702 699 704
612 2 703 699 704
613 1 706 707 710
614 1 706 707 711
615 1 706 707 712
616 1 708 706 707
617 2 708 706 709
618 1 709 706 707
619 2 710 707 711
620 2 710 707 712
621 2 711 707 712
622 1 714 715 718
623 1 714 715 719
624 1 716 714 715
625 2 716 714 717
626 1 717 714 715
627 2 718 715 719
628 1 721 722 725
629 1 721 722 726
630 1 723 721 722
631 2 723 721 724
632 1 724 721 722
633 2 725 722 726
634 1 728 729 732
635 1 728 729 733
636 1 730 728 729
637 2 730 728 731
638 1 731 728 729
639 2 732 729 733
640 1 735 736 739
641 1 735 736 740
642 1 737 735 736
643 2 737 735 738
644 1 738 735 736
645 2 739 736 740
646 1 742 743 746
647 1 742 743 747
648 1 744 742 743
649 2 744 742 745
650 1 745 742 743
651 2 746 743 747
652 1 749 750 753
653 1 749 750 754
654 1 751 749 750
655 2 751 749 752
656 1 752 749 750
657 2 753 750 754
658 1 756 757 760
659 1 756 757 761
660 1 758 756 757
661 2 758 756 759
662 1 759 756 757
663 2 760 757 761
664 1 763 764 767
665 1 763 764 768
666 1 765 763 764
667 2 765 763 766
668 1 766 763 764
669 2 767 764 768
670 1 770 771 774
671 1 770 771 775
672 1 772 770 771
673 2 772 770 773
674 1 773 770 771
675 2 774 771 775
676 1 777 778 781
677 1 777 778 782
678 1 779 777 778
679 2 779 777 780
680 1 780 777 778
681 2 781 778 782
682 1 784 785 788
683 1 784 785 789
684 1 786 784 785
685 2 786 784 787
686 1 787 784 785
687 2 788 785 789
688 1 791 792 795
689 1 791 792 796
690 1 793 791 792
691 2 793 791 794
692 1 794 791 792
693 2 795 792 796
694 1 798 799 802
695 1 798 799 803
696 1 800 798 799
697 2 800 798 801
698 1 801 798 799
699 2 802 799 803
700 1 805 806 809
701 1 805 806 810
702 1 807 805 806
703 2 807 805 808
704 1 808 805 806
705 2 809 806 810
706 1 812 813 816
707 1 812 813 817
708 1 814 812 813
709 2 814 812 815
710 1 815 812 813
711 2 816 813 817
712 1 819 820 823
713 1 819 820 824
714 1 821 819 820
715 2 821 819 822
716 1 822 819 820
717 2 823 820 824
718 1 826 827 830
719 1 826 827 831
720 1 828 826 827
721 2 828 826 829
722 1 829 826 827
723 2 830 827 831
724 1 833 834 837
725 1 833 834 838
726 1 835 833 834
727 2 835 833 836
728 1 836 833 834
729 2 837 834 838
730 1 840 841 844
731 1 840 841 845
732 1 842 840 841
733 2 842 840 843
734 1 843 840 841
735 2 844 841 845
736 1 847 848 851
737 1 847 848 852
738 1 849 847 848
739 2 849 847 850
740 1 850 847 848
741 2 851 848 852
742 1 854 855 858
743 1 854 855 859
744 1 856 854 855
745 2 856 854 857
746 1 857 854 855
747 2 858 855 859
748 1 861 862 865
749 1 861 862 866
750 1 863 861 862
751 2 863 861 864
752 1 864 861 862
753 2 865 862 866
754 1 868 869 872
755 1 868 869 873
756 1 870 868 869
757 2 870 868 871
758 1 871 868 869
759 2 872 869 873
760 1 875 876 879
761 1 875 876 880
762 1 877 875 876
763 2 877 875 878
764 1 878 875 876
765 2 879 876 880
766 1 882 883 886
767 1 882 883 887
768 1 884 882 883
769 2 884 882 885
770 1 885 882 883
771 2 886 883 887
772 1 889 890 893
773 1 889 890 894
774 1 891 889 890
775 2 891 889 892
776 1 892 889 890
777 2 893 890 894
778 1 896 897 900
779 1 896 897 901
780 1 898 896 897
781 2 898 896 899
782 1 899 896 897
783 2 900 897 901
784 1 903 904 907
785 1 903 904 908
786 1 905 903 904
787 2 905 903 906
788 1 906 903 904
789 2 907 904 908
790 1 910 911 914
791 1 910 911 915
792 1 912 910 911
793 2 912 910 913
794 1 913 910 911
795 2 914 911 915
796 1 917 918 921
797 1 917 918 922
798 1 919 917 918
799 2 919 917 920
800 1 920 917 918
801 2 921 918 922
802 1 924 925 928
803 1 924 925 929
804 1 926 924 925
805 2 926 924 927
806 1 927 924 925
807 2 928 925 929
808 1 931 932 935
809 1 931 932 936
810 1 933 931 932
811 2 933 931 934
812 1 934 931 932
813 2 935 932 936
814 1 938 939 942
815 1 938 939 943
816 1 940 938 939
817 2 940 938 941
818 1 941 938 939
819 2 942 939 943
820 1 945 946 949
821 1 945 946 950
822 1 947 945 946
823 2 947 945 948
824 1 948 945 946
825 2 949 946 950
826 1 952 953 956
827 1 952 953 957
828 1 954 952 953
829 2 954 952 955
830 1 955 952 953
831 2 956 953 957
832 1 959 960 963
833 1 959 960 964
834 1 961 959 960
835 2 961 959 962
836 1 962 959 960
837 2 963 960 964
838 1 966 967 970
839 1 966 967 971
840 1 968 966 967
841 2 968 966 969
842 1 969 966 967
843 2 970 967 971
844 1 973 974 977
845 1 973 974 978
846 1 975 973 974
847 2 975 973 976
848 1 976 973 974
849 2 977 974 978
850 1 980 981 984
851 1 980 981 985
852 1 982 980 981
853 2 982 980 983
854 1 983 980 981
855 2 984 981 985
856 1 987 988 991
857 1 987 988 992
858 1 989 987 988
859 2 989 987 990
860 1 990 987 988
861 2 991 988 992
862 1 994 995 998
863 1 994 995 999
864 1 996 994 995
865 2 996 994 997
866 1 997 994 995
867 2 998 995 999
868 1 1001 1002 1005
869 1 1001 1002 1006
870 1 1003 1001 1002
871 2 1003 1001 1004
872 1 1004 1001 1002
873 2 1005 1002 1006
874 1 1008 1009 1012
875 1 1008 1009 1013
876 1 1010 1008 1009
877 2 1010 1008 1011
878 1 1011 1008 1009
879 2 1012 1009 1013
880 1 1015 1016 1019
881 1 1015 1016 1020
882 1 1017 1015 1016
883 2 1017 1015 1018
884 1 1018 1015 1016
885 2 1019 1016 1020
886 1 1022 1023 1026
887 1 1022 1023 1027
888 1 1024 1022 1023
889 2 1024 1022 1025
890 1 1025 1022 1023
891 2 1026 1023 1027
892 1 1029 1030 1033
893 1 1029 1030 1034
894 1 1031 1029 1030
895 2 1031 1029 1032
896 1 1032 1029 1030
897 2 1033 1030 1034
898 1 1036 1037 1040
899 1 1036 1037 1041
900 1 1038 1036 1037
901 2 1038 1036 1039
902 1 1039 1036 1037
903 2 1040 1037 1041
904 1 1043 1044 1047
905 1 1043 1044 1048
906 1 1045 1043 1044
907 2 1045 1043 1046
908 1 1046 1043 1044
909 2 1047 1044 1048
910 1 1050 1051 1054
911 1 1050 1051 1055
912 1 1050 1051 1056
913 1 1052 1050 1051
914 2 1052 1050 1053
915 1 1053 1050 1051
916 2 1054 1051 1055
917 2 1054 1051 1056
918 2 1055 1051 1056
919 1 1058 1059 1062
920 1 1058 1059 1063
921 1 1058 1059 1064
922 1 1060 1058 1059
923 2 1060 1058 1061
924 1 1061 1058 1059
925 2 1062 1059 1063
926 2 1062 1059 1064
927 2 1063 1059 1064
928 1 1066 1067 1070
929 1 1066 1067 1071
930 1 1068 1066 1067
931 2 1068 1066 1069
932 1 1069 1066 1067
933 2 1070 1067 1071
934 1 1073 1074 1077
935 1 1073 1074 1078
936 1 1075 1073 1074
937 2 1075 1073 1076
938 1 1076 1073 1074
939 2 1077 1074 1078
940 1 1080 1081 1084
941 1 1080 1081 1085
942 1 1082 1080 1081
943 2 1082 1080 1083
944 1 1083 1080 1081
945 2 1084 1081 1085
946 1 1087 1088 1091
947 1 1087 1088 1092
948 1 1089 1087 1088
949 2 1089 1087 1090
950 1 1090 1087 1088
951 2 1091 1088 1092
952 1 1094 1095 1098
953 1 1094 1095 1099
954 1 1096 1094 1095
955 2 1096 1094 1097
956 1 1097 1094 1095
957 2 1098 1095 1099
958 1 1101 1102 1105
959 1 1101 1102 1106
960 1 1103 1101 1102
961 2 1103 1101 1104
962 1 1104 1101 1102
963 2 1105 1102 1106
964 1 1108 1109 1112
965 1 1108 1109 1113
966 1 1110 1108 1109
967 2 1110 1108 1111
968 1 1111 1108 1109
969 2 1112 1109 1113
970 1 1115 1116 1119
971 1 1115 1116 1120
972 1 1117 1115 1116
973 2 1117 1115 1118
974 1 1118 1115 1116
975 2 1119 1116 1120
976 1 1122 1123 1126
977 1 1122 1123 1127
978 1 1124 1122 1123
979 2 1124 1122 1125
980 1 1125 1122 1123
981 2 1126 1123 1127
982 1 1129 1130 1133
983 1 1129 1130 1134
984 1 1131 1129 1130
985 2 1131 1129 1132
986 1 1132 1129 1130
987 2 1133 1130 1134
988 1 1136 1137 1140
989 1 1136 1137 1141
990 1 1138 1136 1137
991 2 1138 1136 1139
992 1 1139 1136 1137
993 2 1140 1137 1141
994 1 1143 1144 1147
995 1 1143 1144 1148
996 1 1145 1143 1144
997 2 1145 1143 1146
998 1 1146 1143 1144
999 2 1147 1144 1148
1000 1 1150 1151 1154
1001 1 1150 1151 1155
1002 1 1152 1150 1151
1003 2 1152 1150 1153
1004 1 1153 1150 1151
1005 2 1154 1151 1155
1006 1 1157 1158 1161
1007 1 1157 1158 1162
1008 1 1159 1157 1158
1009 2 1159 1157 1160
1010 1 1160 1157 1158
1011 2 1161 1158 1162
1012 1 1164 1165 1168
1013 1 1164 1165 1169
1014 1 1166 1164 1165
1015 2 1166 1164 1167
1016 1 1167 1164 1165
1017 2 1168 1165 1169
1018 1 1171 1172 1175
1019 1 1171 1172 1176
1020 1 1173 1171 1172
1021 2 1173 1171 1174
1022 1 1174 1171 1172
1023 2 1175 1172 1176
1024 1 1178 1179 1182
1025 1 1178 1179 1183
1026 1 1180 1178 1179
1027 2 1180 1178 1181
1028 1 1181 1178 1179
1029 2 1182 1179 1183
1030 1 1185 1186 1189
1031 1 1185 1186 1190
1032 1 1187 1185 1186
1033 2 1187 1185 1188
1034 1 1188 1185 1186
1035 2 1189 1186 1190
1036 1 1192 1193 1196
1037 1 1192 1193 1197
1038 1 1194 1192 1193
1039 2 1194 1192 1195
1040 1 1195 1192 1193
1041 2 1196 1193 1197
1042 1 1199 1200 1203
1043 1 1199 1200 1204
1044 1 1201 1199 1200
1045 2 1201 1199 1202
1046 1 1202 1199 1200
1047 2 1203 1200 1204
1048 1 1206 1207 1210
1049 1 1206 1207 1211
1050 1 1208 1206 1207
1051 2 1208 1206 1209
1052 1 1209 1206 1207
1053 2 1210 1207 1211
1054 1 1213 1214 1217
1055 1 1213 1214 1218
1056 1 1215 1213 1214
1057 2 1215 1213 1216
1058 1 1216 1213 1214
1059 2 1217 1214 1218
1060 1 1220 1221 1224
1061 1 1220 1221 1225
1062 1 1222 1220 1221
1063 2 1222 1220 1223
1064 1 1223 1220 1221
1065 2 1224 1221 1225
1066 1 1227 1228 1231
1067 1 1227 1228 1232
1068 1 1229 1227 1228
1069 2 1229 1227 1230
1070 1 1230 1227 1228
1071 2 1231 1228 1232
1072 1 1234 1235 1238
1073 1 1234 1235 1239
1074 1 1236 1234 1235
1075 2 1236 1234 1237
1076 1 1237 1234 1235
1077 2 1238 1235 1239
1078 1 1241 1242 1245
1079 1 1241 1242 1246
1080 1 1243 1241 1242
1081 2 1243 1241 1244
1082 1 1244 1241 1242
1083 2 1245 1242 1246
1084 1 1248 1249 1252
1085 1 1248 1249 1253
1086 1 1250 1248 1249
1087 2 1250 1248 1251
1088 1 1251 1248 1249
1089 2 1252 1249 1253
1090 1 1255 1256 1259
1091 1 1255 1256 1260
1092 1 1257 1255 1256
1093 2 1257 1255 1258
1094 1 1258 1255 1256
1095 2 1259 1256 1260
1096 1 1262 1263 1266
1097 1 1262 1263 1267
1098 1 1264 1262 1263
1099 2 1264 1262 1265
1100 1 1265 1262 1263
1101 2 1266 1263 1267
1102 1 1269 1270 1273
1103 1 1269 1270 1274
1104 1 1271 1269 1270
1105 2 1271 1269 1272
1106 1 1272 1269 1270
1107 2 1273 1270 1274
1108 1 1276 1277 1280
1109 1 1276 1277 1281
1110 1 1278 1276 1277
1111 2 1278 1276 1279
1112 1 1279 1276 1277
1113 2 1280 1277 1281
1114 1 1283 1284 1287
1115 1 1283 1284 1288
1116 1 1285 1283 1284
1117 2 1285 1283 1286
1118 1 1286 1283 1284
1119 2 1287 1284 1288
1120 1 1290 1291 1294
1121 1 1290 1291 1295
1122 1 1292 1290 1291
1123 2 1292 1290 1293
1124 1 1293 1290 1291
1125 2 1294 1291 1295
1126 1 1297 1298 1301
1127 1 1297 1298 1302
1128 1 1299 1297 1298
1129 2 1299 1297 1300
1130 1 1300 1297 1298
1131 2 1301 1298 1302
1132 1 1304 1305 1308
1133 1 1304 1305 1309
1134 1 1306 1304 1305
1135 2 1306 1304 1307
1136 1 1307 1304 1305
1137 2 1308 1305 1309
1138 1 1311 1312 1315
1139 1 1311 1312 1316
1140 1 1313 1311 1312
1141 2 1313 1311 1314
1142 1 1314 1311 1312
1143 2 1315 1312 1316
1144 1 1318 1319 1322
1145 1 1318 1319 1323
1146 1 1320 1318 1319
1147 2 1320 1318 1321
1148 1 1321 1318 1319
1149 2 1322 1319 1323
1150 1 1325 1326 1329
1151 1 1325 1326 1330
1152 1 1327 1325 1326
1153 2 1327 1325 1328
1154 1 1328 1325 1326
1155 2 1329 1326 1330
1156 1 1332 1333 1336
1157 1 1332 1333 1337
1158 1 1334 1332 1333
1159 2 1334 1332 1335
1160 1 1335 1332 1333
1161 2 1336 1333 1337
1162 1 1339 1340 1343
1163 1 1339 1340 1344
1164 1 1341 1339 1340
1165 2 1341 1339 1342
1166 1 1342 1339 1340
1167 2 1343 1340 1344
1168 1 1346 1347 1350
1169 1 1346 1347 1351
1170 1 1348 1346 1347
1171 2 1348 1346 1349
1172 1 1349 1346 1347
1173 2 1350 1347 1351
1174 1 1353 1354 1357
1175 1 1353 1354 1358
1176 1 1355 1353 1354
1177 2 1355 1353 1356
1178 1 1356 1353 1354
1179 2 1357 1354 1358
1180 1 1360 1361 1364
1181 1 1360 1361 1365
1182 1 1362 1360 1361
1183 2 1362 1360 1363
1184 1 1363 1360 1361
1185 2 1364 1361 1365
1186 1 1367 1368 1371
1187 1 1367 1368 1372
1188 1 1369 1367 1368
1189 2 1369 1367 1370
1190 1 1370 1367 1368
1191 2 1371 1368 1372
1192 1 1374 1375 1378
1193 1 1374 1375 1379
1194 1 1376 1374 1375
1195 2 1376 1374 1377
1196 1 1377 1374 1375
1197 2 1378 1375 1379
1198 1 1381 1382 1385
1199 1 1381 1382 1386
1200 1 1383 1381 1382
1201 2 1383 1381 1384
1202 1 1384 1381 1382
1203 2 1385 1382 1386
1204 1 1388 1389 1392
1205 1 1388 1389 1393
1206 1 1390 1388 1389
1207 2 1390 1388 1391
1208 1 1391 1388 1389
1209 2 1392 1389 1393
1210 1 1395 1396 1399
1211 1 1395 1396 1400
1212 1 1397 1395 1396
1213 2 1397 1395 1398
1214 1 1398 1395 1396
1215 2 1399 1396 1400
1216 1 1402 1403 1406
1217 1 1402 1403 1407
1218 1 1402 1403 1408
1219 1 1404 1402 1403
1220 2 1404 1402 1405
1221 1 1405 1402 1403
1222 2 1406 1403 1407
1223 2 1406 1403 1408
1224 2 1407 1403 1408
1225 1 1410 1411 1414
1226 1 1410 1411 1415
1227 1 1410 1411 1416
1228 1 1412 1410 1411
1229 2 1412 1410 1413
1230 1 1413 1410 1411
1231 2 1414 1411 1415
1232 2 1414 1411 1416
1233 2 1415 1411 1416
1234 1 1418 1419 1422
1235 1 1418 1419 1423
1236 1 1420 1418 1419
1237 2 1420 1418 1421
1238 1 1421 1418 1419
1239 2 1422 1419 1423
1240 1 1425 1426 1429
1241 1 1425 1426 1430
1242 1 1427 1425 1426
1243 2 1427 1425 1428
1244 1 1428 1425 1426
1245 2 1429 1426 1430
1246 1 1432 1433 1436
1247 1 1432 1433 1437
1248 1 1434 1432 1433
1249 2 1434 1432 1435
1250 1 1435 1432 1433
1251 2 1436 1433 1437
1252 1 1439 1440 1443
1253 1 1439 1440 1444
1254 1 1441 1439 1440
1255 2 1441 1439 1442
1256 1 1442 1439 1440
1257 2 1443 1440 1444
1258 1 1446 1447 1450
1259 1 1446 1447 1451
1260 1 1448 1446 1447
1261 2 1448 1446 1449
1262 1 1449 1446 1447
1263 2 1450 1447 1451
1264 1 1453 1454 1457
1265 1 1453 1454 1458
1266 1 1455 1453 1454
1267 2 1455 1453 1456
1268 1 1456 1453 1454
1269 2 1457 1454 1458
1270 1 1460 1461 1464
1271 1 1460 1461 1465
1272 1 1462 1460 1461
1273 2 1462 1460 1463
1274 1 1463 1460 1461
1275 2 1464 1461 1465
1276 1 1467 1468 1471
1277 1 1467 1468 1472
1278 1 1469 1467 1468
1279 2 1469 1467 1470
1280 1 1470 1467 1468
1281 2 1471 1468 1472
1282 1 1474 1475 1478
1283 1 1474 1475 1479
1284 1 1476 1474 1475
1285 2 1476 1474 1477
1286 1 1477 1474 1475
1287 2 1478 1475 1479
1288 1 1481 1482 1485
1289 1 1481 1482 1486
1290 1 1483 1481 1482
1291 2 1483 1481 1484
1292 1 1484 1481 1482
1293 2 1485 1482 1486
1294 1 1488 1489 1492
1295 1 1488 1489 1493
1296 1 1490 1488 1489
1297 2 1490 1488 1491
1298 1 1491 1488 1489
1299 2 1492 1489 1493
1300 1 1495 1496 1499
1301 1 1495 1496 1500
1302 1 1497 1495 1496
1303 2 1497 1495 1498
1304 1 1498 1495 1496
1305 2 1499 1496 1500
1306 1 1502 1503 1506
1307 1 1502 1503 1507
1308 1 1504 1502 1503
1309 2 1504 1502 1505
1310 1 1505 1502 1503
1311 2 1506 1503 1507
1312 1 1509 1510 1513
1313 1 1509 1510 1514
1314 1 1511 1509 1510
1315 2 1511 1509 1512
1316 1 1512 1509 1510
1317 2 1513 1510 1514
1318 1 1516 1517 1520
1319 1 1516 1517 1521
1320 1 1518 1516 1517
1321 2 1518 1516 1519
1322 1 1519 1516 1517
1323 2 1520 1517 1521
1324 1 1523 1524 1527
1325 1 1523 1524 1528
1326 1 1525 1523 1524
1327 2 1525 1523 1526
1328 1 1526 1523 1524
1329 2 1527 1524 1528
1330 1 1530 1531 1534
1331 1 1530 1531 1535
1332 1 1532 1530 1531
1333 2 1532 1530 1533
1334 1 1533 1530 1531
1335 2 1534 1531 1535
1336 1 1537 1538 1541
1337 1 1537 1538 1542
1338 1 1539 1537 1538
1339 2 1539 1537 1540
1340 1 1540 1537 1538
1341 2 1541 1538 1542
1342 1 1544 1545 1548
1343 1 1544 1545 1549
1344 1 1546 1544 1545
1345 2 1546 1544 1547
1346 1 1547 1544 1545
1347 2 1548 1545 1549
1348 1 1551 1552 1555
1349 1 1551 1552 1556
1350 1 1553 1551 1552
1351 2 1553 1551 1554
1352 1 1554 1551 1552
1353 2 1555 1552 1556
1354 1 1558 1559 1562
1355 1 1558 1559 1563
1356 1 1560 1558 1559
1357 2 1560 1558 1561
1358 1 1561 1558 1559
1359 2 1562 1559 1563
1360 1 1565 1566 1569
1361 1 1565 1566 1570
1362 1 1567 1565 1566
1363 2 1567 1565 1568
1364 1 1568 1565 1566
1365 2 1569 1566 1570
1366 1 1572 1573 1576
1367 1 1572 1573 1577
1368 1 1574 1572 1573
1369 2 1574 1572 1575
1370 1 1575 1572 1573
1371 2 1576 1573 1577
1372 1 1579 1580 1583
1373 1 1579 1580 1584
1374 1 1581 1579 1580
1375 2 1581 1579 1582
1376 1 1582 1579 1580
1377 2 1583 1580 1584
1378 1 1586 1587 1590
1379 1 1586 1587 1591
1380 1 1588 1586 1587
1381 2 1588 1586 1589
1382 1 1589 1586 1587
1383 2 1590 1587 1591
1384 1 1593 1594 1597
1385 1 1593 1594 1598
1386 1 1595 1593 1594
1387 2 1595 1593 1596
1388 1 1596 1593 1594
1389 2 1597 1594 1598
1390 1 1600 1601 1604
1391 1 1600 1601 1605
1392 1 1602 1600 1601
1393 2 1602 1600 1603
1394 1 1603 1600 1601
1395 2 1604 1601 1605
1396 1 1607 1608 1611
1397 1 1607 1608 1612
1398 1 1609 1607 1608
1399 2 1609 1607 1610
1400 1 1610 1607 1608
1401 2 1611 1608 1612
1402 1 1614 1615 1618
1403 1 1614 1615 1619
1404 1 1616 1614 1615
1405 2 1616 1614 1617
1406 1 1617 1614 1615
1407 2 1618 1615 1619
1408 1 1621 1622 1625
1409 1 1621 1622 1626
1410 1 1623 1621 1622
1411 2 1623 1621 1624
1412 1 1624 1621 1622
1413 2 1625 1622 1626
1414 1 1628 1629 1632
1415 1 1628 1629 1633
1416 1 1630 1628 1629
1417 2 1630 1628 1631
1418 1 1631 1628 1629
1419 2 1632 1629 1633
1420 1 1635 1636 1639
1421 1 1635 1636 1640
1422 1 1637 1635 1636
1423 2 1637 1635 1638
1424 1 1638 1635 1636
1425 2 1639 1636 1640
1426 1 1642 1643 1646
1427 1 1642 1643 1647
1428 1 1644 1642 1643
1429 2 1644 1642 1645
1430 1 1645 1642 1643
1431 2 1646 1643 1647
1432 1 1649 1650 1653
1433 1 1649 1650 1654
1434 1 1651 1649 1650
1435 2 1651 1649 1652
1436 1 1652 1649 1650
1437 2 1653 1650 1654
1438 1 1656 1657 1660
1439 1 1656 1657 1661
1440 1 1658 1656 1657
1441 2 1658 1656 1659
1442 1 1659 1656 1657
1443 2 1660 1657 1661
1444 1 1663 1664 1667
1445 1 1663 1664 1668
1446 1 1665 1663 1664
1447 2 1665 1663 1666
1448 1 1666 1663 1664
1449 2 1667 1664 1668
1450 1 1670 1671 1674
1451 1 1670 1671 1675
1452 1 1672 1670 1671
1453 2 1672 1670 1673
1454 1 1673 1670 1671
1455 2 1674 1671 1675
1456 1 1677 1678 1681
1457 1 1677 1678 1682
1458 1 1679 1677 1678
1459 2 1679 1677 1680
1460 1 1680 1677 1678
1461 2 1681 1678 1682
1462 1 1684 1685 1688
1463 1 1684 1685 1689
1464 1 1686 1684 1685
1465 2 1686 1684 1687
1466 1 1687 1684 1685
1467 2 1688 1685 1689
1468 1 1691 1692 1695
1469 1 1691 1692 1696
1470 1 1693 1691 1692
1471 2 1693 1691 1694
1472 1 1694 1691 1692
1473 2 1695 1692 1696
1474 1 1698 1699 1702
1475 1 1698 1699 1703
1476 1 1700 1698 1699
1477 2 1700 1698 1701
1478 1 1701 1698 1699
1479 2 1702 1699 1703
1480 1 1705 1706 1709
1481 1 1705 1706 1710
1482 1 1707 1705 1706
1483 2 1707 1705 1708
1484 1 1708 1705 1706
1485 2 1709 1706 1710
1486 1 1712 1713 1716
1487 1 1712 1713 1717
1488 1 1714 1712 1713
1489 2 1714 1712 1715
1490 1 1715 1712 1713
1491 2 1716 1713 1717
1492 1 1719 1720 1723
1493 1 1719 1720 1724
1494 1 1721 1719 1720
1495 2 1721 1719 1722
1496 1 1722 1719 1720
1497 2 1723 1720 1724
1498 1 1726 1727 1730
1499 1 1726 1727 1731
1500 1 1728 1726 1727
1501 2 1728 1726 1729
1502 1 1729 1726 1727
1503 2 1730 1727 1731
1504 1 1733 1734 1737
1505 1 1733 1734 1738
1506 1 1735 1733 1734
1507 2 1735 1733 1736
1508 1 1736 1733 1734
1509 2 1737 1734 1738
1510 1 1740 1741 1744
1511 1 1740 1741 1745
1512 1 1742 1740 1741
1513 2 1742 1740 1743
1514 1 1743 1740 1741
1515 2 1744 1741 1745
1516 1 1747 1748 1751
1517 1 1747 1748 1752
1518 1 1749 1747 1748
1519 2 1749 1747 1750
1520 1 1750 1747 1748
1521 2 1751 1748 1752
1522 1 1754 1755 1758
1523 1 1754 1755 1759
1524 1 1754 1755 1760
1525 1 1756 1754 1755
1526 2 1756 1754 1757
1527 1 1757 1754 1755
1528 2 1758 1755 1759
1529 2 1758 1755 1760
1530 2 1759 1755 1760
1531 1 1762 1763 1766
1532 1 1762 1763 1767
1533 1 1762 1763 1768
1534 1 1764 1762 1763
1535 2 1764 1762 1765
1536 1 1765 1762 1763
1537 2 1766 1763 1767
1538 2 1766 1763 1768
1539 2 1767 1763 1768
1540 1 1770 1771 1774
1541 1 1770 1771 1775
1542 1 1772 1770 1771
1543 2 1772 1770 1773
1544 1 1773 1770 1771
1545 2 1774 1771 1775
1546 1 1777 1778 1781
1547 1 1777 1778 1782
1548 1 1779 1777 1778
1549 2 1779 1777 1780
1550 1 1780 1777 1778
1551 2 1781 1778 1782
1552 1 1784 1785 1788
1553 1 1784 1785 1789
1554 1 1786 1784 1785
1555 2 1786 1784 1787
1556 1 1787 1784 1785
1557 2 1788 1785 1789
1558 1 1791 1792 1795
1559 1 1791 1792 1796
1560 1 1793 1791 1792
1561 2 1793 1791 1794
1562 1 1794 1791 1792
1563 2 1795 1792 1796
1564 1 1798 1799 1802
1565 1 1798 1799 1803
1566 1 1800 1798 1799
1567 2 1800 1798 1801
1568 1 1801 1798 1799
1569 2 1802 1799 1803
1570 1 1805 1806 1809
1571 1 1805 1806 1810
1572 1 1807 1805 1806
1573 2 1807 1805 1808
1574 1 1808 1805 1806
1575 2 1809 1806 1810
1576 1 1812 1813 1816
1577 1 1812 1813 1817
1578 1 1814 1812 1813
1579 2 1814 1812 1815
1580 1 1815 1812 1813
1581 2 1816 1813 1817
1582 1 1819 1820 1823
1583 1 1819 1820 1824
1584 1 1821 1819 1820
1585 2 1821 1819 1822
1586 1 1822 1819 1820
1587 2 1823 1820 1824
1588 1 1826 1827 1830
1589 1 1826 1827 1831
1590 1 1828 1826 1827
1591 2 1828 1826 1829
1592 1 1829 1826 1827
1593 2 1830 1827 1831
1594 1 1833 1834 1837
1595 1 1833 1834 1838
1596 1 1835 1833 1834
1597 2 1835 1833 1836
1598 1 1836 1833 1834
1599 2 1837 1834 1838
1600 1 1840 1841 1844
1601 1 1840 1841 1845
1602 1 1842 1840 1841
1603 2 1842 1840 1843
1604 1 1843 1840 1841
1605 2 1844 1841 1845
1606 1 1847 1848 1851
1607 1 1847 1848 1852
1608 1 1849 1847 1848
1609 2 1849 1847 1850
1610 1 1850 1847 1848
1611 2 1851 1848 1852
1612 1 1854 1855 1858
1613 1 1854 1855 1859
1614 1 1856 1854 1855
1615 2 1856 1854 1857
1616 1 1857 1854 1855
1617 2 1858 1855 1859
1618 1 1861 1862 1865
1619 1 1861 1862 1866
1620 1 1863 1861 1862
1621 2 1863 1861 1864
1622 1 1864 1861 1862
1623 2 1865 1862 1866
1624 1 1868 1869 1872
1625 1 1868 1869 1873
1626 1 1870 1868 1869
1627 2 1870 1868 1871
1628 1 1871 1868 1869
1629 2 1872 1869 1873
1630 1 1875 1876 1879
1631 1 1875 1876 1880
1632 1 1877 1875 1876
1633 2 1877 1875 1878
1634 1 1878 1875 1876
1635 2 1879 1876 1880
1636 1 1882 1883 1886
1637 1 1882 1883 1887
1638 1 1884 1882 1883
1639 2 1884 1882 1885
1640 1 1885 1882 1883
1641 2 1886 1883 1887
1642 1 1889 1890 1893
1643 1 1889 1890 1894
1644 1 1891 1889 1890
1645 2 1891 1889 1892
1646 1 1892 1889 1890
1647 2 1893 1890 1894
1648 1 1896 1897 1900
1649 1 1896 1897 1901
1650 1 1898 1896 1897
1651 2 1898 1896 1899
1652 1 1899 1896 1897
1653 2 1900 1897 1901
1654 1 1903 1904 1907
1655 1 1903 1904 1908
1656 1 1905 1903 1904
1657 2 1905 1903 1906
1658 1 1906 1903 1904
1659 2 1907 1904 1908
1660 1 1910 1911 1914
1661 1 1910 1911 1915
1662 1 1912 1910 1911
1663 2 1912 1910 1913
1664 1 1913 1910 1911
1665 2 1914 1911 1915
1666 1 1917 1918 1921
1667 1 1917 1918 1922
1668 1 1919 1917 1918
1669 2 1919 1917 1920
1670 1 1920 1917 1918
1671 2 1921 1918 1922
1672 1 1924 1925 1928
1673 1 1924 1925 1929
1674 1 1926 1924 1925
1675 2 1926 1924 1927
1676 1 1927 1924 1925
1677 2 1928 1925 1929
1678 1 1931 1932 1935
1679 1 1931 1932 1936
1680 1 1933 1931 1932
1681 2 1933 1931 1934
1682 1 1934 1931 1932
1683 2 1935 1932 1936
1684 1 1938 1939 1942
1685 1 1938 1939 1943
1686 1 1940 1938 1939
1687 2 1940 1938 1941
1688 1 1941 1938 1939
1689 2 1942 1939 1943
1690 1 1945 1946 1949
1691 1 1945 1946 1950
1692 1 1947 1945 1946
1693 2 1947 1945 1948
1694 1 1948 1945 1946
1695 2 1949 1946 1950
1696 1 1952 1953 1956
1697 1 1952 1953 1957
1698 1 1954 1952 1953
1699 2 1954 1952 1955
1700 1 1955 1952 1953
1701 2 1956 1953 1957
1702 1 1959 1960 1963
1703 1 1959 1960 1964
1704 1 1961 1959 1960
1705 2 1961 1959 1962
1706 1 1962 1959 1960
1707 2 1963 1960 1964
1708 1 1966 1967 1970
1709 1 1966 1967 1971
1710 1 1968 1966 1967
1711 2 1968 1966 1969
1712 1 1969 1966 1967
1713 2 1970 1967 1971
1714 1 1973 1974 1977
1715 1 1973 1974 1978
1716 1 1975 1973 1974
1717 2 1975 1973 1976
1718 1 1976 1973 1974
1719 2 1977 1974 1978
1720 1 1980 1981 1984
1721 1 1980 1981 1985
1722 1 1982 1980 1981
1723 2 1982 1980 1983
1724 1 1983 1980 1981
1725 2 1984 1981 1985
1726 1 1987 1988 1991
1727 1 1987 1988 1992
1728 1 1989 1987 1988
1729 2 1989 1987 1990
1730 1 1990 1987 1988
1731 2 1991 1988 1992
1732 1 1994 1995 1998
1733 1 1994 1995 1999
1734 1 1996 1994 1995
1735 2 1996 1994 1997
1736 1 1997 1994 1995
1737 2 1998 1995 1999
1738 1 2001 2002 2005
1739 1 2001 2002 2006
1740 1 2003 2001 2002
1741 2 2003 2001 2004
1742 1 2004 2001 2002
1743 2 2005 2002 2006
1744 1 2008 2009 2012
1745 1 2008 2009 2013
1746 1 2010 2008 2009
1747 2 2010 2008 2011
1748 1 2011 2008 2009
1749 2 2012 2009 2013
1750 1 2015 2016 2019
1751 1 2015 2016 2020
1752 1 2017 2015 2016
1753 2 2017 2015 2018
1754 1 2018 2015 2016
1755 2 2019 2016 2020
1756 1 2022 2023 2026
1757 1 2022 2023 2027
1758 1 2024 2022 2023
1759 2 2024 2022 2025
1760 1 2025 2022 2023
1761 2 2026 2023 2027
1762 1 2029 2030 2033
1763 1 2029 2030 2034
1764 1 2031 2029 2030
1765 2 2031 2029 2032
1766 1 2032 2029 2030
1767 2 2033 2030 2034
1768 1 2036 2037 2040
1769 1 2036 2037 2041
1770 1 2038 2036 2037
1771 2 2038 2036 2039
1772 1 2039 2036 2037
1773 2 2040 2037 2041
1774 1 2043 2044 2047
1775 1 2043 2044 2048
1776 1 2045 2043 2044
1777 2 2045 2043 2046
1778 1 2046 2043 2044
1779 2 2047 2044 2048
1780 1 2050 2051 2054
1781 1 2050 2051 2055
1782 1 2052 2050 2051
1783 2 2052 2050 2053
1784 1 2053 2050 2051
1785 2 2054 2051 2055
1786 1 2057 2058 2061
1787 1 2057 2058 2062
1788 1 2059 2057 2058
1789 2 2059 2057 2060
1790 1 2060 2057 2058
1791 2 2061 2058 2062
1792 1 2064 2065 2068
1793 1 2064 2065 2069
1794 1 2066 2064 2065
1795 2 2066 2064 2067
1796 1 2067 2064 2065
1797 2 2068 2065 2069
1798 1 2071 2072 2075
1799 1 2071 2072 2076
1800 1 2073 2071 2072
1801 2 2073 2071 2074
1802 1 2074 2071 2072
1803 2 2075 2072 2076
1804 1 2078 2079 2082
1805 1 2078 2079 2083
1806 1 2080 2078 2079
1807 2 2080 2078 2081
1808 1 2081 2078 2079
1809 2 2082 2079 2083
1810 1 2085 2086 2089
1811 1 2085 2086 2090
1812 1 2087 2085 2086
1813 2 2087 2085 2088
1814 1 2088 2085 2086
1815 2 2089 2086 2090
1816 1 2092 2093 2096
1817 1 2092 2093 2097
1818 1 2094 2092 2093
1819 2 2094 2092 2095
1820 1 2095 2092 2093
1821 2 2096 2093 2097
1822 1 2099 2100 2103
1823 1 2099 2100 2104
1824 1 2101 2099 2100
1825 2 2101 2099 2102
1826 1 2102 2099 2100
1827 2 2103 2100 2104
1828 1 2106 2107 2110
1829 1 2106 2107 2111
1830 1 2106 2107 2112
1831 1 2108 2106 2107
1832 2 2108 2106 2109
1833 1 2109 2106 2107
1834 2 2110 2107 2111
1835 2 2110 2107 2112
1836 2 2111 2107 2112
1837 1 2114 2115 2118
1838 1 2114 2115 2119
1839 1 2114 2115 2120
1840 1 2116 2114 2115
1841 2 2116 2114 2117
1842 1 2117 2114 2115
1843 2 2118 2115 2119
1844 2 2118 2115 2120
1845 2 2119 2115 2120
1846 1 2122 2123 2126
1847 1 2122 2123 2127
1848 1 2124 2122 2123
1849 2 2124 2122 2125
1850 1 2125 2122 2123
1851 2 2126 2123 2127
1852 1 2129 2130 2133
1853 1 2129 2130 2134
1854 1 2131 2129 2130
1855 2 2131 2129 2132
1856 1 2132 2129 2130
1857 2 2133 2130 2134
1858 1 2136 2137 2140
1859 1 2136 2137 2141
1860 1 2138 2136 2137
1861 2 2138 2136 2139
1862 1 2139 2136 2137
1863 2 2140 2137 2141
1864 1 2143 2144 2147
1865 1 2143 2144 2148
1866 1 2145 2143 2144
1867 2 2145 2143 2146
1868 1 2146 2143 2144
1869 2 2147 2144 2148
1870 1 2150 2151 2154
1871 1 2150 2151 2155
1872 1 2152 2150 2151
1873 2 2152 2150 2153
1874 1 2153 2150 2151
1875 2 2154 2151 2155
1876 1 2157 2158 2161
1877 1 2157 2158 2162
1878 1 2159 2157 2158
1879 2 2159 2157 2160
1880 1 2160 2157 2158
1881 2 2161 2158 2162
1882 1 2164 2165 2168
1883 1 2164 2165 2169
1884 1 2166 2164 2165
1885 2 2166 2164 2167
1886 1 2167 2164 2165
1887 2 2168 2165 2169
1888 1 2171 2172 2175
1889 1 2171 2172 2176
1890 1 2173 2171 2172
1891 2 2173 2171 2174
1892 1 2174 2171 2172
1893 2 2175 2172 2176
1894 1 2178 2179 2182
1895 1 2178 2179 2183
1896 1 2180 2178 2179
1897 2 2180 2178 2181
1898 1 2181 2178 2179
1899 2 2182 2179 2183
1900 1 2185 2186 2189
1901 1 2185 2186 2190
1902 1 2187 2185 2186
1903 2 2187 2185 2188
1904 1 2188 2185 2186
1905 2 2189 2186 2190
1906 1 2192 2193 2196
1907 1 2192 2193 2197
1908 1 2194 2192 2193
1909 2 2194 2192 2195
1910 1 2195 2192 2193
1911 2 2196 2193 2197
1912 1 2199 2200 2203
1913 1 2199 2200 2204
1914 1 2201 2199 2200
1915 2 2201 2199 2202
1916 1 2202 2199 2200
1917 2 2203 2200 2204
1918 1 2206 2207 2210
1919 1 2206 2207 2211
1920 1 2208 2206 2207
1921 2 2208 2206 2209
1922 1 2209 2206 2207
1923 2 2210 2207 2211
1924 1 2213 2214 2217
1925 1 2213 2214 2218
1926 1 2215 2213 2214
1927 2 2215 2213 2216
1928 1 2216 2213 2214
1929 2 2217 2214 2218
1930 1 2220 2221 2224
1931 1 2220 2221 2225
1932 1 2222 2220 2221
1933 2 2222 2220 2223
1934 1 2223 2220 2221
1935 2 2224 2221 2225
1936 1 2227 2228 2231
1937 1 2227 2228 2232
1938 1 2229 2227 2228
1939 2 2229 2227 2230
1940 1 2230 2227 2228
1941 2 2231 2228 2232
1942 1 2234 2235 2238
1943 1 2234 2235 2239
1944 1 2236 2234 2235
1945 2 2236 2234 2237
1946 1 2237 2234 2235
1947 2 2238 2235 2239
1948 1 2241 2242 2245
1949 1 2241 2242 2246
1950 1 2243 2241 2242
1951 2 2243 2241 2244
1952 1 2244 2241 2242
1953 2 2245 2242 2246
1954 1 2248 2249 2252
1955 1 2248 2249 2253
1956 1 2250 2248 2249
1957 2 2250 2248 2251
1958 1 2251 2248 2249
1959 2 2252 2249 2253
1960 1 2255 2256 2259
1961 1 2255 2256 2260
1962 1 2257 2255 2256
1963 2 2257 2255 2258
1964 1 2258 2255 2256
1965 2 2259 2256 2260
1966 1 2262 2263 2266
1967 1 2262 2263 2267
1968 1 2264 2262 2263
1969 2 2264 2262 2265
1970 1 2265 2262 2263
1971 2 2266 2263 2267
1972 1 2269 2270 2273
1973 1 2269 2270 2274
1974 1 2271 2269 2270
1975 2 2271 2269 2272
1976 1 2272 2269 2270
1977 2 2273 2270 2274
1978 1 2276 2277 2280
1979 1 2276 2277 2281
1980 1 2278 2276 2277
1981 2 2278 2276 2279
1982 1 2279 2276 2277
1983 2 2280 2277 2281
1984 1 2283 2284 2287
1985 1 2283 2284 2288
1986 1 2285 2283 2284
1987 2 2285 2283 2286
1988 1 2286 2283 2284
1989 2 2287 2284 2288
1990 1 2290 2291 2294
1991 1 2290 2291 2295
1992 1 2292 2290 2291
1993 2 2292 2290 2293
1994 1 2293 2290 2291
1995 2 2294 2291 2295
1996 1 2297 2298 2301
1997 1 2297 2298 2302
1998 1 2299 2297 2298
1999 2 2299 2297 2300
2000 1 2300 2297 2298
2001 2 2301 2298 2302
2002 1 2304 2305 2308
2003 1 2304 2305 2309
2004 1 2306 2304 2305
2005 2 2306 2304 2307
2006 1 2307 2304 2305
2007 2 2308 2305 2309
2008 1 2311 2312 2315
2009 1 2311 2312 2316
2010 1 2313 2311 2312
2011 2 2313 2311 2314
2012 1 2314 2311 2312
2013 2 2315 2312 2316
2014 1 2318 2319 2322
2015 1 2318 2319 2323
2016 1 2320 2318 2319
2017 2 2320 2318 2321
2018 1 2321 2318 2319
2019 2 2322 2319 2323
2020 1 2325 2326 2329
2021 1 2325 2326 2330
2022 1 2327 2325 2326
2023 2 2327 2325 2328
2024 1 2328 2325 2326
2025 2 2329 2326 2330
2026 1 2332 2333 2336
2027 1 2332 2333 2337
2028 1 2334 2332 2333
2029 2 2334 2332 2335
2030 1 2335 2332 2333
2031 2 2336 2333 2337
2032 1 2339 2340 2343
2033 1 2339 2340 2344
2034 1 2341 2339 2340
2035 2 2341 2339 2342
2036 1 2342 2339 2340
2037 2 2343 2340 2344
2038 1 2346 2347 2350
2039 1 2346 2347 2351
2040 1 2348 2346 2347
2041 2 2348 2346 2349
2042 1 2349 2346 2347
2043 2 2350 2347 2351
2044 1 2353 2354 2357
2045 1 2353 2354 2358
2046 1 2355 2353 2354
2047 2 2355 2353 2356
2048 1 2356 2353 2354
2049 2 2357 2354 2358
2050 1 2360 2361 2364
2051 1 2360 2361 2365
2052 1 2362 2360 2361
2053 2 2362 2360 2363
2054 1 2363 2360 2361
2055 2 2364 2361 2365
2056 1 2367 2368 2371
2057 1 2367 2368 2372
2058 1 2369 2367 2368
2059 2 2369 2367 2370
2060 1 2370 2367 2368
2061 2 2371 2368 2372
2062 1 2374 2375 2378
2063 1 2374 2375 2379
2064 1 2376 2374 2375
2065 2 2376 2374 2377
2066 1 2377 2374 2375
2067 2 2378 2375 2379
2068 1 2381 2382 2385
2069 1 2381 2382 2386
2070 1 2383 2381 2382
2071 2 2383 2381 2384
2072 1 2384 2381 2382
2073 2 2385 2382 2386
2074 1 2388 2389 2392
2075 1 2388 2389 2393
2076 1 2390 2388 2389
2077 2 2390 2388 2391
2078 1 2391 2388 2389
2079 2 2392 2389 2393
2080 1 2395 2396 2399
2081 1 2395 2396 2400
2082 1 2397 2395 2396
2083 2 2397 2395 2398
2084 1 2398 2395 2396
2085 2 2399 2396 2400
2086 1 2402 2403 2406
2087 1 2402 2403 2407
2088 1 2404 2402 2403
2089 2 2404 2402 2405
2090 1 2405 2402 2403
2091 2 2406 2403 2407
2092 1 2409 2410 2413
2093 1 2409 2410 2414
2094 1 2411 2409 2410
2095 2 2411 2409 2412
2096 1 2412 2409 2410
2097 2 2413 2410 2414
2098 1 2416 2417 2420
2099 1 2416 2417 2421
2100 1 2418 2416 2417
2101 2 2418 2416 2419
2102 1 2419 2416 2417
2103 2 2420 2417 2421
2104 1 2423 2424 2427
2105 1 2423 2424 2428
2106 1 2425 2423 2424
2107 2 2425 2423 2426
2108 1 2426 2423 2424
2109 2 2427 2424 2428
2110 1 2430 2431 2434
2111 1 2430 2431 2435
2112 1 2432 2430 2431
2113 2 2432 2430 2433
2114 1 2433 2430 2431
2115 2 2434 2431 2435
2116 1 2437 2438 2441
2117 1 2437 2438 2442
2118 1 2439 2437 2438
2119 2 2439 2437 2440
2120 1 2440 2437 2438
2121 2 2441 2438 2442
2122 1 2444 2445 2448
2123 1 2444 2445 2449
2124 1 2446 2444 2445
2125 2 2446 2444 2447
2126 1 2447 2444 2445
2127 2 2448 2445 2449
2128 1 2451 2452 2455
2129 1 2451 2452 2456
2130 1 2453 2451 2452
2131 2 2453 2451 2454
2132 1 2454 2451 2452
2133 2 2455 2452 2456
2134 1 2458 2459 2462
2135 1 2458 2459 2463
2136 1 2458 2459 2464
2137 1 2460 2458 2459
2138 2 2460 2458 2461
2139 1 2461 2458 2459
2140 2 2462 2459 2463
2141 2 2462 2459 2464
2142 2 2463 2459 2464
2143 1 2466 2467 2470
2144 1 2466 2467 2471
2145 1 2466 2467 2472
2146 1 2468 2466 2467
2147 2 2468 2466 2469
2148 1 2469 2466 2467
2149 2 2470 2467 2471
2150 2 2470 2467 2472
2151 2 2471 2467 2472
2152 1 2474 2475 2478
2153 1 2474 2475 2479
2154 1 2476 2474 2475
2155 2 2476 2474 2477
2156 1 2477 2474 2475
2157 2 2478 2475 2479
2158 1 2481 2482 2485
2159 1 2481 2482 2486
2160 1 2483 2481 2482
2161 2 2483 2481 2484
2162 1 2484 2481 2482
2163 2 2485 2482 2486
2164 1 2488 2489 2492
2165 1 2488 2489 2493
2166 1 2490 2488 2489
2167 2 2490 2488 2491
2168 1 2491 2488 2489
2169 2 2492 2489 2493
2170 1 2495 2496 2499
2171 1 2495 2496 2500
2172 1 2497 2495 2496
2173 2 2497 2495 2498
2174 1 2498 2495 2496
2175 2 2499 2496 2500
2176 1 2502 2503 2506
2177 1 2502 2503 2507
2178 1 2504 2502 2503
2179 2 2504 2502 2505
2180 1 2505 2502 2503
2181 2 2506 2503 2507
2182 1 2509 2510 2513
2183 1 2509 2510 2514
2184 1 2511 2509 2510
2185 2 2511 2509 2512
2186 1 2512 2509 2510
2187 2 2513 2510 2514
2188 1 2516 2517 2520
2189 1 2516 2517 2521
2190 1 2518 2516 2517
2191 2 2518 2516 2519
2192 1 2519 2516 2517
2193 2 2520 2517 2521
2194 1 2523 2524 2527
2195 1 2523 2524 2528
2196 1 2525 2523 2524
2197 2 2525 2523 2526
2198 1 2526 2523 2524
2199 2 2527 2524 2528
2200 1 2530 2531 2534
2201 1 2530 2531 2535
2202 1 2532 2530 2531
2203 2 2532 2530 2533
2204 1 2533 2530 2531
2205 2 2534 2531 2535
2206 1 2537 2538 2541
2207 1 2537 2538 2542
2208 1 2539 2537 2538
2209 2 2539 2537 2540
2210 1 2540 2537 2538
2211 2 2541 2538 2542
2212 1 2544 2545 2548
2213 1 2544 2545 2549
2214 1 2546 2544 2545
2215 2 2546 2544 2547
2216 1 2547 2544 2545
2217 2 2548 2545 2549
2218 1 2551 2552 2555
2219 1 2551 2552 2556
2220 1 2553 2551 2552
2221 2 2553 2551 2554
2222 1 2554 2551 2552
2223 2 2555 2552 2556
2224 1 2558 2559 2562
2225 1 2558 2559 2563
2226 1 2560 2558 2559
2227 2 2560 2558 2561
2228 1 2561 2558 2559
2229 2 2562 2559 2563
2230 1 2565 2566 2569
2231 1 2565 2566 2570
2232 1 2567 2565 2566
2233 2 2567 2565 2568
2234 1 2568 2565 2566
2235 2 2569 2566 2570
2236 1 2572 2573 2576
2237 1 2572 2573 2577
2238 1 2574 2572 2573
2239 2 2574 2572 2575
2240 1 2575 2572 2573
2241 2 2576 2573 2577
2242 1 2579 2580 2583
2243 1 2579 2580 2584
2244 1 2581 2579 2580
2245 2 2581 2579 2582
2246 1 2582 2579 2580
2247 2 2583 2580 2584
2248 1 2586 2587 2590
2249 1 2586 2587 2591
2250 1 2588 2586 2587
2251 2 2588 2586 2589
2252 1 2589 2586 2587
2253 2 2590 2587 2591
2254 1 2593 2594 2597
2255 1 2593 2594 2598
2256 1 2595 2593 2594
2257 2 2595 2593 2596
2258 1 2596 2593 2594
2259 2 2597 2594 2598
2260 1 2600 2601 2604
2261 1 2600 2601 2605
2262 1 2602 2600 2601
2263 2 2602 2600 2603
2264 1 2603 2600 2601
2265 2 2604 2601 2605
2266 1 2607 2608 2611
2267 1 2607 2608 2612
2268 1 2609 2607 2608
2269 2 2609 2607 2610
2270 1 2610 2607 2608
2271 2 2611 2608 2612
2272 1 2614 2615 2618
2273 1 2614 2615 2619
2274 1 2616 2614 2615
2275 2 2616 2614 2617
2276 1 2617 2614 2615
2277 2 2618 2615 2619
2278 1 2621 2622 2625
2279 1 2621 2622 2626
2280 1 2623 2621 2622
2281 2 2623 2621 2624
2282 1 2624 2621 2622
2283 2 2625 2622 2626
2284 1 2628 2629 2632
2285 1 2628 2629 2633
2286 1 2630 2628 2629
2287 2 2630 2628 2631
2288 1 2631 2628 2629
2289 2 2632 2629 2633
2290 1 2635 2636 2639
2291 1 2635 2636 2640
2292 1 2637 2635 2636
2293 2 2637 2635 2638
2294 1 2638 2635 2636
2295 2 2639 2636 2640
2296 1 2642 2643 2646
2297 1 2642 2643 2647
2298 1 2644 2642 2643
2299 2 2644 2642 2645
2300 1 2645 2642 2643
2301 2 2646 2643 2647
2302 1 2649 2650 2653
2303 1 2649 2650 2654
2304 1 2651 2649 2650
2305 2 2651 2649 2652
2306 1 2652 2649 2650
2307 2 2653 2650 2654
2308 1 2656 2657 2660
2309 1 2656 2657 2661
2310 1 2658 2656 2657
2311 2 2658 2656 2659
2312 1 2659 2656 2657
2313 2 2660 2657 2661
2314 1 2663 2664 2667
2315 1 2663 2664 2668
2316 1 2665 2663 2664
2317 2 2665 2663 2666
2318 1 2666 2663 2664
2319 2 2667 2664 2668
2320 1 2670 2671 2674
2321 1 2670 2671 2675
2322 1 2672 2670 2671
2323 2 2672 2670 2673
2324 1 2673 2670 2671
2325 2 2674 2671 2675
2326 1 2677 2678 2681
2327 1 2677 2678 2682
2328 1 2679 2677 2678
2329 2 2679 2677 2680
2330 1 2680 2677 2678
2331 2 2681 2678 2682
2332 1 2684 2685 2688
2333 1 2684 2685 2689
2334 1 2686 2684 2685
2335 2 2686 2684 2687
2336 1 2687 2684 2685
2337 2 2688 2685 2689
2338 1 2691 2692 2695
2339 1 2691 2692 2696
2340 1 2693 2691 2692
2341 2 2693 2691 2694
2342 1 2694 2691 2692
2343 2 2695 2692 2696
2344 1 2698 2699 2702
2345 1 2698 2699 2703
2346 1 2700 2698 2699
2347 2 2700 2698 2701
2348 1 2701 2698 2699
2349 2 2702 2699 2703
2350 1 2705 2706 2709
2351 1 2705 2706 2710
2352 1 2707 2705 2706
2353 2 2707 2705 2708
2354 1 2708 2705 2706
2355 2 2709 2706 2710
2356 1 2712 2713 2716
2357 1 2712 2713 2717
2358 1 2714 2712 2713
2359 2 2714 2712 2715
2360 1 2715 2712 2713
2361 2 2716 2713 2717
2362 1 2719 2720 2723
2363 1 2719 2720 2724
2364 1 2721 2719 2720
2365 2 2721 2719 2722
2366 1 2722 2719 2720
2367 2 2723 2720 2724
2368 1 2726 2727 2730
2369 1 2726 2727 2731
2370 1 2728 2726 2727
2371 2 2728 2726 2729
2372 1 2729 2726 2727
2373 2 2730 2727 2731
2374 1 2733 2734 2737
2375 1 2733 2734 2738
2376 1 2735 2733 2734
2377 2 2735 2733 2736
2378 1 2736 2733 2734
2379 2 2737 2734 2738
2380 1 2740 2741 2744
2381 1 2740 2741 2745
2382 1 2742 2740 2741
2383 2 2742 2740 2743
2384 1 2743 2740 2741
2385 2 2744 2741 2745
2386 1 2747 2748 2751
2387 1 2747 2748 2752
2388 1 2749 2747 2748
2389 2 2749 2747 2750
2390 1 2750 2747 2748
2391 2 2751 2748 2752
2392 1 2754 2755 2758
2393 1 2754 2755 2759
2394 1 2756 2754 2755
2395 2 2756 2754 2757
2396 1 2757 2754 2755
2397 2 2758 2755 2759
2398 1 2761 2762 2765
2399 1 2761 2762 2766
2400 1 2763 2761 2762
2401 2 2763 2761 2764
2402 1 2764 2761 2762
2403 2 2765 2762 2766
2404 1 2768 2769 2772
2405 1 2768 2769 2773
2406 1 2770 2768 2769
2407 2 2770 2768 2771
2408 1 2771 2768 2769
2409 2 2772 2769 2773
2410 1 2775 2776 2779
2411 1 2775 2776 2780
2412 1 2777 2775 2776
2413 2 2777 2775 2778
2414 1 2778 2775 2776
2415 2 2779 2776 2780
2416 1 2782 2783 2786
2417 1 2782 2783 2787
2418 1 2784 2782 2783
2419 2 2784 2782 2785
2420 1 2785 2782 2783
2421 2 2786 2783 2787
2422 1 2789 2790 2793
2423 1 2789 2790 2794
2424 1 2791 2789 2790
2425 2 2791 2789 2792
2426 1 2792 2789 2790
2427 2 2793 2790 2794
2428 1 2796 2797 2800
2429 1 2796 2797 2801
2430 1 2798 2796 2797
2431 2 2798 2796 2799
2432 1 2799 2796 2797
2433 2 2800 2797 2801
2434 1 2803 2804 2807
2435 1 2803 2804 2808
2436 1 2805 2803 2804
2437 2 2805 2803 2806
2438 1 2806 2803 2804
2439 2 2807 2804 2808
2440 1 2810 2811 2814
2441 1 2810 2811 2815
2442 1 2810 2811 2816
2443 1 2812 2810 2811
2444 2 2812 2810 2813
2445 1 2813 2810 2811
2446 2 2814 2811 2815
2447 2 2814 2811 2816
2448 2 2815 2811 2816
2449 1 2818 2819 2822
2450 1 2818 2819 2823
2451 1 2818 2819 2824
2452 1 2820 2818 2819
2453 2 2820 2818 2821
2454 1 2821 2818 2819
2455 2 2822 2819 2823
2456 2 2822 2819 2824
2457 2 2823 2819 2824
2458 1 2826 2827 2830
2459 1 2826 2827 2831
2460 1 2828 2826 2827
2461 2 2828 2826 2829
2462 1 2829 2826 2827
2463 2 2830 2827 2831
2464 1 2833 2834 2837
2465 1 2833 2834 2838
2466 1 2835 2833 2834
2467 2 2835 2833 2836
2468 1 2836 2833 2834
2469 2 2837 2834 2838
2470 1 2840 2841 2844
2471 1 2840 2841 2845
2472 1 2842 2840 2841
2473 2 2842 2840 2843
2474 1 2843 2840 2841
2475 2 2844 2841 2845
2476 1 2847 2848 2851
2477 1 2847 2848 2852
2478 1 2849 2847 2848
2479 2 2849 2847 2850
2480 1 2850 2847 2848
2481 2 2851 2848 2852
2482 1 2854 2855 2858
2483 1 2854 2855 2859
2484 1 2856 2854 2855
2485 2 2856 2854 2857
2486 1 2857 2854 2855
2487 2 2858 2855 2859
2488 1 2861 2862 2865
2489 1 2861 2862 2866
2490 1 2863 2861 2862
2491 2 2863 2861 2864
2492 1 2864 2861 2862
2493 2 2865 2862 2866
2494 1 2868 2869 2872
2495 1 2868 2869 2873
2496 1 2870 2868 2869
2497 2 2870 2868 2871
2498 1 2871 2868 2869
2499 2 2872 2869 2873
2500 1 2875 2876 2879
2501 1 2875 2876 2880
2502 1 2877 2875 2876
2503 2 2877 2875 2878
2504 1 2878 2875 2876
2505 2 2879 2876 2880
2506 1 2882 2883 2886
2507 1 2882 2883 2887
2508 1 2884 2882 2883
2509 2 2884 2882 2885
2510 1 2885 2882 2883
2511 2 2886 2883 2887
2512 1 2889 2890 2893
2513 1 2889 2890 2894
2514 1 2891 2889 2890
2515 2 2891 2889 2892
2516 1 2892 2889 2890
2517 2 2893 2890 2894
2518 1 2896 2897 2900
2519 1 2896 2897 2901
2520 1 2898 2896 2897
2521 2 2898 2896 2899
2522 1 2899 2896 2897
2523 2 2900 2897 2901
2524 1 2903 2904 2907
2525 1 2903 2904 2908
2526 1 2905 2903 2904
2527 2 2905 2903 2906
2528 1 2906 2903 2904
2529 2 2907 2904 2908
2530 1 2910 2911 2914
2531 1 2910 2911 2915
2532 1 2912 2910 2911
2533 2 2912 2910 2913
2534 1 2913 2910 2911
2535 2 2914 2911 2915
2536 1 2917 2918 2921
2537 1 2917 2918 2922
2538 1 2919 2917 2918
2539 2 2919 2917 2920
2540 1 2920 2917 2918
2541 2 2921 2918 2922
2542 1 2924 2925 2928
2543 1 2924 2925 2929
2544 1 2926 2924 2925
2545 2 2926 2924 2927
2546 1 2927 2924 2925
2547 2 2928 2925 2929
2548 1 2931 2932 2935
2549 1 2931 2932 2936
2550 1 2933 2931 2932
2551 2 2933 2931 2934
2552 1 2934 2931 2932
2553 2 2935 2932 2936
2554 1 2938 2939 2942
2555 1 2938 2939 2943
2556 1 2940 2938 2939
2557 2 2940 2938 2941
2558 1 2941 2938 2939
2559 2 2942 2939 2943
2560 1 2945 2946 2949
2561 1 2945 2946 2950
2562 1 2947 2945 2946
2563 2 2947 2945 2948
2564 1 2948 2945 2946
2565 2 2949 2946 2950
2566 1 2952 2953 2956
2567 1 2952 2953 2957
2568 1 2954 2952 2953
2569 2 2954 2952 2955
2570 1 2955 2952 2953
2571 2 2956 2953 2957
2572 1 2959 2960 2963
2573 1 2959 2960 2964
2574 1 2961 2959 2960
2575 2 2961 2959 2962
2576 1 2962 2959 2960
2577 2 2963 2960 2964
2578 1 2966 2967 2970
2579 1 2966 2967 2971
2580 1 2968 2966 2967
2581 2 2968 2966 2969
2582 1 2969 2966 2967
2583 2 2970 2967 2971
2584 1 2973 2974 2977
2585 1 2973 2974 2978
2586 1 2975 2973 2974
2587 2 2975 2973 2976
2588 1 2976 2973 2974
2589 2 2977 2974 2978
2590 1 2980 2981 2984
2591 1 2980 2981 2985
2592 1 2982 2980 2981
2593 2 2982 2980 2983
2594 1 2983 2980 2981
2595 2 2984 2981 2985
2596 1 2987 2988 2991
2597 1 2987 2988 2992
2598 1 2989 2987 2988
2599 2 2989 2987 2990
2600 1 2990 2987 2988
2601 2 2991 2988 2992
2602 1 2994 2995 2998
2603 1 2994 2995 2999
2604 1 2996 2994 2995
2605 2 2996 2994 2997
2606 1 2997 2994 2995
2607 2 2998 2995 2999
2608 1 3001 3002 3005
2609 1 3001 3002 3006
2610 1 3003 3001 3002
2611 2 3003 3001 3004
2612 1 3004 3001 3002
2613 2 3005 3002 3006
2614 1 3008 3009 3012
2615 1 3008 3009 3013
2616 1 3010 3008 3009
2617 2 3010 3008 3011
2618 1 3011 3008 3009
2619 2 3012 3009 3013
2620 1 3015 3016 3019
2621 1 3015 3016 3020
2622 1 3017 3015 3016
2623 2 3017 3015 3018
2624 1 3018 3015 3016
2625 2 3019 3016 3020
2626 1 3022 3023 3026
2627 1 3022 3023 3027
2628 1 3024 3022 3023
2629 2 3024 3022 3025
2630 1 3025 3022 3023
2631 2 3026 3023 3027
2632 1 3029 3030 3033
2633 1 3029 3030 3034
2634 1 3031 3029 3030
2635 2 3031 3029 3032
2636 1 3032 3029 3030
2637 2 3033 3030 3034
2638 1 3036 3037 3040
2639 1 3036 3037 3041
2640 1 3038 3036 3037
2641 2 3038 3036 3039
2642 1 3039 3036 3037
2643 2 3040 3037 3041
2644 1 3043 3044 3047
2645 1 3043 3044 3048
2646 1 3045 3043 3044
2647 2 3045 3043 3046
2648 1 3046 3043 3044
2649 2 3047 3044 3048
2650 1 3050 3051 3054
2651 1 3050 3051 3055
2652 1 3052 3050 3051
2653 2 3052 3050 3053
2654 1 3053 3050 3051
2655 2 3054 3051 3055
2656 1 3057 3058 3061
2657 1 3057 3058 3062
2658 1 3059 3057 3058
2659 2 3059 3057 3060
2660 1 3060 3057 3058
2661 2 3061 3058 3062
2662 1 3064 3065 3068
2663 1 3064 3065 3069
2664 1 3066 3064 3065
2665 2 3066 3064 3067
2666 1 3067 3064 3065
2667 2 3068 3065 3069
2668 1 3071 3072 3075
2669 1 3071 3072 3076
2670 1 3073 3071 3072
2671 2 3073 3071 3074
2672 1 3074 3071 3072
2673 2 3075 3072 3076
2674 1 3078 3079 3082
2675 1 3078 3079 3083
2676 1 3080 3078 3079
2677 2 3080 3078 3081
2678 1 3081 3078 3079
2679 2 3082 3079 3083
2680 1 3085 3086 3089
2681 1 3085 3086 3090
2682 1 3087 3085 3086
2683 2 3087 3085 3088
2684 1 3088 3085 3086
2685 2 3089 3086 3090
2686 1 3092 3093 3096
2687 1 3092 3093 3097
2688 1 3094 3092 3093
2689 2 3094 3092 3095
2690 1 3095 3092 3093
2691 2 3096 3093 3097
2692 1 3099 3100 3103
2693 1 3099 3100 3104
2694 1 3101 3099 3100
2695 2 3101 3099 3102
2696 1 3102 3099 3100
2697 2 3103 3100 3104
2698 1 3106 3107 3110
2699 1 3106 3107 3111
2700 1 3108 3106 3107
2701 2 3108 3106 3109
2702 1 3109 3106 3107
2703 2 3110 3107 3111
2704 1 3113 3114 3117
2705 1 3113 3114 3118
2706 1 3115 3113 3114
2707 2 3115 3113 3116
2708 1 3116 3113 3114
2709 2 3117 3114 3118
2710 1 3120 3121 3124
2711 1 3120 3121 3125
2712 1 3122 3120 3121
2713 2 3122 3120 3123
2714 1 3123 3120 3121
2715 2 3124 3121 3125
2716 1 3127 3128 3131
2717 1 3127 3128 3132
2718 1 3129 3127 3128
2719 2 3129 3127 3130
2720 1 3130 3127 3128
2721 2 3131 3128 3132
2722 1 3134 3135 3138
2723 1 3134 3135 3139
2724 1 3136 3134 3135
2725 2 3136 3134 3137
2726 1 3137 3134 3135
2727 2 3138 3135 3139
2728 1 3141 3142 3145
2729 1 3141 3142 3146
2730 1 3143 3141 3142
2731 2 3143 3141 3144
2732 1 3144 3141 3142
2733 2 3145 3142 3146
2734 1 3148 3149 3152
2735 1 3148 3149 3153
2736 1 3150 3148 3149
2737 2 3150 3148 3151
2738 1 3151 3148 3149
2739 2 3152 3149 3153
2740 1 3155 3156 3159
2741 1 3155 3156 3160
2742 1 3157 3155 3156
2743 2 3157 3155 3158
2744 1 3158 3155 3156
2745 2 3159 3156 3160
2746 1 3162 3163 3166
2747 1 3162 3163 3167
2748 1 3162 3163 3168
2749 1 3164 3162 3163
2750 2 3164 3162 3165
2751 1 3165 3162 3163
2752 2 3166 3163 3167
2753 2 3166 3163 3168
2754 2 3167 3163 3168
2755 1 3170 3171 3174
2756 1 3170 3171 3175
2757 1 3170 3171 3176
2758 1 3172 3170 3171
2759 2 3172 3170 3173
2760 1 3173 3170 3171
2761 2 3174 3171 3175
2762 2 3174 3171 3176
2763 2 3175 3171 3176
2764 1 3178 3179 3182
2765 1 3178 3179 3183
2766 1 3180 3178 3179
2767 2 3180 3178 3181
2768 1 3181 3178 3179
2769 2 3182 3179 3183
2770 1 3185 3186 3189
2771 1 3185 3186 3190
2772 1 3187 3185 3186
2773 2 3187 3185 3188
2774 1 3188 3185 3186
2775 2 3189 3186 3190
2776 1 3192 3193 3196
2777 1 3192 3193 3197
2778 1 3194 3192 3193
2779 2 3194 3192 3195
2780 1 3195 3192 3193
2781 2 3196 3193 3197
2782 1 3199 3200 3203
2783 1 3199 3200 3204
2784 1 3201 3199 3200
2785 2 3201 3199 3202
2786 1 3202 3199 3200
2787 2 3203 3200 3204
2788 1 3206 3207 3210
2789 1 3206 3207 3211
2790 1 3208 3206 3207
2791 2 3208 3206 3209
2792 1 3209 3206 3207
2793 2 3210 3207 3211
2794 1 3213 3214 3217
2795 1 3213 3214 3218
2796 1 3215 3213 3214
2797 2 3215 3213 3216
2798 1 3216 3213 3214
2799 2 3217 3214 3218
2800 1 3220 3221 3224
2801 1 3220 3221 3225
2802 1 3222 3220 3221
2803 2 3222 3220 3223
2804 1 3223 3220 3221
2805 2 3224 3221 3225
2806 1 3227 3228 3231
2807 1 3227 3228 3232
2808 1 3229 3227 3228
2809 2 3229 3227 3230
2810 1 3230 3227 3228
2811 2 3231 3228 3232
2812 1 3234 3235 3238
2813 1 3234 3235 3239
2814 1 3236 3234 3235
2815 2 3236 3234 3237
2816 1 3237 3234 3235
2817 2 3238 3235 3239
2818 1 3241 3242 3245
2819 1 3241 3242 3246
2820 1 3243 3241 3242
2821 2 3243 3241 3244
2822 1 3244 3241 3242
2823 2 3245 3242 3246
2824 1 3248 3249 3252
2825 1 3248 3249 3253
2826 1 3250 3248 3249
2827 2 3250 3248 3251
2828 1 3251 3248 3249
2829 2 3252 3249 3253
2830 1 3255 3256 3259
2831 1 3255 3256 3260
2832 1 3257 3255 3256
2833 2 3257 3255 3258
2834 1 3258 3255 3256
2835 2 3259 3256 3260
2836 1 3262 3263 3266
2837 1 3262 3263 3267
2838 1 3264 3262 3263
2839 2 3264 3262 3265
2840 1 3265 3262 3263
2841 2 3266 3263 3267
2842 1 3269 3270 3273
2843 1 3269 3270 3274
2844 1 3271 3269 3270
2845 2 3271 3269 3272
2846 1 3272 3269 3270
2847 2 3273 3270 3274
2848 1 3276 3277 3280
2849 1 3276 3277 3281
2850 1 3278 3276 3277
2851 2 3278 3276 3279
2852 1 3279 3276 3277
2853 2 3280 3277 3281
2854 1 3283 3284 3287
2855 1 3283 3284 3288
2856 1 3285 3283 3284
2857 2 3285 3283 3286
2858 1 3286 3283 3284
2859 2 3287 3284 3288
2860 1 3290 3291 3294
2861 1 3290 3291 3295
2862 1 3292 3290 3291
2863 2 3292 3290 3293
2864 1 3293 3290 3291
2865 2 3294 3291 3295
2866 1 3297 3298 3301
2867 1 3297 3298 3302
2868 1 3299 3297 3298
2869 2 3299 3297 3300
2870 1 3300 3297 3298
2871 2 3301 3298 3302
2872 1 3304 3305 3308
2873 1 3304 3305 3309
2874 1 3306 3304 3305
2875 2 3306 3304 3307
2876 1 3307 3304 3305
2877 2 3308 3305 3309
2878 1 3311 3312 3315
2879 1 3311 3312 3316
2880 1 3313 3311 3312
2881 2 3313 3311 3314
2882 1 3314 3311 3312
2883 2 3315 3312 3316
2884 1 3318 3319 3322
2885 1 3318 3319 3323
2886 1 3320 3318 3319
2887 2 3320 3318 3321
2888 1 3321 3318 3319
2889 2 3322 3319 3323
2890 1 3325 3326 3329
2891 1 3325 3326 3330
2892 1 3327 3325 3326
2893 2 3327 3325 3328
2894 1 3328 3325 3326
2895 2 3329 3326 3330
2896 1 3332 3333 3336
2897 1 3332 3333 3337
2898 1 3334 3332 3333
2899 2 3334 3332 3335
2900 1 3335 3332 3333
2901 2 3336 3333 3337
2902 1 3339 3340 3343
2903 1 3339 3340 3344
2904 1 3341 3339 3340
2905 2 3341 3339 3342
2906 1 3342 3339 3340
2907 2 3343 3340 3344
2908 1 3346 3347 3350
2909 1 3346 3347 3351
2910 1 3348 3346 3347
2911 2 3348 3346 3349
2912 1 3349 3346 3347
2913 2 3350 3347 3351
2914 1 3353 3354 3357
2915 1 3353 3354 3358
2916 1 3355 3353 3354
2917 2 3355 3353 3356
2918 1 3356 3353 3354
2919 2 3357 3354 3358
2920 1 3360 3361 3364
2921 1 3360 3361 3365
2922 1 3362 3360 3361
2923 2 3362 3360 3363
2924 1 3363 3360 3361
2925 2 3364 3361 3365
2926 1 3367 3368 3371
2927 1 3367 3368 3372
2928 1 3369 3367 3368
2929 2 3369 3367 3370
2930 1 3370 3367 3368
2931 2 3371 3368 3372
2932 1 3374 3375 3378
2933 1 3374 3375 3379
2934 1 3376 3374 3375
2935 2 3376 3374 3377
2936 1 3377 3374 3375
2937 2 3378 3375 3379
2938 1 3381 3382 3385
2939 1 3381 3382 3386
2940 1 3383 3381 3382
2941 2 3383 3381 3384
2942 1 3384 3381 3382
2943 2 3385 3382 3386
2944 1 3388 3389 3392
2945 1 3388 3389 3393
2946 1 3390 3388 3389
2947 2 3390 3388 3391
2948 1 3391 3388 3389
2949 2 3392 3389 3393
2950 1 3395 3396 3399
2951 1 3395 3396 3400
2952 1 3397 3395 3396
2953 2 3397 3395 3398
2954 1 3398 3395 3396
2955 2 3399 3396 3400
2956 1 3402 3403 3406
2957 1 3402 3403 3407
2958 1 3404 3402 3403
2959 2 3404 3402 3405
2960 1 3405 3402 3403
2961 2 3406 3403 3407
2962 1 3409 3410 3413
2963 1 3409 3410 3414
2964 1 3411 3409 3410
2965 2 3411 3409 3412
2966 1 3412 3409 3410
2967 2 3413 3410 3414
2968 1 3416 3417 3420
2969 1 3416 3417 3421
2970 1 3418 3416 3417
2971 2 3418 3416 3419
2972 1 3419 3416 3417
2973 2 3420 3417 3421
2974 1 3423 3424 3427
2975 1 3423 3424 3428
2976 1 3425 3423 3424
2977 2 3425 3423 3426
2978 1 3426 3423 3424
2979 2 3427 3424 3428
2980 1 3430 3431 3434
2981 1 3430 3431 3435
2982 1 3432 3430 3431
2983 2 3432 3430 3433
2984 1 3433 3430 3431
2985 2 3434 3431 3435
2986 1 3437 3438 3441
2987 1 3437 3438 3442
2988 1 3439 3437 3438
2989 2 3439 3437 3440
2990 1 3440 3437 3438
2991 2 3441 3438 3442
2992 1 3444 3445 3448
2993 1 3444 3445 3449
2994 1 3446 3444 3445
2995 2 3446 3444 3447
2996 1 3447 3444 3445
2997 2 3448 3445 3449
2998 1 3451 3452 3455
2999 1 3451 3452 3456
3000 1 3453 3451 3452
3001 2 3453 3451 3454
3002 1 3454 3451 3452
3003 2 3455 3452 3456
3004 1 3458 3459 3462
3005 1 3458 3459 3463
3006 1 3460 3458 3459
3007 2 3460 3458 3461
3008 1 3461 3458 3459
3009 2 3462 3459 3463
3010 1 3465 3466 3469
3011 1 3465 3466 3470
3012 1 3467 3465 3466
3013 2 3467 3465 3468
3014 1 3468 3465 3466
3015 2 3469 3466 3470
3016 1 3472 3473 3476
3017 1 3472 3473 3477
3018 1 3474 3472 3473
3019 2 3474 3472 3475
3020 1 3475 3472 3473
3021 2 3476 3473 3477
3022 1 3479 3480 3483
3023 1 3479 3480 3484
3024 1 3481 3479 3480
3025 2 3481 3479 3482
3026 1 3482 3479 3480
3027 2 3483 3480 3484
3028 1 3486 3487 3490
3029 1 3486 3487 3491
3030 1 3488 3486 3487
3031 2 3488 3486 3489
3032 1 3489 3486 3487
3033 2 3490 3487 3491
3034 1 3493 3494 3497
3035 1 3493 3494 3498
3036 1 3495 3493 3494
3037 2 3495 3493 3496
3038 1 3496 3493 3494
3039 2 3497 3494 3498
3040 1 3500 3501 3504
3041 1 3500 3501 3505
3042 1 3502 3500 3501
3043 2 3502 3500 3503
3044 1 3503 3500 3501
3045 2 3504 3501 3505
3046 1 3507 3508 3511
3047 1 3507 3508 3512
3048 1 3509 3507 3508
3049 2 3509 3507 3510
3050 1 3510 3507 3508
3051 2 3511 3508 3512
3052 1 3514 3515 3518
3053 1 3514 3515 3519
3054 1 3514 3515 3520
3055 1 3516 3514 3515
3056 2 3516 3514 3517
3057 1 3517 3514 3515
3058 2 3518 3515 3519
3059 2 3518 3515 3520
3060 2 3519 3515 3520
3061 3 1 9 16
3062 4 2 10 11
3063 1 2 10 12
3064 1 2 10 13
3065 1 4 2 10
3066 1 5 2 10
3067 5 9 16 23
3068 4 10 2 3
3069 4 10 11 17
3070 4 11 17 18
3071 1 11 17 19
3072 1 11 17 20
3073 1 14 11 17
3074 1 15 11 17
3075 5 16 23 30
3076 4 17 18 24
3077 4 18 24 25
3078 1 18 24 26
3079 1 18 24 27
3080 1 21 18 24
3081 1 22 18 24
3082 5 23 30 37
3083 4 24 25 31
3084 4 25 31 32
3085 1 25 31 33
3086 1 25 31 34
3087 1 28 25 31
3088 1 29 25 31
3089 5 30 37 44
3090 4 31 32 38
3091 4 32 38 39
3092 1 32 38 40
3093 1 32 38 41
3094 1 35 32 38
3095 1 36 32 38
3096 5 37 44 51
3097 4 38 39 45
3098 4 39 45 46
3099 1 39 45 47
3100 1 39 45 48
3101 1 42 39 45
3102 1 43 39 45
3103 5 44 51 58
3104 4 45 46 52
3105 4 46 52 53
3106 1 46 52 54
3107 1 46 52 55
3108 1 49 46 52
3109 1 50 46 52
3110 5 51 58 65
3111 4 52 53 59
3112 4 53 59 60
3113 1 53 59 61
3114 1 53 59 62
3115 1 56 53 59
3116 1 57 53 59
3117 5 58 65 72
3118 4 59 60 66
3119 4 60 66 67
3120 1 60 66 68
3121 1 60 66 69
3122 1 63 60 66
3123 1 64 60 66
3124 5 65 72 79
3125 4 66 67 73
3126 4 67 73 74
3127 1 67 73 75
3128 1 67 73 76
3129 1 70 67 73
3130 1 71 67 73
3131 5 72 79 86
3132 4 73 74 80
3133 4 74 80 81
3134 1 74 80 82
3135 1 74 80 83
3136 1 77 74 80
3137 1 78 74 80
3138 5 79 86 93
3139 4 80 81 87
3140 4 81 87 88
3141 1 81 87 89
3142 1 81 87 90
3143 1 84 81 87
3144 1 85 81 87
3145 5 86 93 100
3146 4 87 88 94
3147 4 88 94 95
3148 1 88 94 96
3149 1 88 94 97
3150 1 91 88 94
3151 1 92 88 94
3152 5 93 100 107
3153 4 94 95 101
3154 4 95 101 102
3155 1 95 101 103
3156 1 95 101 104
3157 1 98 95 101
3158 1 99 95 101
3159 5 100 107 114
3160 4 101 102 108
3161 4 102 108 109
3162 1 102 108 110
3163 1 102 108 111
3164 1 105 102 108
3165 1 106 102 108
3166 5 107 114 121
3167 4 108 109 115
3168 4 109 115 116
3169 1 109 115 117
3170 1 109 115 118
3171 1 112 109 115
3172 1 113 109 115
3173 5 114 121 128
3174 4 115 116 122
3175 4 116 122 123
3176 1 116 122 124
3177 1 116 122 125
3178 1 119 116 122
3179 1 120 116 122
3180 5 121 128 135
3181 4 122 123 129
3182 4 123 129 130
3183 1 123 129 131
3184 1 123 129 132
3185 1 126 123 129
3186 1 127 123 129
3187 5 128 135 142
3188 4 129 130 136
3189 4 130 136 137
3190 1 130 136 138
3191 1 130 136 139
3192 1 133 130 136
3193 1 134 130 136
3194 5 135 142 149
3195 4 136 137 143
3196 4 137 143 144
3197 1 137 143 145
3198 1 137 143 146
3199 1 140 137 143
3200 1 141 137 143
3201 5 142 149 156
3202 4 143 144 150
3203 4 144 150 151
3204 1 144 150 152
3205 1 144 150 153
3206 1 147 144 150
3207 1 148 144 150
3208 5 149 156 163
3209 4 150 151 157
3210 4 151 157 158
3211 1 151 157 159
3212 1 151 157 160
3213 1 154 151 157
3214 1 155 151 157
3215 5 156 163 170
3216 4 157 158 164
3217 4 158 164 165
3218 1 158 164 166
3219 1 158 164 167
3220 1 161 158 164
3221 1 162 158 164
3222 5 163 170 177
3223 4 164 165 171
3224 4 165 171 172
3225 1 165 171 173
3226 1 165 171 174
3227 1 168 165 171
3228 1 169 165 171
3229 5 170 177 184
3230 4 171 172 178
3231 4 172 178 179
3232 1 172 178 180
3233 1 172 178 181
3234 1 175 172 178
3235 1 176 172 178
3236 5 177 184 191
3237 4 178 179 185
3238 4 179 185 186
3239 1 179 185 187
3240 1 179 185 188
3241 1 182 179 185
3242 1 183 179 185
3243 5 184 191 198
3244 4 185 186 192
3245 4 186 192 193
3246 1 186 192 194
3247 1 186 192 195
3248 1 189 186 192
3249 1 190 186 192
3250 5 191 198 205
3251 4 192 193 199
3252 4 193 199 200
3253 1 193 199 201
3254 1 193 199 202
3255 1 196 193 199
3256 1 197 193 199
3257 5 198 205 212
3258 4 199 200 206
3259 4 200 206 207
3260 1 200 206 208
3261 1 200 206 209
3262 1 203 200 206
3263 1 204 200 206
3264 5 205 212 219
3265 4 206 207 213
3266 4 207 213 214
3267 1 207 213 215
3268 1 207 213 216
3269 1 210 207 213
3270 1 211 207 213
3271 5 212 219 226
3272 4 213 214 220
3273 4 214 220 221
3274 1 214 220 222
3275 1 214 220 223
3276 1 217 214 220
3277 1 218 214 220
3278 5 219 226 233
3279 4 220 221 227
3280 4 221 227 228
3281 1 221 227 229
3282 1 221 227 230
3283 1 224 221 227
3284 1 225 221 227
3285 5 226 233 240
3286 4 227 228 234
3287 4 228 234 235
3288 1 228 234 236
3289 1 228 234 237
3290 1 231 228 234
3291 1 232 228 234
3292 5 233 240 247
3293 4 234 235 241
3294 4 235 241 242
3295 1 235 241 243
3296 1 235 241 244
3297 1 238 235 241
3298 1 239 235 241
3299 5 240 247 254
3300 4 241 242 248
3301 4 242 248 249
3302 1 242 248 250
3303 1 242 248 251
3304 1 245 242 248
3305 1 246 242 248
3306 5 247 254 261
3307 4 248 249 255
3308 4 249 255 256
3309 1 249 255 257
3310 1 249 255 258
3311 1 252 249 255
3312 1 253 249 255
3313 5 254 261 268
3314 4 255 256 262
3315 4 256 262 263
3316 1 256 262 264
3317 1 256 262 265
3318 1 259 256 262
3319 1 260 256 262
3320 5 261 268 275
3321 4 262 263 269
3322 4 263 269 270
3323 1 263 269 271
3324 1 263 269 272
3325 1 266 263 269
3326 1 267 263 269
3327 5 268 275 282
3328 4 269 270 276
3329 4 270 276 277
3330 1 270 276 278
3331 1 270 276 279
3332 1 273 270 276
3333 1 274 270 276
3334 5 275 282 289
3335 4 276 277 283
3336 4 277 283 284
3337 1 277 283 285
3338 1 277 283 286
3339 1 280 277 283
3340 1 281 277 283
3341 5 282 289 296
3342 4 283 284 290
3343 4 284 290 291
3344 1 284 290 292
3345 1 284 290 293
3346 1 287 284 290
3347 1 288 284 290
3348 5 289 296 303
3349 4 290 291 297
3350 4 291 297 298
3351 1 291 297 299
3352 1 291 297 300
3353 1 294 291 297
3354 1 295 291 297
3355 5 296 303 310
3356 4 297 298 304
3357 4 298 304 305
3358 1 298 304 306
3359 1 298 304 307
3360 1 301 298 304
3361 1 302 298 304
3362 5 303 310 317
3363 4 304 305 311
3364 4 305 311 312
3365 1 305 311 313
3366 1 305 311 314
3367 1 308 305 311
3368 1 309 305 311
3369 5 310 317 324
3370 4 311 312 318
3371 4 312 318 319
3372 1 312 318 320
3373 1 312 318 321
3374 1 315 312 318
3375 1 316 312 318
3376 5 317 324 331
3377 4 318 319 325
3378 4 319 325 326
3379 1 319 325 327
3380 1 319 325 328
3381 1 322 319 325
3382 1 323 319 325
3383 5 324 331 338
3384 4 325 326 332
3385 4 326 332 333
3386 1 326 332 334
3387 1 326 332 335
3388 1 329 326 332
3389 1 330 326 332
3390 3 331 338 345
3391 4 332 333 339
3392 4 333 339 340
3393 1 333 339 341
3394 1 333 339 342
3395 1 336 333 339
3396 1 337 333 339
3397 4 339 340 346
3398 4 340 346 347
3399 1 340 346 348
3400 1 340 346 349
3401 1 343 340 346
3402 1 344 340 346
3403 3 353 361 368
3404 4 354 362 363
3405 1 354 362 364
3406 1 354 362 365
3407 1 356 354 362
3408 1 357 354 362
3409 5 361 368 375
3410 4 362 354 355
3411 4 362 363 369
3412 4 363 369 370
3413 1 363 369 371
3414 1 363 369 372
3415 1 366 363 369
3416 1 367 363 369
3417 5 368 375 382
3418 4 369 370 376
3419 4 370 376 377
3420 1 370 376 378
3421 1 370 376 379
3422 1 373 370 376
3423 1 374 370 376
3424 5 375 382 389
3425 4 376 377 383
3426 4 377 383 384
3427 1 377 383 385
3428 1 377 383 386
3429 1 380 377 383
3430 1 381 377 383
3431 5 382 389 396
3432 4 383 384 390
3433 4 384 390 391
3434 1 384 390 392
3435 1 384 390 393
3436 1 387 384 390
3437 1 388 384 390
3438 5 389 396 403
3439 4 390 391 397
3440 4 391 397 398
3441 1 391 397 399
3442 1 391 397 400
3443 1 394 391 397
3444 1 395 391 397
3445 5 396 403 410
3446 4 397 398 404
3447 4 398 404 405
3448 1 398 404 406
3449 1 398 404 407
3450 1 401 398 404
3451 1 402 398 404
3452 5 403 410 417
3453 4 404 405 411
3454 4 405 411 412
3455 1 405 411 413
3456 1 405 411 414
3457 1 408 405 411
3458 1 409 405 411
3459 5 410 417 424
3460 4 411 412 418
3461 4 412 418 419
3462 1 412 418 420
3463 1 412 418 421
3464 1 415 412 418
3465 1 416 412 418
3466 5 417 424 431
3467 4 418 419 425
3468 4 419 425 426
3469 1 419 425 427
3470 1 419 425 428
3471 1 422 419 425
3472 1 423 419 425
3473 5 424 431 438
3474 4 425 426 432
3475 4 426 432 433
3476 1 426 432 434
3477 1 426 432 435
3478 1 429 426 432
3479 1 430 426 432
3480 5 431 438 445
3481 4 432 433 439
3482 4 433 439 440
3483 1 433 439 441
3484 1 433 439 442
3485 1 436 433 439
3486 1 437 433 439
3487 5 438 445 452
3488 4 439 440 446
3489 4 440 446 447
3490 1 440 446 448
3491 1 440 446 449
3492 1 443 440 446
3493 1 444 440 446
3494 5 445 452 459
3495 4 446 447 453
3496 4 447 453 454
3497 1 447 453 455
3498 1 447 453 456
3499 1 450 447 453
3500 1 451 447 453
3501 5 452 459 466
3502 4 453 454 460
3503 4 454 460 461
3504 1 454 460 462
3505 1 454 460 463
3506 1 457 454 460
3507 1 458 454 460
3508 5 459 466 473
3509 4 460 461 467
3510 4 461 467 468
3511 1 461 467 469
3512 1 461 467 470
3513 1 464 461 467
3514 1 465 461 467
3515 5 466 473 480
3516 4 467 468 474
3517 4 468 474 475
3518 1 468 474 476
3519 1 468 474 477
3520 1 471 468 474
3521 1 472 468 474
3522 5 473 480 487
3523 4 474 475 481
3524 4 475 481 482
3525 1 475 481 483
3526 1 475 481 484
3527 1 478 475 481
3528 1 479 475 481
3529 5 480 487 494
3530 4 481 482 488
3531 4 482 488 489
3532 1 482 488 490
3533 1 482 488 491
3534 1 485 482 488
3535 1 486 482 488
3536 5 487 494 501
3537 4 488 489 495
3538 4 489 495 496
3539 1 489 495 497
3540 1 489 495 498
3541 1 492 489 495
3542 1 493 489 495
3543 5 494 501 508
3544 4 495 496 502
3545 4 496 502 503
3546 1 496 502 504
3547 1 496 502 505
3548 1 499 496 502
3549 1 500 496 502
3550 5 501 508 515
3551 4 502 503 509
3552 4 503 509 510
3553 1 503 509 511
3554 1 503 509 512
3555 1 506 503 509
3556 1 507 503 509
3557 5 508 515 522
3558 4 509 510 516
3559 4 510 516 517
3560 1 510 516 518
3561 1 510 516 519
3562 1 513 510 516
3563 1 514 510 516
3564 5 515 522 529
3565 4 516 517 523
3566 4 517 523 524
3567 1 517 523 525
3568 1 517 523 526
3569 1 520 517 523
3570 1 521 517 523
3571 5 522 529 536
3572 4 523 524 530
3573 4 524 530 531
3574 1 524 530 532
3575 1 524 530 533
3576 1 527 524 530
3577 1 528 524 530
3578 5 529 536 543
3579 4 530 531 537
3580 4 531 537 538
3581 1 531 537 539
3582 1 531 537 540
3583 1 534 531 537
3584 1 535 531 537
3585 5 536 543 550
3586 4 537 538 544
3587 4 538 544 545
3588 1 538 544 546
3589 1 538 544 547
3590 1 541 538 544
3591 1 542 538 544
3592 5 543 550 557
3593 4 544 545 551
3594 4 545 551 552
3595 1 545 551 553
3596 1 545 551 554
3597 1 548 545 551
3598 1 549 545 551
3599 5 550 557 564
3600 4 551 552 558
3601 4 552 558 559
3602 1 552 558 560
3603 1 552 558 561
3604 1 555 552 558
3605 1 556 552 558
3606 5 557 564 571
3607 4 558 559 565
3608 4 559 565 566
3609 1 559 565 567
3610 1 559 565 568
3611 1 562 559 565
3612 1 563 559 565
3613 5 564 571 578
3614 4 565 566 572
3615 4 566 572 573
3616 1 566 572 574
3617 1 566 572 575
3618 1 569 566 572
3619 1 570 566 572
3620 5 571 578 585
3621 4 572 573 579
3622 4 573 579 580
3623 1 573 579 581
3624 1 573 579 582
3625 1 576 573 579
3626 1 577 573 579
3627 5 578 585 592
3628 4 579 580 586
3629 4 580 586 587
3630 1 580 586 588
3631 1 580 586 589
3632 1 583 580 586
3633 1 584 580 586
3634 5 585 592 599
3635 4 586 587 593
3636 4 587 593 594
3637 1 587 593 595
3638 1 587 593 596
3639 1 590 587 593
3640 1 591 587 593
3641 5 592 599 606
3642 4 593 594 600
3643 4 594 600 601
3644 1 594 600 602
3645 1 594 600 603
3646 1 597 594 600
3647 1 598 594 600
3648 5 599 606 613
3649 4 600 601 607
3650 4 601 607 608
3651 1 601 607 609
3652 1 601 607 610
3653 1 604 601 607
3654 1 605 601 607
3655 5 606 613 620
3656 4 607 608 614
3657 4 608 614 615
3658 1 608 614 616
3659 1 608 614 617
3660 1 611 608 614
3661 1 612 608 614
3662 5 613 620 627
3663 4 614 615 621
3664 4 615 621 622
3665 1 615 621 623
3666 1 615 621 624
3667 1 618 615 621
3668 1 619 615 621
3669 5 620 627 634
3670 4 621 622 628
3671 4 622 628 629
3672 1 622 628 630
3673 1 622 628 631
3674 1 625 622 628
3675 1 626 622 628
3676 5 627 634 641
3677 4 628 629 635
3678 4 629 635 636
3679 1 629 635 637
3680 1 629 635 638
3681 1 632 629 635
3682 1 633 629 635
3683 5 634 641 648
3684 4 635 636 642
3685 4 636 642 643
3686 1 636 642 644
3687 1 636 642 645
3688 1 639 636 642
3689 1 640 636 642
3690 5 641 648 655
3691 4 642 643 649
3692 4 643 649 650
3693 1 643 649 651
3694 1 643 649 652
3695 1 646 643 649
3696 1 647 643 649
3697 5 648 655 662
3698 4 649 650 656
3699 4 650 656 657
3700 1 650 656 658
3701 1 650 656 659
3702 1 653 650 656
3703 1 654 650 656
3704 5 655 662 669
3705 4 656 657 663
3706 4 657 663 664
3707 1 657 663 665
3708 1 657 663 666
3709 1 660 657 663
3710 1 661 657 663
3711 5 662 669 676
3712 4 663 664 670
3713 4 664 670 671
3714 1 664 670 672
3715 1 664 670 673
3716 1 667 664 670
3717 1 668 664 670
3718 5 669 676 683
3719 4 670 671 677
3720 4 671 677 678
3721 1 671 677 679
3722 1 671 677 680
3723 1 674 671 677
3724 1 675 671 677
3725 5 676 683 690
3726 4 677 678 684
3727 4 678 684 685
3728 1 678 684 686
3729 1 678 684 687
3730 1 681 678 684
3731 1 682 678 684
3732 3 683 690 697
3733 4 684 685 691
3734 4 685 691 692
3735 1 685 691 693
3736 1 685 691 694
3737 1 688 685 691
3738 1 689 685 691
3739 4 691 692 698
3740 4 692 698 699
3741 1 692 698 700
3742 1 692 698 701
3743 1 695 692 698
3744 1 696 692 698
3745 3 705 713 720
3746 4 706 714 715
3747 1 706 714 716
3748 1 706 714 717
3749 1 708 706 714
3750 1 709 706 714
3751 5 713 720 727
3752 4 714 706 707
3753 4 714 715 721
3754 4 715 721 722
3755 1 715 721 723
3756 1 715 721 724
3757 1 718 715 721
3758 1 719 715 721
3759 5 720 727 734
3760 4 721 722 728
3761 4 722 728 729
3762 1 722 728 730
3763 1 722 728 731
3764 1 725 722 728
3765 1 726 722 728
3766 5 727 734 741
3767 4 728 729 735
3768 4 729 735 736
3769 1 729 735 737
3770 1 729 735 738
3771 1 732 729 735
3772 1 733 729 735
3773 5 734 741 748
3774 4 735 736 742
3775 4 736 742 743
3776 1 736 742 744
3777 1 736 742 745
3778 1 739 736 742
3779 1 740 736 742
3780 5 741 748 755
3781 4 742 743 749
3782 4 743 749 750
3783 1 743 749 751
3784 1 743 749 752
3785 1 746 743 749
3786 1 747 743 749
3787 5 748 755 762
3788 4 749 750 756
3789 4 750 756 757
3790 1 750 756 758
3791 1 750 756 759
3792 1 753 750 756
3793 1 754 750 756
3794 5 755 762 769
3795 4 756 757 763
3796 4 757 763 764
3797 1 757 763 765
3798 1 757 763 766
3799 1 760 757 763
3800 1 761 757 763
3801 5 762 769 776
3802 4 763 764 770
3803 4 764 770 771
3804 1 764 770 772
3805 1 764 770 773
3806 1 767 764 770
3807 1 768 764 770
3808 5 769 776 783
3809 4 770 771 777
3810 4 771 777 778
3811 1 771 777 779
3812 1 771 777 780
3813 1 774 771 777
3814 1 775 771 777
3815 5 776 783 790
3816 4 777 778 784
3817 4 778 784 785
3818 1 778 784 786
3819 1 778 784 787
3820 1 781 778 784
3821 1 782 778 784
3822 5 783 790 797
3823 4 784 785 791
3824 4 785 791 792
3825 1 785 791 793
3826 1 785 791 794
3827 1 788 785 791
3828 1 789 785 791
3829 5 790 797 804
3830 4 791 792 798
3831 4 792 798 799
3832 1 792 798 800
3833 1 792 798 801
3834 1 795 792 798
3835 1 796 792 798
3836 5 797 804 811
3837 4 798 799 805
3838 4 799 805 806
3839 1 799 805 807
3840 1 799 805 808
3841 1 802 799 805
3842 1 803 799 805
3843 5 804 811 818
3844 4 805 806 812
3845 4 806 812 813
3846 1 806 812 814
3847 1 806 812 815
3848 1 809 806 812
3849 1 810 806 812
3850 5 811 818 825
3851 4 812 813 819
3852 4 813 819 820
3853 1 813 819 821
3854 1 813 819 822
3855 1 816 813 819
3856 1 817 813 819
3857 5 818 825 832
3858 4 819 820 826
3859 4 820 826 827
3860 1 820 826 828
3861 1 820 826 829
3862 1 823 820 826
3863 1 824 820 826
3864 5 825 832 839
3865 4 826 827 833
3866 4 827 833 834
3867 1 827 833 835
3868 1 827 833 836
3869 1 830 827 833
3870 1 831 827 833
3871 5 832 839 846
3872 4 833 834 840
3873 4 834 840 841
3874 1 834 840 842
3875 1 834 840 843
3876 1 837 834 840
3877 1 838 834 840
3878 5 839 846 853
3879 4 840 841 847
3880 4 841 847 848
3881 1 841 847 849
3882 1 841 847 850
3883 1 844 841 847
3884 1 845 841 847
3885 5 846 853 860
3886 4 847 848 854
3887 4 848 854 855
3888 1 848 854 856
3889 1 848 854 857
3890 1 851 848 854
3891 1 852 848 854
3892 5 853 860 867
3893 4 854 855 861
3894 4 855 861 862
3895 1 855 861 863
3896 1 855 861 864
3897 1 858 855 861
3898 1 859 855 861
3899 5 860 867 874
3900 4 861 862 868
3901 4 862 868 869
3902 1 862 868 870
3903 1 862 868 871
3904 1 865 862 868
3905 1 866 862 868
3906 5 867 874 881
3907 4 868 869 875
3908 4 869 875 876
3909 1 869 875 877
3910 1 869 875 878
3911 1 872 869 875
3912 1 873 869 875
3913 5 874 881 888
3914 4 875 876 882
3915 4 876 882 883
3916 1 876 882 884
3917 1 876 882 885
3918 1 879 876 882
3919 1 880 876 882
3920 5 881 888 895
3921 4 882 883 889
3922 4 883 889 890
3923 1 883 889 891
3924 1 883 889 892
3925 1 886 883 889
3926 1 887 883 889
3927 5 888 895 902
3928 4 889 890 896
3929 4 890 896 897
3930 1 890 896 898
3931 1 890 896 899
3932 1 893 890 896
3933 1 894 890 896
3934 5 895 902 909
3935 4 896 897 903
3936 4 897 903 904
3937 1 897 903 905
3938 1 897 903 906
3939 1 900 897 903
3940 1 901 897 903
3941 5 902 909 916
3942 4 903 904 910
3943 4 904 910 911
3944 1 904 910 912
3945 1 904 910 913
3946 1 907 904 910
3947 1 908 904 910
3948 5 909 916 923
3949 4 910 911 917
3950 4 911 917 918
3951 1 911 917 919
3952 1 911 917 920
3953 1 914 911 917
3954 1 915 911 917
3955 5 916 923 930
3956 4 917 918 924
3957 4 918 924 925
3958 1 918 924 926
3959 1 918 924 927
3960 1 921 918 924
3961 1 922 918 924
3962 5 923 930 937
3963 4 924 925 931
3964 4 925 931 932
3965 1 925 931 933
3966 1 925 931 934
3967 1 928 925 931
3968 1 929 925 931
3969 5 930 937 944
3970 4 931 932 938
3971 4 932 938 939
3972 1 932 938 940
3973 1 932 938 941
3974 1 935 932 938
3975 1 936 932 938
3976 5 937 944 951
3977 4 938 939 945
3978 4 939 945 946
3979 1 939 945 947
3980 1 939 945 948
3981 1 942 939 945
3982 1 943 939 945
3983 5 944 951 958
3984 4 945 946 952
3985 4 946 952 953
3986 1 946 952 954
3987 1 946 952 955
3988 1 949 946 952
3989 1 950 946 952
3990 5 951 958 965
3991 4 952 953 959
3992 4 953 959 960
3993 1 953 959 961
3994 1 953 959 962
3995 1 956 953 959
3996 1 957 953 959
3997 5 958 965 972
3998 4 959 960 966
3999 4 960 966 967
4000 1 960 966 968
4001 1 960 966 969
4002 1 963 960 966
4003 1 964 960 966
4004 5 965 972 979
4005 4 966 967 973
4006 4 967 973 974
4007 1 967 973 975
4008 1 967 973 976
4009 1 970 967 973
4010 1 971 967 973
4011 5 972 979 986
4012 4 973 974 980
4013 4 974 980 981
4014 1 974 980 982
4015 1 974 980 983
4016 1 977 974 980
4017 1 978 974 980
4018 5 979 986 993
4019 4 980 981 987
4020 4 981 987 988
4021 1 981 987 989
4022 1 981 987 990
4023 1 984 981 987
4024 1 985 981 987
4025 5 986 993 1000
4026 4 987 988 994
4027 4 988 994 995
4028 1 988 994 996
4029 1 988 994 997
4030 1 991 988 994
4031 1 992 988 994
4032 5 993 1000 1007
4033 4 994 995 1001
4034 4 995 1001 1002
4035 1 995 1001 1003
4036 1 995 1001 1004
4037 1 998 995 1001
4038 1 999 995 1001
4039 5 1000 1007 1014
4040 4 1001 1002 1008
4041 4 1002 1008 1009
4042 1 1002 1008 1010
4043 1 1002 1008 1011
4044 1 1005 1002 1008
4045 1 1006 1002 1008
4046 5 1007 1014 1021
4047 4 1008 1009 1015
4048 4 1009 1015 1016
4049 1 1009 1015 1017
4050 1 1009 1015 1018
4051 1 1012 1009 1015
4052 1 1013 1009 1015
4053 5 1014 1021 1028
4054 4 1015 1016 1022
4055 4 1016 1022 1023
4056 1 1016 1022 1024
4057 1 1016 1022 1025
4058 1 1019 1016 1022
4059 1 1020 1016 1022
4060 5 1021 1028 1035
4061 4 1022 1023 1029
4062 4 1023 1029 1030
4063 1 1023 1029 1031
4064 1 1023 1029 1032
4065 1 1026 1023 1029
4066 1 1027 1023 1029
4067 5 1028 1035 1042
4068 4 1029 1030 1036
4069 4 1030 1036 1037
4070 1 1030 1036 1038
4071 1 1030 1036 1039
4072 1 1033 1030 1036
4073 1 1034 1030 1036
4074 3 1035 1042 1049
4075 4 1036 1037 1043
4076 4 1037 1043 1044
4077 1 1037 1043 1045
4078 1 1037 1043 1046
4079 1 1040 1037 1043
4080 1 1041 1037 1043
4081 4 1043 1044 1050
4082 4 1044 1050 1051
4083 1 1044 1050 1052
4084 1 1044 1050 1053
4085 1 1047 1044 1050
4086 1 1048 1044 1050
4087 3 1057 1065 1072
4088 4 1058 1066 1067
4089 1 1058 1066 1068
4090 1 1058 1066 1069
4091 1 1060 1058 1066
4092 1 1061 1058 1066
4093 5 1065 1072 1079
4094 4 1066 1058 1059
4095 4 1066 1067 1073
4096 4 1067 1073 1074
4097 1 1067 1073 1075
4098 1 1067 1073 1076
4099 1 1070 1067 1073
4100 1 1071 1067 1073
4101 5 1072 1079 1086
4102 4 1073 1074 1080
4103 4 1074 1080 1081
4104 1 1074 1080 1082
4105 1 1074 1080 1083
4106 1 1077 1074 1080
4107 1 1078 1074 1080
4108 5 1079 1086 1093
4109 4 1080 1081 1087
4110 4 1081 1087 1088
4111 1 1081 1087 1089
4112 1 1081 1087 1090
4113 1 1084 1081 1087
4114 1 1085 1081 1087
4115 5 1086 1093 1100
4116 4 1087 1088 1094
4117 4 1088 1094 1095
4118 1 1088 1094 1096
4119 1 1088 1094 1097
4120 1 1091 1088 1094
4121 1 1092 1088 1094
4122 5 1093 1100 1107
4123 4 1094 1095 1101
4124 4 1095 1101 1102
4125 1 1095 1101 1103
4126 1 1095 1101 1104
4127 1 1098 1095 1101
4128 1 1099 1095 1101
4129 5 1100 1107 1114
4130 4 1101 1102 1108
4131 4 1102 1108 1109
4132 1 1102 1108 1110
4133 1 1102 1108 1111
4134 1 1105 1102 1108
4135 1 1106 1102 1108
4136 5 1107 1114 1121
4137 4 1108 1109 1115
4138 4 1109 1115 1116
4139 1 1109 1115 1117
4140 1 1109 1115 1118
4141 1 1112 1109 1115
4142 1 1113 1109 1115
4143 5 1114 1121 1128
4144 4 1115 1116 1122
4145 4 1116 1122 1123
4146 1 1116 1122 1124
4147 1 1116 1122 1125
4148 1 1119 1116 1122
4149 1 1120 1116 1122
4150 5 1121 1128 1135
4151 4 1122 1123 1129
4152 4 1123 1129 1130
4153 1 1123 1129 1131
4154 1 1123 1129 1132
4155 1 1126 1123 1129
4156 1 1127 1123 1129
4157 5 1128 1135 1142
4158 4 1129 1130 1136
4159 4 1130 1136 1137
4160 1 1130 1136 1138
4161 1 1130 1136 1139
4162 1 1133 1130 1136
4163 1 1134 1130 1136
4164 5 1135 1142 1149
4165 4 1136 1137 1143
4166 4 1137 1143 1144
4167 1 1137 1143 1145
4168 1 1137 1143 1146
4169 1 1140 1137 1143
4170 1 1141 1137 1143
4171 5 1142 1149 1156
4172 4 1143 1144 1150
4173 4 1144 1150 1151
4174 1 1144 1150 1152
4175 1 1144 1150 1153
4176 1 1147 1144 1150
4177 1 1148 1144 1150
4178 5 1149 1156 1163
4179 4 1150 1151 1157
4180 4 1151 1157 1158
4181 1 1151 1157 1159
4182 1 1151 1157 1160
4183 1 1154 1151 1157
4184 1 1155 1151 1157
4185 5 1156 1163 1170
4186 4 1157 1158 1164
4187 4 1158 1164 1165
4188 1 1158 1164 1166
4189 1 1158 1164 1167
4190 1 1161 1158 1164
4191 1 1162 1158 1164
4192 5 1163 1170 1177
4193 4 1164 1165 1171
4194 4 1165 1171 1172
4195 1 1165 1171 1173
4196 1 1165 1171 1174
4197 1 1168 1165 1171
4198 1 1169 1165 1171
4199 5 1170 1177 1184
4200 4 1171 1172 1178
4201 4 1172 1178 1179
4202 1 1172 1178 1180
4203 1 1172 1178 1181
4204 1 1175 1172 1178
4205 1 1176 1172 1178
4206 5 1177 1184 1191
4207 4 1178 1179 1185
4208 4 1179 1185 1186
4209 1 1179 1185 1187
4210 1 1179 1185 1188
4211 1 1182 1179 1185
4212 1 1183 1179 1185
4213 5 1184 1191 1198
4214 4 1185 1186 1192
4215 4 1186 1192 1193
4216 1 1186 1192 1194
4217 1 1186 1192 1195
4218 1 1189 1186 1192
4219 1 1190 1186 1192
4220 5 1191 1198 1205
4221 4 1192 1193 1199
4222 4 1193 1199 1200
4223 1 1193 1199 1201
4224 1 1193 1199 1202
4225 1 1196 1193 1199
4226 1 1197 1193 1199
4227 5 1198 1205 1212
4228 4 1199 1200 1206
4229 4 1200 1206 1207
4230 1 1200 1206 1208
4231 1 1200 1206 1209
4232 1 1203 1200 1206
4233 1 1204 1200 1206
4234 5 1205 1212 1219
4235 4 1206 1207 1213
4236 4 1207 1213 1214
4237 1 1207 1213 1215
4238 1 1207 1213 1216
4239 1 1210 1207 1213
4240 1 1211 1207 1213
4241 5 1212 1219 1226
4242 4 1213 1214 1220
4243 4 1214 1220 1221
4244 1 1214 1220 1222
4245 1 1214 1220 1223
4246 1 1217 1214 1220
4247 1 1218 1214 1220
4248 5 1219 1226 1233
4249 4 1220 1221 1227
4250 4 1221 1227 1228
4251 1 1221 1227 1229
4252 1 1221 1227 1230
4253 1 1224 1221 1227
4254 1 1225 1221 1227
4255 5 1226 1233 1240
4256 4 1227 1228 1234
4257 4 1228 1234 1235
4258 1 1228 1234 1236
4259 1 1228 1234 1237
4260 1 1231 1228 1234
4261 1 1232 1228 1234
4262 5 1233 1240 1247
4263 4 1234 1235 1241
4264 4 1235 1241 1242
4265 1 1235 1241 1243
4266 1 1235 1241 1244
4267 1 1238 1235 1241
4268 1 1239 1235 1241
4269 5 1240 1247 1254
4270 4 1241 1242 1248
4271 4 1242 1248 1249
4272 1 1242 1248 1250
4273 1 1242 1248 1251
4274 1 1245 1242 1248
4275 1 1246 1242 1248
4276 5 1247 1254 1261
4277 4 1248 1249 1255
4278 4 1249 1255 1256
4279 1 1249 1255 1257
4280 1 1249 1255 1258
4281 1 1252 1249 1255
4282 1 1253 1249 1255
4283 5 1254 1261 1268
4284 4 1255 1256 1262
4285 4 1256 1262 1263
4286 1 1256 1262 1264
4287 1 1256 1262 1265
4288 1 1259 1256 1262
4289 1 1260 1256 1262
4290 5 1261 1268 1275
4291 4 1262 1263 1269
4292 4 1263 1269 1270
4293 1 1263 1269 1271
4294 1 1263 1269 1272
4295 1 1266 1263 1269
4296 1 1267 1263 1269
4297 5 1268 1275 1282
4298 4 1269 1270 1276
4299 4 1270 1276 1277
4300 1 1270 1276 1278
4301 1 1270 1276 1279
4302 1 1273 1270 1276
4303 1 1274 1270 1276
4304 5 1275 1282 1289
4305 4 1276 1277 1283
4306 4 1277 1283 1284
4307 1 1277 1283 1285
4308 1 1277 1283 1286
4309 1 1280 1277 1283
4310 1 1281 1277 1283
4311 5 1282 1289 1296
4312 4 1283 1284 1290
4313 4 1284 1290 1291
4314 1 1284 1290 1292
4315 1 1284 1290 1293
4316 1 1287 1284 1290
4317 1 1288 1284 1290
4318 5 1289 1296 1303
4319 4 1290 1291 1297
4320 4 1291 1297 1298
4321 1 1291 1297 1299
4322 1 1291 1297 1300
4323 1 1294 1291 1297
4324 1 1295 1291 1297
4325 5 1296 1303 1310
4326 4 1297 1298 1304
4327 4 1298 1304 1305
4328 1 1298 1304 1306
4329 1 1298 1304 1307
4330 1 1301 1298 1304
4331 1 1302 1298 1304
4332 5 1303 1310 1317
4333 4 1304 1305 1311
4334 4 1305 1311 1312
4335 1 1305 1311 1313
4336 1 1305 1311 1314
4337 1 1308 1305 1311
4338 1 1309 1305 1311
4339 5 1310 1317 1324
4340 4 1311 1312 1318
4341 4 1312 1318 1319
4342 1 1312 1318 1320
4343 1 1312 1318 1321
4344 1 1315 1312 1318
4345 1 1316 1312 1318
4346 5 1317 1324 1331
4347 4 1318 1319 1325
4348 4 1319 1325 1326
4349 1 1319 1325 1327
4350 1 1319 1325 1328
4351 1 1322 1319 1325
4352 1 1323 1319 1325
4353 5 1324 1331 1338
4354 4 1325 1326 1332
4355 4 1326 1332 1333
4356 1 1326 1332 1334
4357 1 1326 1332 1335
4358 1 1329 1326 1332
4359 1 1330 1326 1332
4360 5 1331 1338 1345
4361 4 1332 1333 1339
4362 4 1333 1339 1340
4363 1 1333 1339 1341
4364 1 1333 1339 1342
4365 1 1336 1333 1339
4366 1 1337 1333 1339
4367 5 1338 1345 1352
4368 4 1339 1340 1346
4369 4 1340 1346 1347
4370 1 1340 1346 1348
4371 1 1340 1346 1349
4372 1 1343 1340 1346
4373 1 1344 1340 1346
4374 5 1345 1352 1359
4375 4 1346 1347 1353
4376 4 1347 1353 1354
4377 1 1347 1353 1355
4378 1 1347 1353 1356
4379 1 1350 1347 1353
4380 1 1351 1347 1353
4381 5 1352 1359 1366
4382 4 1353 1354 1360
4383 4 1354 1360 1361
4384 1 1354 1360 1362
4385 1 1354 1360 1363
4386 1 1357 1354 1360
4387 1 1358 1354 1360
4388 5 1359 1366 1373
4389 4 1360 1361 1367
4390 4 1361 1367 1368
4391 1 1361 1367 1369
4392 1 1361 1367 1370
4393 1 1364 1361 1367
4394 1 1365 1361 1367
4395 5 1366 1373 1380
4396 4 1367 1368 1374
4397 4 1368 1374 1375
4398 1 1368 1374 1376
4399 1 1368 1374 1377
4400 1 1371 1368 1374
4401 1 1372 1368 1374
4402 5 1373 1380 1387
4403 4 1374 1375 1381
4404 4 1375 1381 1382
4405 1 1375 1381 1383
4406 1 1375 1381 1384
4407 1 1378 1375 1381
4408 1 1379 1375 1381
4409 5 1380 1387 1394
4410 4 1381 1382 1388
4411 4 1382 1388 1389
4412 1 1382 1388 1390
4413 1 1382 1388 1391
4414 1 1385 1382 1388
4415 1 1386 1382 1388
4416 3 1387 1394 1401
4417 4 1388 1389 1395
4418 4 1389 1395 1396
4419 1 1389 1395 1397
4420 1 1389 1395 1398
4421 1 1392 1389 1395
4422 1 1393 1389 1395
4423 4 1395 1396 1402
4424 4 1396 1402 1403
4425 1 1396 1402 1404
4426 1 1396 1402 1405
4427 1 1399 1396 1402
4428 1 1400 1396 1402
4429 3 1409 1417 1424
4430 4 1410 1418 1419
4431 1 1410 1418 1420
4432 1 1410 1418 1421
4433 1 1412 1410 1418
4434 1 1413 1410 1418
4435 5 1417 1424 1431
4436 4 1418 1410 1411
4437 4 1418 1419 1425
4438 4 1419 1425 1426
4439 1 1419 1425 1427
4440 1 1419 1425 1428
4441 1 1422 1419 1425
4442 1 1423 1419 1425
4443 5 1424 1431 1438
4444 4 1425 1426 1432
4445 4 1426 1432 1433
4446 1 1426 1432 1434
4447 1 1426 1432 1435
4448 1 1429 1426 1432
4449 1 1430 1426 1432
4450 5 1431 1438 1445
4451 4 1432 1433 1439
4452 4 1433 1439 1440
4453 1 1433 1439 1441
4454 1 1433 1439 1442
4455 1 1436 1433 1439
4456 1 1437 1433 1439
4457 5 1438 1445 1452
4458 4 1439 1440 1446
4459 4 1440 1446 1447
4460 1 1440 1446 1448
4461 1 1440 1446 1449
4462 1 1443 1440 1446
4463 1 1444 1440 1446
4464 5 1445 1452 1459
4465 4 1446 1447 1453
4466 4 1447 1453 1454
4467 1 1447 1453 1455
4468 1 1447 1453 1456
4469 1 1450 1447 1453
4470 1 1451 1447 1453
4471 5 1452 1459 1466
4472 4 1453 1454 1460
4473 4 1454 1460 1461
4474 1 1454 1460 1462
4475 1 1454 1460 1463
4476 1 1457 1454 1460
4477 1 1458 1454 1460
4478 5 1459 1466 1473
4479 4 1460 1461 1467
4480 4 1461 1467 1468
4481 1 1461 1467 1469
4482 1 1461 1467 1470
4483 1 1464 1461 1467
4484 1 1465 1461 1467
4485 5 1466 1473 1480
4486 4 1467 1468 1474
4487 4 1468 1474 1475
4488 1 1468 1474 1476
4489 1 1468 1474 1477
4490 1 1471 1468 1474
4491 1 1472 1468 1474
4492 5 1473 1480 1487
4493 4 1474 1475 1481
4494 4 1475 1481 1482
4495 1 1475 1481 1483
4496 1 1475 1481 1484
4497 1 1478 1475 1481
4498 1 1479 1475 1481
4499 5 1480 1487 1494
4500 4 1481 1482 1488
4501 4 1482 1488 1489
4502 1 1482 1488 1490
4503 1 1482 1488 1491
4504 1 1485 1482 1488
4505 1 1486 1482 1488
4506 5 1487 1494 1501
4507 4 1488 1489 1495
4508 4 1489 1495 1496
4509 1 1489 1495 1497
4510 1 1489 1495 1498
4511 1 1492 1489 1495
4512 1 1493 1489 1495
4513 5 1494 1501 1508
4514 4 1495 1496 1502
4515 4 1496 1502 1503
4516 1 1496 1502 1504
4517 1 1496 1502 1505
4518 1 1499 1496 1502
4519 1 1500 1496 1502
4520 5 1501 1508 1515
4521 4 1502 1503 1509
4522 4 1503 1509 1510
4523 1 1503 1509 1511
4524 1 1503 1509 1512
4525 1 1506 1503 1509
4526 1 1507 1503 1509
4527 5 1508 1515 1522
4528 4 1509 1510 1516
4529 4 1510 1516 1517
4530 1 1510 1516 1518
4531 1 1510 1516 1519
4532 1 1513 1510 1516
4533 1 1514 1510 1516
4534 5 1515 1522 1529
4535 4 1516 1517 1523
4536 4 1517 1523 1524
4537 1 1517 1523 1525
4538 1 1517 1523 1526
4539 1 1520 1517 1523
4540 1 1521 1517 1523
4541 5 1522 1529 1536
4542 4 1523 1524 1530
4543 4 1524 1530 1531
4544 1 1524 1530 1532
4545 1 1524 1530 1533
4546 1 1527 1524 1530
4547 1 1528 1524 1530
4548 5 1529 1536 1543
4549 4 1530 1531 1537
4550 4 1531 1537 1538
4551 1 1531 1537 1539
4552 1 1531 1537 1540
4553 1 1534 1531 1537
4554 1 1535 1531 1537
4555 5 1536 1543 1550
4556 4 1537 1538 1544
4557 4 1538 1544 1545
4558 1 1538 1544 1546
4559 1 1538 1544 1547
4560 1 1541 1538 1544
4561 1 1542 1538 1544
4562 5 1543 1550 1557
4563 4 1544 1545 1551
4564 4 1545 1551 1552
4565 1 1545 1551 1553
4566 1 1545 1551 1554
4567 1 1548 1545 1551
4568 1 1549 1545 1551
4569 5 1550 1557 1564
4570 4 1551 1552 1558
4571 4 1552 1558 1559
4572 1 1552 1558 1560
4573 1 1552 1558 1561
4574 1 1555 1552 1558
4575 1 1556 1552 1558
4576 5 1557 1564 1571
4577 4 1558 1559 1565
4578 4 1559 1565 1566
4579 1 1559 1565 1567
4580 1 1559 1565 1568
4581 1 1562 1559 1565
4582 1 1563 1559 1565
4583 5 1564 1571 1578
4584 4 1565 1566 1572
4585 4 1566 1572 1573
4586 1 1566 1572 1574
4587 1 1566 1572 1575
4588 1 1569 1566 1572
4589 1 1570 1566 1572
4590 5 1571 1578 1585
4591 4 1572 1573 1579
4592 4 1573 1579 1580
4593 1 1573 1579 1581
4594 1 1573 1579 1582
4595 1 1576 1573 1579
4596 1 1577 1573 1579
4597 5 1578 1585 1592
4598 4 1579 1580 1586
4599 4 1580 1586 1587
4600 1 1580 1586 1588
4601 1 1580 1586 1589
4602 1 1583 1580 1586
4603 1 1584 1580 1586
4604 5 1585 1592 1599
4605 4 1586 1587 1593
4606 4 1587 1593 1594
4607 1 1587 1593 1595
4608 1 1587 1593 1596
4609 1 1590 1587 1593
4610 1 1591 1587 1593
4611 5 1592 1599 1606
4612 4 1593 1594 1600
4613 4 1594 1600 1601
4614 1 1594 1600 1602
4615 1 1594 1600 1603
4616 1 1597 1594 1600
4617 1 1598 1594 1600
4618 5 1599 1606 1613
4619 4 1600 1601 1607
4620 4 1601 1607 1608
4621 1 1601 1607 1609
4622 1 1601 1607 1610
4623 1 1604 1601 1607
4624 1 1605 1601 1607
4625 5 1606 1613 1620
4626 4 1607 1608 1614
4627 4 1608 1614 1615
4628 1 1608 1614 1616
4629 1 1608 1614 1617
4630 1 1611 1608 1614
4631 1 1612 1608 1614
4632 5 1613 1620 1627
4633 4 1614 1615 1621
4634 4 1615 1621 1622
4635 1 1615 1621 1623
4636 1 1615 1621 1624
4637 1 1618 1615 1621
4638 1 1619 1615 1621
4639 5 1620 1627 1634
4640 4 1621 1622 1628
4641 4 1622 1628 1629
4642 1 1622 1628 1630
4643 1 1622 1628 1631
4644 1 1625 1622 1628
4645 1 1626 1622 1628
4646 5 1627 1634 1641
4647 4 1628 1629 1635
4648 4 1629 1635 1636
4649 1 1629 1635 1637
4650 1 1629 1635 1638
4651 1 1632 1629 1635
4652 1 1633 1629 1635
4653 5 1634 1641 1648
4654 4 1635 1636 1642
4655 4 1636 1642 1643
4656 1 1636 1642 1644
4657 1 1636 1642 1645
4658 1 1639 1636 1642
4659 1 1640 1636 1642
4660 5 1641 1648 1655
4661 4 1642 1643 1649
4662 4 1643 1649 1650
4663 1 1643 1649 1651
4664 1 1643 1649 1652
4665 1 1646 1643 1649
4666 1 1647 1643 1649
4667 5 1648 1655 1662
4668 4 1649 1650 1656
4669 4 1650 1656 1657
4670 1 1650 1656 1658
4671 1 1650 1656 1659
4672 1 1653 1650 1656
4673 1 1654 1650 1656
4674 5 1655 1662 1669
4675 4 1656 1657 1663
4676 4 1657 1663 1664
4677 1 1657 1663 1665
4678 1 1657 1663 1666
4679 1 1660 1657 1663
4680 1 1661 1657 1663
4681 5 1662 1669 1676
4682 4 1663 1664 1670
4683 4 1664 1670 1671
4684 1 1664 1670 1672
4685 1 1664 1670 1673
4686 1 1667 1664 1670
4687 1 1668 1664 1670
4688 5 1669 1676 1683
4689 4 1670 1671 1677
4690 4 1671 1677 1678
4691 1 1671 1677 1679
4692 1 1671 1677 1680
4693 1 1674 1671 1677
4694 1 1675 1671 1677
4695 5 1676 1683 1690
4696 4 1677 1678 1684
4697 4 1678 1684 1685
4698 1 1678 1684 1686
4699 1 1678 1684 1687
4700 1 1681 1678 1684
4701 1 1682 1678 1684
4702 5 1683 1690 1697
4703 4 1684 1685 1691
4704 4 1685 1691 1692
4705 1 1685 1691 1693
4706 1 1685 1691 1694
4707 1 1688 1685 1691
4708 1 1689 1685 1691
4709 5 1690 1697 1704
4710 4 1691 1692 1698
4711 4 1692 1698 1699
4712 1 1692 1698 1700
4713 1 1692 1698 1701
4714 1 1695 1692 1698
4715 1 1696 1692 1698
4716 5 1697 1704 1711
4717 4 1698 1699 1705
4718 4 1699 1705 1706
4719 1 1699 1705 1707
4720 1 1699 1705 1708
4721 1 1702 1699 1705
4722 1 1703 1699 1705
4723 5 1704 1711 1718
4724 4 1705 1706 1712
4725 4 1706 1712 1713
4726 1 1706 1712 1714
4727 1 1706 1712 1715
4728 1 1709 1706 1712
4729 1 1710 1706 1712
4730 5 1711 1718 1725
4731 4 1712 1713 1719
4732 4 1713 1719 1720
4733 1 1713 1719 1721
4734 1 1713 1719 1722
4735 1 1716 1713 1719
4736 1 1717 1713 1719
4737 5 1718 1725 1732
4738 4 1719 1720 1726
4739 4 1720 1726 1727
4740 1 1720 1726 1728
4741 1 1720 1726 1729
4742 1 1723 1720 1726
4743 1 1724 1720 1726
4744 5 1725 1732 1739
4745 4 1726 1727 1733
4746 4 1727 1733 1734
4747 1 1727 1733 1735
4748 1 1727 1733 1736
4749 1 1730 1727 1733
4750 1 1731 1727 1733
4751 5 1732 1739 1746
4752 4 1733 1734 1740
4753 4 1734 1740 1741
4754 1 1734 1740 1742
4755 1 1734 1740 1743
4756 1 1737 1734 1740
4757 1 1738 1734 1740
4758 3 1739 1746 1753
4759 4 1740 1741 1747
4760 4 1741 1747 1748
4761 1 1741 1747 1749
4762 1 1741 1747 1750
4763 1 1744 1741 1747
4764 1 1745 1741 1747
4765 4 1747 1748 1754
4766 4 1748 1754 1755
4767 1 1748 1754 1756
4768 1 1748 1754 1757
4769 1 1751 1748 1754
4770 1 1752 1748 1754
4771 3 1761 1769 1776
4772 4 1762 1770 1771
4773 1 1762 1770 1772
4774 1 1762 1770 1773
4775 1 1764 1762 1770
4776 1 1765 1762 1770
4777 5 1769 1776 1783
4778 4 1770 1762 1763
4779 4 1770 1771 1777
4780 4 1771 1777 1778
4781 1 1771 1777 1779
4782 1 1771 1777 1780
4783 1 1774 1771 1777
4784 1 1775 1771 1777
4785 5 1776 1783 1790
4786 4 1777 1778 1784
4787 4 1778 1784 1785
4788 1 1778 1784 1786
4789 1 1778 1784 1787
4790 1 1781 1778 1784
4791 1 1782 1778 1784
4792 5 1783 1790 1797
4793 4 1784 1785 1791
4794 4 1785 1791 1792
4795 1 1785 1791 1793
4796 1 1785 1791 1794
4797 1 1788 1785 1791
4798 1 1789 1785 1791
4799 5 1790 1797 1804
4800 4 1791 1792 1798
4801 4 1792 1798 1799
4802 1 1792 1798 1800
4803 1 1792 1798 1801
4804 1 1795 1792 1798
4805 1 1796 1792 1798
4806 5 1797 1804 1811
4807 4 1798 1799 1805
4808 4 1799 1805 1806
4809 1 1799 1805 1807
4810 1 1799 1805 1808
4811 1 1802 1799 1805
4812 1 1803 1799 1805
4813 5 1804 1811 1818
4814 4 1805 1806 1812
4815 4 1806 1812 1813
4816 1 1806 1812 1814
4817 1 1806 1812 1815
4818 1 1809 1806 1812
4819 1 1810 1806 1812
4820 5 1811 1818 1825
4821 4 1812 1813 1819
4822 4 1813 1819 1820
4823 1 1813 1819 1821
4824 1 1813 1819 1822
4825 1 1816 1813 1819
4826 1 1817 1813 1819
4827 5 1818 1825 1832
4828 4 1819 1820 1826
4829 4 1820 1826 1827
4830 1 1820 1826 1828
4831 1 1820 1826 1829
4832 1 1823 1820 1826
4833 1 1824 1820 1826
4834 5 1825 1832 1839
4835 4 1826 1827 1833
4836 4 1827 1833 1834
4837 1 1827 1833 1835
4838 1 1827 1833 1836
4839 1 1830 1827 1833
4840 1 1831 1827 1833
4841 5 1832 1839 1846
4842 4 1833 1834 1840
4843 4 1834 1840 1841
4844 1 1834 1840 1842
4845 1 1834 1840 1843
4846 1 1837 1834 1840
4847 1 1838 1834 1840
4848 5 1839 1846 1853
4849 4 1840 1841 1847
4850 4 1841 1847 1848
4851 1 1841 1847 1849
4852 1 1841 1847 1850
4853 1 1844 1841 1847
4854 1 1845 1841 1847
4855 5 1846 1853 1860
4856 4 1847 1848 1854
4857 4 1848 1854 1855
4858 1 1848 1854 1856
4859 1 1848 1854 1857
4860 1 1851 1848 1854
4861 1 1852 1848 1854
4862 5 1853 1860 1867
4863 4 1854 1855 1861
4864 4 1855 1861 1862
4865 1 1855 1861 1863
4866 1 1855 1861 1864
4867 1 1858 1855 1861
4868 1 1859 1855 1861
4869 5 1860 1867 1874
4870 4 1861 1862 1868
4871 4 1862 1868 1869
4872 1 1862 1868 1870
4873 1 1862 1868 1871
4874 1 1865 1862 1868
4875 1 1866 1862 1868
4876 5 1867 1874 1881
4877 4 1868 1869 1875
4878 4 1869 1875 1876
4879 1 1869 1875 1877
4880 1 1869 1875 1878
4881 1 1872 1869 1875
4882 1 1873 1869 1875
4883 5 1874 1881 1888
4884 4 1875 1876 1882
4885 4 1876 1882 1883
4886 1 1876 1882 1884
4887 1 1876 1882 1885
4888 1 1879 1876 1882
4889 1 1880 1876 1882
4890 5 1881 1888 1895
4891 4 1882 1883 1889
4892 4 1883 1889 1890
4893 1 1883 1889 1891
4894 1 1883 1889 1892
4895 1 1886 1883 1889
4896 1 1887 1883 1889
4897 5 1888 1895 1902
4898 4 1889 1890 1896
4899 4 1890 1896 1897
4900 1 1890 1896 1898
4901 1 1890 1896 1899
4902 1 1893 1890 1896
4903 1 1894 1890 1896
4904 5 1895 1902 1909
4905 4 1896 1897 1903
4906 4 1897 1903 1904
4907 1 1897 1903 1905
4908 1 1897 1903 1906
4909 1 1900 1897 1903
4910 1 1901 1897 1903
4911 5 1902 1909 1916
4912 4 1903 1904 1910
4913 4 1904 1910 1911
4914 1 1904 1910 1912
4915 1 1904 1910 1913
4916 1 1907 1904 1910
4917 1 1908 1904 1910
4918 5 1909 1916 1923
4919 4 1910 1911 1917
4920 4 1911 1917 1918
4921 1 1911 1917 1919
4922 1 1911 1917 1920
4923 1 1914 1911 1917
4924 1 1915 1911 1917
4925 5 1916 1923 1930
4926 4 1917 1918 1924
4927 4 1918 1924 1925
4928 1 1918 1924 1926
4929 1 1918 1924 1927
4930 1 1921 1918 1924
4931 1 1922 1918 1924
4932 5 1923 1930 1937
4933 4 1924 1925 1931
4934 4 1925 1931 1932
4935 1 1925 1931 1933
4936 1 1925 1931 1934
4937 1 1928 1925 1931
4938 1 1929 1925 1931
4939 5 1930 1937 1944
4940 4 1931 1932 1938
4941 4 1932 1938 1939
4942 1 1932 1938 1940
4943 1 1932 1938 1941
4944 1 1935 1932 1938
4945 1 1936 1932 1938
4946 5 1937 1944 1951
4947 4 1938 1939 1945
4948 4 1939 1945 1946
4949 1 1939 1945 1947
4950 1 1939 1945 1948
4951 1 1942 1939 1945
4952 1 1943 1939 1945
4953 5 1944 1951 1958
4954 4 1945 1946 1952
4955 4 1946 1952 1953
4956 1 1946 1952 1954
4957 1 1946 1952 1955
4958 1 1949 1946 1952
4959 1 1950 1946 1952
4960 5 1951 1958 1965
4961 4 1952 1953 1959
4962 4 1953 1959 1960
4963 1 1953 1959 1961
4964 1 1953 1959 1962
4965 1 1956 1953 1959
4966 1 1957 1953 1959
4967 5 1958 1965 1972
4968 4 1959 1960 1966
4969 4 1960 1966 1967
4970 1 1960 1966 1968
4971 1 1960 1966 1969
4972 1 1963 1960 1966
4973 1 1964 1960 1966
4974 5 1965 1972 1979
4975 4 1966 1967 1973
4976 4 1967 1973 1974
4977 1 1967 1973 1975
4978 1 1967 1973 1976
4979 1 1970 1967 1973
4980 1 1971 1967 1973
4981 5 1972 1979 1986
4982 4 1973 1974 1980
4983 4 1974 1980 1981
4984 1 1974 1980 1982
4985 1 1974 1980 1983
4986 1 1977 1974 1980
4987 1 1978 1974 1980
4988 5 1979 1986 1993
4989 4 1980 1981 1987
4990 4 1981 1987 1988
4991 1 1981 1987 1989
4992 1 1981 1987 1990
4993 1 1984 1981 1987
4994 1 1985 1981 1987
4995 5 1986 1993 2000
4996 4 1987 1988 1994
4997 4 1988 1994 1995
4998 1 1988 1994 1996
4999 1 1988 1994 1997
5000 1 1991 1988 1994
5001 1 1992 1988 1994
5002 5 1993 2000 2007
5003 4 1994 1995 2001
5004 4 1995 2001 2002
5005 1 1995 2001 2003
5006 1 1995 2001 2004
5007 1 1998 1995 2001
5008 1 1999 1995 2001
5009 5 2000 2007 2014
5010 4 2001 2002 2008
5011 4 2002 2008 2009
5012 1 2002 2008 2010
5013 1 2002 2008 2011
5014 1 2005 2002 2008
5015 1 2006 2002 2008
5016 5 2007 2014 2021
5017 4 2008 2009 2015
5018 4 2009 2015 2016
5019 1 2009 2015 2017
5020 1 2009 2015 2018
5021 1 2012 2009 2015
5022 1 2013 2009 2015
5023 5 2014 2021 2028
5024 4 2015 2016 2022
5025 4 2016 2022 2023
5026 1 2016 2022 2024
5027 1 2016 2022 2025
5028 1 2019 2016 2022
5029 1 2020 2016 2022
5030 5 2021 2028 2035
5031 4 2022 2023 2029
5032 4 2023 2029 2030
5033 1 2023 2029 2031
5034 1 2023 2029 2032
5035 1 2026 2023 2029
5036 1 2027 2023 2029
5037 5 2028 2035 2042
5038 4 2029 2030 2036
5039 4 2030 2036 2037
5040 1 2030 2036 2038
5041 1 2030 2036 2039
5042 1 2033 2030 2036
5043 1 2034 2030 2036
5044 5 2035 2042 2049
5045 4 2036 2037 2043
5046 4 2037 2043 2044
5047 1 2037 2043 2045
5048 1 2037 2043 2046
5049 1 2040 2037 2043
5050 1 2041 2037 2043
5051 5 2042 2049 2056
5052 4 2043 2044 2050
5053 4 2044 2050 2051
5054 1 2044 2050 2052
5055 1 2044 2050 2053
5056 1 2047 2044 2050
5057 1 2048 2044 2050
5058 5 2049 2056 2063
5059 4 2050 2051 2057
5060 4 2051 2057 2058
5061 1 2051 2057 2059
5062 1 2051 2057 2060
5063 1 2054 2051 2057
5064 1 2055 2051 2057
5065 5 2056 2063 2070
5066 4 2057 2058 2064
5067 4 2058 2064 2065
5068 1 2058 2064 2066
5069 1 2058 2064 2067
5070 1 2061 2058 2064
5071 1 2062 2058 2064
5072 5 2063 2070 2077
5073 4 2064 2065 2071
5074 4 2065 2071 2072
5075 1 2065 2071 2073
5076 1 2065 2071 2074
5077 1 2068 2065 2071
5078 1 2069 2065 2071
5079 5 2070 2077 2084
5080 4 2071 2072 2078
5081 4 2072 2078 2079
5082 1 2072 2078 2080
5083 1 2072 2078 2081
5084 1 2075 2072 2078
5085 1 2076 2072 2078
5086 5 2077 2084 2091
5087 4 2078 2079 2085
5088 4 2079 2085 2086
5089 1 2079 2085 2087
5090 1 2079 2085 2088
5091 1 2082 2079 2085
5092 1 2083 2079 2085
5093 5 2084 2091 2098
5094 4 2085 2086 2092
5095 4 2086 2092 2093
5096 1 2086 2092 2094
5097 1 2086 2092 2095
5098 1 2089 2086 2092
5099 1 2090 2086 2092
5100 3 2091 2098 2105
5101 4 2092 2093 2099
5102 4 2093 2099 2100
5103 1 2093 2099 2101
5104 1 2093 2099 2102
5105 1 2096 2093 2099
5106 1 2097 2093 2099
5107 4 2099 2100 2106
5108 4 2100 2106 2107
5109 1 2100 2106 2108
5110 1 2100 2106 2109
5111 1 2103 2100 2106
5112 1 2104 2100 2106
5113 3 2113 2121 2128
5114 4 2114 2122 2123
5115 1 2114 2122 2124
5116 1 2114 2122 2125
5117 1 2116 2114 2122
5118 1 2117 2114 2122
5119 5 2121 2128 2135
5120 4 2122 2114 2115
5121 4 2122 2123 2129
5122 4 2123 2129 2130
5123 1 2123 2129 2131
5124 1 2123 2129 2132
5125 1 2126 2123 2129
5126 1 2127 2123 2129
5127 5 2128 2135 2142
5128 4 2129 2130 2136
5129 4 2130 2136 2137
5130 1 2130 2136 2138
5131 1 2130 2136 2139
5132 1 2133 2130 2136
5133 1 2134 2130 2136
5134 5 2135 2142 2149
5135 4 2136 2137 2143
5136 4 2137 2143 2144
5137 1 2137 2143 2145
5138 1 2137 2143 2146
5139 1 2140 2137 2143
5140 1 2141 2137 2143
5141 5 2142 2149 2156
5142 4 2143 2144 2150
5143 4 2144 2150 2151
5144 1 2144 2150 2152
5145 1 2144 2150 2153
5146 1 2147 2144 2150
5147 1 2148 2144 2150
5148 5 2149 2156 2163
5149 4 2150 2151 2157
5150 4 2151 2157 2158
5151 1 2151 2157 2159
5152 1 2151 2157 2160
5153 1 2154 2151 2157
5154 1 2155 2151 2157
5155 5 2156 2163 2170
5156 4 2157 2158 2164
5157 4 2158 2164 2165
5158 1 2158 2164 2166
5159 1 2158 2164 2167
5160 1 2161 2158 2164
5161 1 2162 2158 2164
5162 5 2163 2170 2177
5163 4 2164 2165 2171
5164 4 2165 2171 2172
5165 1 2165 2171 2173
5166 1 2165 2171 2174
5167 1 2168 2165 2171
5168 1 2169 2165 2171
5169 5 2170 2177 2184
5170 4 2171 2172 2178
5171 4 2172 2178 2179
5172 1 2172 2178 2180
5173 1 2172 2178 2181
5174 1 2175 2172 2178
5175 1 2176 2172 2178
5176 5 2177 2184 2191
5177 4 2178 2179 2185
5178 4 2179 2185 2186
5179 1 2179 2185 2187
5180 1 2179 2185 2188
5181 1 2182 2179 2185
5182 1 2183 2179 2185
5183 5 2184 2191 2198
5184 4 2185 2186 2192
5185 4 2186 2192 2193
5186 1 2186 2192 2194
5187 1 2186 2192 2195
5188 1 2189 2186 2192
5189 1 2190 2186 2192
5190 5 2191 2198 2205
5191 4 2192 2193 2199
5192 4 2193 2199 2200
5193 1 2193 2199 2201
5194 1 2193 2199 2202
5195 1 2196 2193 2199
5196 1 2197 2193 2199
5197 5 2198 2205 2212
5198 4 2199 2200 2206
5199 4 2200 2206 2207
5200 1 2200 2206 2208
5201 1 2200 2206 2209
5202 1 2203 2200 2206
5203 1 2204 2200 2206
5204 5 2205 2212 2219
5205 4 2206 2207 2213
5206 4 2207 2213 2214
5207 1 2207 2213 2215
5208 1 2207 2213 2216
5209 1 2210 2207 2213
5210 1 2211 2207 2213
5211 5 2212 2219 2226
5212 4 2213 2214 2220
5213 4 2214 2220 2221
5214 1 2214 2220 2222
5215 1 2214 2220 2223
5216 1 2217 2214 2220
5217 1 2218 2214 2220
5218 5 2219 2226 2233
5219 4 2220 2221 2227
5220 4 2221 2227 2228
5221 1 2221 2227 2229
5222 1 2221 2227 2230
5223 1 2224 2221 2227
5224 1 2225 2221 2227
5225 5 2226 2233 2240
5226 4 2227 2228 2234
5227 4 2228 2234 2235
5228 1 2228 2234 2236
5229 1 2228 2234 2237
5230 1 2231 2228 2234
5231 1 2232 2228 2234
5232 5 2233 2240 2247
5233 4 2234 2235 2241
5234 4 2235 2241 2242
5235 1 2235 2241 2243
5236 1 2235 2241 2244
5237 1 2238 2235 2241
5238 1 2239 2235 2241
5239 5 2240 2247 2254
5240 4 2241 2242 2248
5241 4 2242 2248 2249
5242 1 2242 2248 2250
5243 1 2242 2248 2251
5244 1 2245 2242 2248
5245 1 2246 2242 2248
5246 5 2247 2254 2261
5247 4 2248 2249 2255
5248 4 2249 2255 2256
5249 1 2249 2255 2257
5250 1 2249 2255 2258
5251 1 2252 2249 2255
5252 1 2253 2249 2255
5253 5 2254 2261 2268
5254 4 2255 2256 2262
5255 4 2256 2262 2263
5256 1 2256 2262 2264
5257 1 2256 2262 2265
5258 1 2259 2256 2262
5259 1 2260 2256 2262
5260 5 2261 2268 2275
5261 4 2262 2263 2269
5262 4 2263 2269 2270
5263 1 2263 2269 2271
5264 1 2263 2269 2272
5265 1 2266 2263 2269
5266 1 2267 2263 2269
5267 5 2268 2275 2282
5268 4 2269 2270 2276
5269 4 2270 2276 2277
5270 1 2270 2276 2278
5271 1 2270 2276 2279
5272 1 2273 2270 2276
5273 1 2274 2270 2276
5274 5 2275 2282 2289
5275 4 2276 2277 2283
5276 4 2277 2283 2284
5277 1 2277 2283 2285
5278 1 2277 2283 2286
5279 1 2280 2277 2283
5280 1 2281 2277 2283
5281 5 2282 2289 2296
5282 4 2283 2284 2290
5283 4 2284 2290 2291
5284 1 2284 2290 2292
5285 1 2284 2290 2293
5286 1 2287 2284 2290
5287 1 2288 2284 2290
5288 5 2289 2296 2303
5289 4 2290 2291 2297
5290 4 2291 2297 2298
5291 1 2291 2297 2299
5292 1 2291 2297 2300
5293 1 2294 2291 2297
5294 1 2295 2291 2297
5295 5 2296 2303 2310
5296 4 2297 2298 2304
5297 4 2298 2304 2305
5298 1 2298 2304 2306
5299 1 2298 2304 2307
5300 1 2301 2298 2304
5301 1 2302 2298 2304
5302 5 2303 2310 2317
5303 4 2304 2305 2311
5304 4 2305 2311 2312
5305 1 2305 2311 2313
5306 1 2305 2311 2314
5307 1 2308 2305 2311
5308 1 2309 2305 2311
5309 5 2310 2317 2324
5310 4 2311 2312 2318
5311 4 2312 2318 2319
5312 1 2312 2318 2320
5313 1 2312 2318 2321
5314 1 2315 2312 2318
5315 1 2316 2312 2318
5316 5 2317 2324 2331
5317 4 2318 2319 2325
5318 4 2319 2325 2326
5319 1 2319 2325 2327
5320 1 2319 2325 2328
5321 1 2322 2319 2325
5322 1 2323 2319 2325
5323 5 2324 2331 2338
5324 4 2325 2326 2332
5325 4 2326 2332 2333
5326 1 2326 2332 2334
5327 1 2326 2332 2335
5328 1 2329 2326 2332
5329 1 2330 2326 2332
5330 5 2331 2338 2345
5331 4 2332 2333 2339
5332 4 2333 2339 2340
5333 1 2333 2339 2341
5334 1 2333 2339 2342
5335 1 2336 2333 2339
5336 1 2337 2333 2339
5337 5 2338 2345 2352
5338 4 2339 2340 2346
5339 4 2340 2346 2347
5340 1 2340 2346 2348
5341 1 2340 2346 2349
5342 1 2343 2340 2346
5343 1 2344 2340 2346
5344 5 2345 2352 2359
5345 4 2346 2347 2353
5346 4 2347 2353 2354
5347 1 2347 2353 2355
5348 1 2347 2353 2356
5349 1 2350 2347 2353
5350 1 2351 2347 2353
5351 5 2352 2359 2366
5352 4 2353 2354 2360
5353 4 2354 2360 2361
5354 1 2354 2360 2362
5355 1 2354 2360 2363
5356 1 2357 2354 2360
5357 1 2358 2354 2360
5358 5 2359 2366 2373
5359 4 2360 2361 2367
5360 4 2361 2367 2368
5361 1 2361 2367 2369
5362 1 2361 2367 2370
5363 1 2364 2361 2367
5364 1 2365 2361 2367
5365 5 2366 2373 2380
5366 4 2367 2368 2374
5367 4 2368 2374 2375
5368 1 2368 2374 2376
5369 1 2368 2374 2377
5370 1 2371 2368 2374
5371 1 2372 2368 2374
5372 5 2373 2380 2387
5373 4 2374 2375 2381
5374 4 2375 2381 2382
5375 1 2375 2381 2383
5376 1 2375 2381 2384
5377 1 2378 2375 2381
5378 1 2379 2375 2381
5379 5 2380 2387 2394
5380 4 2381 2382 2388
5381 4 2382 2388 2389
5382 1 2382 2388 2390
5383 1 2382 2388 2391
5384 1 2385 2382 2388
5385 1 2386 2382 2388
5386 5 2387 2394 2401
5387 4 2388 2389 2395
5388 4 2389 2395 2396
5389 1 2389 2395 2397
5390 1 2389 2395 2398
5391 1 2392 2389 2395
5392 1 2393 2389 2395
5393 5 2394 2401 2408
5394 4 2395 2396 2402
5395 4 2396 2402 2403
5396 1 2396 2402 2404
5397 1 2396 2402 2405
5398 1 2399 2396 2402
5399 1 2400 2396 2402
5400 5 2401 2408 2415
5401 4 2402 2403 2409
5402 4 2403 2409 2410
5403 1 2403 2409 2411
5404 1 2403 2409 2412
5405 1 2406 2403 2409
5406 1 2407 2403 2409
5407 5 2408 2415 2422
5408 4 2409 2410 2416
5409 4 2410 2416 2417
5410 1 2410 2416 2418
5411 1 2410 2416 2419
5412 1 2413 2410 2416
5413 1 2414 2410 2416
5414 5 2415 2422 2429
5415 4 2416 2417 2423
5416 4 2417 2423 2424
5417 1 2417 2423 2425
5418 1 2417 2423 2426
5419 1 2420 2417 2423
5420 1 2421 2417 2423
5421 5 2422 2429 2436
5422 4 2423 2424 2430
5423 4 2424 2430 2431
5424 1 2424 2430 2432
5425 1 2424 2430 2433
5426 1 2427 2424 2430
5427 1 2428 2424 2430
5428 5 2429 2436 2443
5429 4 2430 2431 2437
5430 4 2431 2437 2438
5431 1 2431 2437 2439
5432 1 2431 2437 2440
5433 1 2434 2431 2437
5434 1 2435 2431 2437
5435 5 2436 2443 2450
5436 4 2437 2438 2444
5437 4 2438 2444 2445
5438 1 2438 2444 2446
5439 1 2438 2444 2447
5440 1 2441 2438 2444
5441 1 2442 2438 2444
5442 3 2443 2450 2457
5443 4 2444 2445 2451
5444 4 2445 2451 2452
5445 1 2445 2451 2453
5446 1 2445 2451 2454
5447 1 2448 2445 2451
5448 1 2449 2445 2451
5449 4 2451 2452 2458
5450 4 2452 2458 2459
5451 1 2452 2458 2460
5452 1 2452 2458 2461
5453 1 2455 2452 2458
5454 1 2456 2452 2458
5455 3 2465 2473 2480
5456 4 2466 2474 2475
5457 1 2466 2474 2476
5458 1 2466 2474 2477
5459 1 2468 2466 2474
5460 1 2469 2466 2474
5461 5 2473 2480 2487
5462 4 2474 2466 2467
5463 4 2474 2475 2481
5464 4 2475 2481 2482
5465 1 2475 2481 2483
5466 1 2475 2481 2484
5467 1 2478 2475 2481
5468 1 2479 2475 2481
5469 5 2480 2487 2494
5470 4 2481 2482 2488
5471 4 2482 2488 2489
5472 1 2482 2488 2490
5473 1 2482 2488 2491
5474 1 2485 2482 2488
5475 1 2486 2482 2488
5476 5 2487 2494 2501
5477 4 2488 2489 2495
5478 4 2489 2495 2496
5479 1 2489 2495 2497
5480 1 2489 2495 2498
5481 1 2492 2489 2495
5482 1 2493 2489 2495
5483 5 2494 2501 2508
5484 4 2495 2496 2502
5485 4 2496 2502 2503
5486 1 2496 2502 2504
5487 1 2496 2502 2505
5488 1 2499 2496 2502
5489 1 2500 2496 2502
5490 5 2501 2508 2515
5491 4 2502 2503 2509
5492 4 2503 2509 2510
5493 1 2503 2509 2511
5494 1 2503 2509 2512
5495 1 2506 2503 2509
5496 1 2507 2503 2509
5497 5 2508 2515 2522
5498 4 2509 2510 2516
5499 4 2510 2516 2517
5500 1 2510 2516 2518
5501 1 2510 2516 2519
5502 1 2513 2510 2516
5503 1 2514 2510 2516
5504 5 2515 2522 2529
5505 4 2516 2517 2523
5506 4 2517 2523 2524
5507 1 2517 2523 2525
5508 1 2517 2523 2526
5509 1 2520 2517 2523
5510 1 2521 2517 2523
5511 5 2522 2529 2536
5512 4 2523 2524 2530
5513 4 2524 2530 2531
5514 1 2524 2530 2532
5515 1 2524 2530 2533
5516 1 2527 2524 2530
5517 1 2528 2524 2530
5518 5 2529 2536 2543
5519 4 2530 2531 2537
5520 4 2531 2537 2538
5521 1 2531 2537 2539
5522 1 2531 2537 2540
5523 1 2534 2531 2537
5524 1 2535 2531 2537
5525 5 2536 2543 2550
5526 4 2537 2538 2544
5527 4 2538 2544 2545
5528 1 2538 2544 2546
5529 1 2538 2544 2547
5530 1 2541 2538 2544
5531 1 2542 2538 2544
5532 5 2543 2550 2557
5533 4 2544 2545 2551
5534 4 2545 2551 2552
5535 1 2545 2551 2553
5536 1 2545 2551 2554
5537 1 2548 2545 2551
5538 1 2549 2545 2551
5539 5 2550 2557 2564
5540 4 2551 2552 2558
5541 4 2552 2558 2559
5542 1 2552 2558 2560
5543 1 2552 2558 2561
5544 1 2555 2552 2558
5545 1 2556 2552 2558
5546 5 2557 2564 2571
5547 4 2558 2559 2565
5548 4 2559 2565 2566
5549 1 2559 2565 2567
5550 1 2559 2565 2568
5551 1 2562 2559 2565
5552 1 2563 2559 2565
5553 5 2564 2571 2578
5554 4 2565 2566 2572
5555 4 2566 2572 2573
5556 1 2566 2572 2574
5557 1 2566 2572 2575
5558 1 2569 2566 2572
5559 1 2570 2566 2572
5560 5 2571 2578 2585
5561 4 2572 2573 2579
5562 4 2573 2579 2580
5563 1 2573 2579 2581
5564 1 2573 2579 2582
5565 1 2576 2573 2579
5566 1 2577 2573 2579
5567 5 2578 2585 2592
5568 4 2579 2580 2586
5569 4 2580 2586 2587
5570 1 2580 2586 2588
5571 1 2580 2586 2589
5572 1 2583 2580 2586
5573 1 2584 2580 2586
5574 5 2585 2592 2599
5575 4 2586 2587 2593
5576 4 2587 2593 2594
5577 1 2587 2593 2595
5578 1 2587 2593 2596
5579 1 2590 2587 2593
5580 1 2591 2587 2593
5581 5 2592 2599 2606
5582 4 2593 2594 2600
5583 4 2594 2600 2601
5584 1 2594 2600 2602
5585 1 2594 2600 2603
5586 1 2597 2594 2600
5587 1 2598 2594 2600
5588 5 2599 2606 2613
5589 4 2600 2601 2607
5590 4 2601 2607 2608
5591 1 2601 2607 2609
5592 1 2601 2607 2610
5593 1 2604 2601 2607
5594 1 2605 2601 2607
5595 5 2606 2613 2620
5596 4 2607 2608 2614
5597 4 2608 2614 2615
5598 1 2608 2614 2616
5599 1 2608 2614 2617
5600 1 2611 2608 2614
5601 1 2612 2608 2614
5602 5 2613 2620 2627
5603 4 2614 2615 2621
5604 4 2615 2621 2622
5605 1 2615 2621 2623
5606 1 2615 2621 2624
5607 1 2618 2615 2621
5608 1 2619 2615 2621
5609 5 2620 2627 2634
5610 4 2621 2622 2628
5611 4 2622 2628 2629
5612 1 2622 2628 2630
5613 1 2622 2628 2631
5614 1 2625 2622 2628
5615 1 2626 2622 2628
5616 5 2627 2634 2641
5617 4 2628 2629 2635
5618 4 2629 2635 2636
5619 1 2629 2635 2637
5620 1 2629 2635 2638
5621 1 2632 2629 2635
5622 1 2633 2629 2635
5623 5 2634 2641 2648
5624 4 2635 2636 2642
5625 4 2636 2642 2643
5626 1 2636 2642 2644
5627 1 2636 2642 2645
5628 1 2639 2636 2642
5629 1 2640 2636 2642
5630 5 2641 2648 2655
5631 4 2642 2643 2649
5632 4 2643 2649 2650
5633 1 2643 2649 2651
5634 1 2643 2649 2652
5635 1 2646 2643 2649
5636 1 2647 2643 2649
5637 5 2648 2655 2662
5638 4 2649 2650 2656
5639 4 2650 2656 2657
5640 1 2650 2656 2658
5641 1 2650 2656 2659
5642 1 2653 2650 2656
5643 1 2654 2650 2656
5644 5 2655 2662 2669
5645 4 2656 2657 2663
5646 4 2657 2663 2664
5647 1 2657 2663 2665
5648 1 2657 2663 2666
5649 1 2660 2657 2663
5650 1 2661 2657 2663
5651 5 2662 2669 2676
5652 4 2663 2664 2670
5653 4 2664 2670 2671
5654 1 2664 2670 2672
5655 1 2664 2670 2673
5656 1 2667 2664 2670
5657 1 2668 2664 2670
5658 5 2669 2676 2683
5659 4 2670 2671 2677
5660 4 2671 2677 2678
5661 1 2671 2677 2679
5662 1 2671 2677 2680
5663 1 2674 2671 2677
5664 1 2675 2671 2677
5665 5 2676 2683 2690
5666 4 2677 2678 2684
5667 4 2678 2684 2685
5668 1 2678 2684 2686
5669 1 2678 2684 2687
5670 1 2681 2678 2684
5671 1 2682 2678 2684
5672 5 2683 2690 2697
5673 4 2684 2685 2691
5674 4 2685 2691 2692
5675 1 2685 2691 2693
5676 1 2685 2691 2694
5677 1 2688 2685 2691
5678 1 2689 2685 2691
5679 5 2690 2697 2704
5680 4 2691 2692 2698
5681 4 2692 2698 2699
5682 1 2692 2698 2700
5683 1 2692 2698 2701
5684 1 2695 2692 2698
5685 1 2696 2692 2698
5686 5 2697 2704 2711
5687 4 2698 2699 2705
5688 4 2699 2705 2706
5689 1 2699 2705 2707
5690 1 2699 2705 2708
5691 1 2702 2699 2705
5692 1 2703 2699 2705
5693 5 2704 2711 2718
5694 4 2705 2706 2712
5695 4 2706 2712 2713
5696 1 2706 2712 2714
5697 1 2706 2712 2715
5698 1 2709 2706 2712
5699 1 2710 2706 2712
5700 5 2711 2718 2725
5701 4 2712 2713 2719
5702 4 2713 2719 2720
5703 1 2713 2719 2721
5704 1 2713 2719 2722
5705 1 2716 2713 2719
5706 1 2717 2713 2719
5707 5 2718 2725 2732
5708 4 2719 2720 2726
5709 4 2720 2726 2727
5710 1 2720 2726 2728
5711 1 2720 2726 2729
5712 1 2723 2720 2726
5713 1 2724 2720 2726
5714 5 2725 2732 2739
5715 4 2726 2727 2733
5716 4 2727 2733 2734
5717 1 2727 2733 2735
5718 1 2727 2733 2736
5719 1 2730 2727 2733
5720 1 2731 2727 2733
5721 5 2732 2739 2746
5722 4 2733 2734 2740
5723 4 2734 2740 2741
5724 1 2734 2740 2742
5725 1 2734 2740 2743
5726 1 2737 2734 2740
5727 1 2738 2734 2740
5728 5 2739 2746 2753
5729 4 2740 2741 2747
5730 4 2741 2747 2748
5731 1 2741 2747 2749
5732 1 2741 2747 2750
5733 1 2744 2741 2747
5734 1 2745 2741 2747
5735 5 2746 2753 2760
5736 4 2747 2748 2754
5737 4 2748 2754 2755
5738 1 2748 2754 2756
5739 1 2748 2754 2757
5740 1 2751 2748 2754
5741 1 2752 2748 2754
5742 5 2753 2760 2767
5743 4 2754 2755 2761
5744 4 2755 2761 2762
5745 1 2755 2761 2763
5746 1 2755 2761 2764
5747 1 2758 2755 2761
5748 1 2759 2755 2761
5749 5 2760 2767 2774
5750 4 2761 2762 2768
5751 4 2762 2768 2769
5752 1 2762 2768 2770
5753 1 2762 2768 2771
5754 1 2765 2762 2768
5755 1 2766 2762 2768
5756 5 2767 2774 2781
5757 4 2768 2769 2775
5758 4 2769 2775 2776
5759 1 2769 2775 2777
5760 1 2769 2775 2778
5761 1 2772 2769 2775
5762 1 2773 2769 2775
5763 5 2774 2781 2788
5764 4 2775 2776 2782
5765 4 2776 2782 2783
5766 1 2776 2782 2784
5767 1 2776 2782 2785
5768 1 2779 2776 2782
5769 1 2780 2776 2782
5770 5 2781 2788 2795
5771 4 2782 2783 2789
5772 4 2783 2789 2790
5773 1 2783 2789 2791
5774 1 2783 2789 2792
5775 1 2786 2783 2789
5776 1 2787 2783 2789
5777 5 2788 2795 2802
5778 4 2789 2790 2796
5779 4 2790 2796 2797
5780 1 2790 2796 2798
5781 1 2790 2796 2799
5782 1 2793 2790 2796
5783 1 2794 2790 2796
5784 3 2795 2802 2809
5785 4 2796 2797 2803
5786 4 2797 2803 2804
5787 1 2797 2803 2805
5788 1 2797 2803 2806
5789 1 2800 2797 2803
5790 1 2801 2797 2803
5791 4 2803 2804 2810
5792 4 2804 2810 2811
5793 1 2804 2810 2812
5794 1 2804 2810 2813
5795 1 2807 2804 2810
5796 1 2808 2804 2810
5797 3 2817 2825 2832
5798 4 2818 2826 2827
5799 1 2818 2826 2828
5800 1 2818 2826 2829
5801 1 2820 2818 2826
5802 1 2821 2818 2826
5803 5 2825 2832 2839
5804 4 2826 2818 2819
5805 4 2826 2827 2833
5806 4 2827 2833 2834
5807 1 2827 2833 2835
5808 1 2827 2833 2836
5809 1 2830 2827 2833
5810 1 2831 2827 2833
5811 5 2832 2839 2846
5812 4 2833 2834 2840
5813 4 2834 2840 2841
5814 1 2834 2840 2842
5815 1 2834 2840 2843
5816 1 2837 2834 2840
5817 1 2838 2834 2840
5818 5 2839 2846 2853
5819 4 2840 2841 2847
5820 4 2841 2847 2848
5821 1 2841 2847 2849
5822 1 2841 2847 2850
5823 1 2844 2841 2847
5824 1 2845 2841 2847
5825 5 2846 2853 2860
5826 4 2847 2848 2854
5827 4 2848 2854 2855
5828 1 2848 2854 2856
5829 1 2848 2854 2857
5830 1 2851 2848 2854
5831 1 2852 2848 2854
5832 5 2853 2860 2867
5833 4 2854 2855 2861
5834 4 2855 2861 2862
5835 1 2855 2861 2863
5836 1 2855 2861 2864
5837 1 2858 2855 2861
5838 1 2859 2855 2861
5839 5 2860 2867 2874
5840 4 2861 2862 2868
5841 4 2862 2868 2869
5842 1 2862 2868 2870
5843 1 2862 2868 2871
5844 1 2865 2862 2868
5845 1 2866 2862 2868
5846 5 2867 2874 2881
5847 4 2868 2869 2875
5848 4 2869 2875 2876
5849 1 2869 2875 2877
5850 1 2869 2875 2878
5851 1 2872 2869 2875
5852 1 2873 2869 2875
5853 5 2874 2881 2888
5854 4 2875 2876 2882
5855 4 2876 2882 2883
5856 1 2876 2882 2884
5857 1 2876 2882 2885
5858 1 2879 2876 2882
5859 1 2880 2876 2882
5860 5 2881 2888 2895
5861 4 2882 2883 2889
5862 4 2883 2889 2890
5863 1 2883 2889 2891
5864 1 2883 2889 2892
5865 1 2886 2883 2889
5866 1 2887 2883 2889
5867 5 2888 2895 2902
5868 4 2889 2890 2896
5869 4 2890 2896 2897
5870 1 2890 2896 2898
5871 1 2890 2896 2899
5872 1 2893 2890 2896
5873 1 2894 2890 2896
5874 5 2895 2902 2909
5875 4 2896 2897 2903
5876 4 2897 2903 2904
5877 1 2897 2903 2905
5878 1 2897 2903 2906
5879 1 2900 2897 2903
5880 1 2901 2897 2903
5881 5 2902 2909 2916
5882 4 2903 2904 2910
5883 4 2904 2910 2911
5884 1 2904 2910 2912
5885 1 2904 2910 2913
5886 1 2907 2904 2910
5887 1 2908 2904 2910
5888 5 2909 2916 2923
5889 4 2910 2911 2917
5890 4 2911 2917 2918
5891 1 2911 2917 2919
5892 1 2911 2917 2920
5893 1 2914 2911 2917
5894 1 2915 2911 2917
5895 5 2916 2923 2930
5896 4 2917 2918 2924
5897 4 2918 2924 2925
5898 1 2918 2924 2926
5899 1 2918 2924 2927
5900 1 2921 2918 2924
5901 1 2922 2918 2924
5902 5 2923 2930 2937
5903 4 2924 2925 2931
5904 4 2925 2931 2932
5905 1 2925 2931 2933
5906 1 2925 2931 2934
5907 1 2928 2925 2931
5908 1 2929 2925 2931
5909 5 2930 2937 2944
5910 4 2931 2932 2938
5911 4 2932 2938 2939
5912 1 2932 2938 2940
5913 1 2932 2938 2941
5914 1 2935 2932 2938
5915 1 2936 2932 2938
5916 5 2937 2944 2951
5917 4 2938 2939 2945
5918 4 2939 2945 2946
5919 1 2939 2945 2947
5920 1 2939 2945 2948
5921 1 2942 2939 2945
5922 1 2943 2939 2945
5923 5 2944 2951 2958
5924 4 2945 2946 2952
5925 4 2946 2952 2953
5926 1 2946 2952 2954
5927 1 2946 2952 2955
5928 1 2949 2946 2952
5929 1 2950 2946 2952
5930 5 2951 2958 2965
5931 4 2952 2953 2959
5932 4 2953 2959 2960
5933 1 2953 2959 2961
5934 1 2953 2959 2962
5935 1 2956 2953 2959
5936 1 2957 2953 2959
5937 5 2958 2965 2972
5938 4 2959 2960 2966
5939 4 2960 2966 2967
5940 1 2960 2966 2968
5941 1 2960 2966 2969
5942 1 2963 2960 2966
5943 1 2964 2960 2966
5944 5 2965 2972 2979
5945 4 2966 2967 2973
5946 4 2967 2973 2974
5947 1 2967 2973 2975
5948 1 2967 2973 2976
5949 1 2970 2967 2973
5950 1 2971 2967 2973
5951 5 2972 2979 2986
5952 4 2973 2974 2980
5953 4 2974 2980 2981
5954 1 2974 2980 2982
5955 1 2974 2980 2983
5956 1 2977 2974 2980
5957 1 2978 2974 2980
5958 5 2979 2986 2993
5959 4 2980 2981 2987
5960 4 2981 2987 2988
5961 1 2981 2987 2989
5962 1 2981 2987 2990
5963 1 2984 2981 2987
5964 1 2985 2981 2987
5965 5 2986 2993 3000
5966 4 2987 2988 2994
5967 4 2988 2994 2995
5968 1 2988 2994 2996
5969 1 2988 2994 2997
5970 1 2991 2988 2994
5971 1 2992 2988 2994
5972 5 2993 3000 3007
5973 4 2994 2995 3001
5974 4 2995 3001 3002
5975 1 2995 3001 3003
5976 1 2995 3001 3004
5977 1 2998 2995 3001
5978 1 2999 2995 3001
5979 5 3000 3007 3014
5980 4 3001 3002 3008
5981 4 3002 3008 3009
5982 1 3002 3008 3010
5983 1 3002 3008 3011
5984 1 3005 3002 3008
5985 1 3006 3002 3008
5986 5 3007 3014 3021
5987 4 3008 3009 3015
5988 4 3009 3015 3016
5989 1 3009 3015 3017
5990 1 3009 3015 3018
5991 1 3012 3009 3015
5992 1 3013 3009 3015
5993 5 3014 3021 3028
5994 4 3015 3016 3022
5995 4 3016 3022 3023
5996 1 3016 3022 3024
5997 1 3016 3022 3025
5998 1 3019 3016 3022
5999 1 3020 3016 3022
6000 5 3021 3028 3035
6001 4 3022 3023 3029
6002 4 3023 3029 3030
6003 1 3023 3029 3031
6004 1 3023 3029 3032
6005 1 3026 3023 3029
6006 1 3027 3023 3029
6007 5 3028 3035 3042
6008 4 3029 3030 3036
6009 4 3030 3036 3037
6010 1 3030 3036 3038
6011 1 3030 3036 3039
6012 1 3033 3030 3036
6013 1 3034 3030 3036
6014 5 3035 3042 3049
6015 4 3036 3037 3043
6016 4 3037 3043 3044
6017 1 3037 3043 3045
6018 1 3037 3043 3046
6019 1 3040 3037 3043
6020 1 3041 3037 3043
6021 5 3042 3049 3056
6022 4 3043 3044 3050
6023 4 3044 3050 3051
6024 1 3044 3050 3052
6025 1 3044 3050 3053
6026 1 3047 3044 3050
6027 1 3048 3044 3050
6028 5 3049 3056 3063
6029 4 3050 3051 3057
6030 4 3051 3057 3058
6031 1 3051 3057 3059
6032 1 3051 3057 3060
6033 1 3054 3051 3057
6034 1 3055 3051 3057
6035 5 3056 3063 3070
6036 4 3057 3058 3064
6037 4 3058 3064 3065
6038 1 3058 3064 3066
6039 1 3058 3064 3067
6040 1 3061 3058 3064
6041 1 3062 3058 3064
6042 5 3063 3070 3077
6043 4 3064 3065 3071
6044 4 3065 3071 3072
6045 1 3065 3071 3073
6046 1 3065 3071 3074
6047 1 3068 3065 3071
6048 1 3069 3065 3071
6049 5 3070 3077 3084
6050 4 3071 3072 3078
6051 4 3072 3078 3079
6052 1 3072 3078 3080
6053 1 3072 3078 3081
6054 1 3075 3072 3078
6055 1 3076 3072 3078
6056 5 3077 3084 3091
6057 4 3078 3079 3085
6058 4 3079 3085 3086
6059 1 3079 3085 3087
6060 1 3079 3085 3088
6061 1 3082 3079 3085
6062 1 3083 3079 3085
6063 5 3084 3091 3098
6064 4 3085 3086 3092
6065 4 3086 3092 3093
6066 1 3086 3092 3094
6067 1 3086 3092 3095
6068 1 3089 3086 3092
6069 1 3090 3086 3092
6070 5 3091 3098 3105
6071 4 3092 3093 3099
6072 4 3093 3099 3100
6073 1 3093 3099 3101
6074 1 3093 3099 3102
6075 1 3096 3093 3099
6076 1 3097 3093 3099
6077 5 3098 3105 3112
6078 4 3099 3100 3106
6079 4 3100 3106 3107
6080 1 3100 3106 3108
6081 1 3100 3106 3109
6082 1 3103 3100 3106
6083 1 3104 3100 3106
6084 5 3105 3112 3119
6085 4 3106 3107 3113
6086 4 3107 3113 3114
6087 1 3107 3113 3115
6088 1 3107 3113 3116
6089 1 3110 3107 3113
6090 1 3111 3107 3113
6091 5 3112 3119 3126
6092 4 3113 3114 3120
6093 4 3114 3120 3121
6094 1 3114 3120 3122
6095 1 3114 3120 3123
6096 1 3117 3114 3120
6097 1 3118 3114 3120
6098 5 3119 3126 3133
6099 4 3120 3121 3127
6100 4 3121 3127 3128
6101 1 3121 3127 3129
6102 1 3121 3127 3130
6103 1 3124 3121 3127
6104 1 3125 3121 3127
6105 5 3126 3133 3140
6106 4 3127 3128 3134
6107 4 3128 3134 3135
6108 1 3128 3134 3136
6109 1 3128 3134 3137
6110 1 3131 3128 3134
6111 1 3132 3128 3134
6112 5 3133 3140 3147
6113 4 3134 3135 3141
6114 4 3135 3141 3142
6115 1 3135 3141 3143
6116 1 3135 3141 3144
6117 1 3138 3135 3141
6118 1 3139 3135 3141
6119 5 3140 3147 3154
6120 4 3141 3142 3148
6121 4 3142 3148 3149
6122 1 3142 3148 3150
6123 1 3142 3148 3151
6124 1 3145 3142 3148
6125 1 3146 3142 3148
6126 3 3147 3154 3161
6127 4 3148 3149 3155
6128 4 3149 3155 3156
6129 1 3149 3155 3157
6130 1 3149 3155 3158
6131 1 3152 3149 3155
6132 1 3153 3149 3155
6133 4 3155 3156 3162
6134 4 3156 3162 3163
6135 1 3156 3162 3164
6136 1 3156 3162 3165
6137 1 3159 3156 3162
6138 1 3160 3156 3162
6139 3 3169 3177 3184
6140 4 3170 3178 3179
6141 1 3170 3178 3180
6142 1 3170 3178 3181
6143 1 3172 3170 3178
6144 1 3173 3170 3178
6145 5 3177 3184 3191
6146 4 3178 3170 3171
6147 4 3178 3179 3185
6148 4 3179 3185 3186
6149 1 3179 3185 3187
6150 1 3179 3185 3188
6151 1 3182 3179 3185
6152 1 3183 3179 3185
6153 5 3184 3191 3198
6154 4 3185 3186 3192
6155 4 3186 3192 3193
6156 1 3186 3192 3194
6157 1 3186 3192 3195
6158 1 3189 3186 3192
6159 1 3190 3186 3192
6160 5 3191 3198 3205
6161 4 3192 3193 3199
6162 4 3193 3199 3200
6163 1 3193 3199 3201
6164 1 3193 3199 3202
6165 1 3196 3193 3199
6166 1 3197 3193 3199
6167 5 3198 3205 3212
6168 4 3199 3200 3206
6169 4 3200 3206 3207
6170 1 3200 3206 3208
6171 1 3200 3206 3209
6172 1 3203 3200 3206
6173 1 3204 3200 3206
6174 5 3205 3212 3219
6175 4 3206 3207 3213
6176 4 3207 3213 3214
6177 1 3207 3213 3215
6178 1 3207 3213 3216
6179 1 3210 3207 3213
6180 1 3211 3207 3213
6181 5 3212 3219 3226
6182 4 3213 3214 3220
6183 4 3214 3220 3221
6184 1 3214 3220 3222
6185 1 3214 3220 3223
6186 1 3217 3214 3220
6187 1 3218 3214 3220
6188 5 3219 3226 3233
6189 4 3220 3221 3227
6190 4 3221 3227 3228
6191 1 3221 3227 3229
6192 1 3221 3227 3230
6193 1 3224 3221 3227
6194 1 3225 3221 3227
6195 5 3226 3233 3240
6196 4 3227 3228 3234
6197 4 3228 3234 3235
6198 1 3228 3234 3236
6199 1 3228 3234 3237
6200 1 3231 3228 3234
6201 1 3232 3228 3234
6202 5 3233 3240 3247
6203 4 3234 3235 3241
6204 4 3235 3241 3242
6205 1 3235 3241 3243
6206 1 3235 3241 3244
6207 1 3238 3235 3241
6208 1 3239 3235 3241
6209 5 3240 3247 3254
6210 4 3241 3242 3248
6211 4 3242 3248 3249
6212 1 3242 3248 3250
6213 1 3242 3248 3251
6214 1 3245 3242 3248
6215 1 3246 3242 3248
6216 5 3247 3254 3261
6217 4 3248 3249 3255
6218 4 3249 3255 3256
6219 1 3249 3255 3257
6220 1 3249 3255 3258
6221 1 3252 3249 3255
6222 1 3253 3249 3255
6223 5 3254 3261 3268
6224 4 3255 3256 3262
6225 4 3256 3262 3263
6226 1 3256 3262 3264
6227 1 3256 3262 3265
6228 1 3259 3256 3262
6229 1 3260 3256 3262
6230 5 3261 3268 3275
6231 4 3262 3263 3269
6232 4 3263 3269 3270
6233 1 3263 3269 3271
6234 1 3263 3269 3272
6235 1 3266 3263 3269
6236 1 3267 3263 3269
6237 5 3268 3275 3282
6238 4 3269 3270 3276
6239 4 3270 3276 3277
6240 1 3270 3276 3278
6241 1 3270 3276 3279
6242 1 3273 3270 3276
6243 1 3274 3270 3276
6244 5 3275 3282 3289
6245 4 3276 3277 3283
6246 4 3277 3283 3284
6247 1 3277 3283 3285
6248 1 3277 3283 3286
6249 1 3280 3277 3283
6250 1 3281 3277 3283
6251 5 3282 3289 3296
6252 4 3283 3284 3290
6253 4 3284 3290 3291
6254 1 3284 3290 3292
6255 1 3284 3290 3293
6256 1 3287 3284 3290
6257 1 3288 3284 3290
6258 5 3289 3296 3303
6259 4 3290 3291 3297
6260 4 3291 3297 3298
6261 1 3291 3297 3299
6262 1 3291 3297 3300
6263 1 3294 3291 3297
6264 1 3295 3291 3297
6265 5 3296 3303 3310
6266 4 3297 3298 3304
6267 4 3298 3304 3305
6268 1 3298 3304 3306
6269 1 3298 3304 3307
6270 1 3301 3298 3304
6271 1 3302 3298 3304
6272 5 3303 3310 3317
6273 4 3304 3305 3311
6274 4 3305 3311 3312
6275 1 3305 3311 3313
6276 1 3305 3311 3314
6277 1 3308 3305 3311
6278 1 3309 3305 3311
6279 5 3310 3317 3324
6280 4 3311 3312 3318
6281 4 3312 3318 3319
6282 1 3312 3318 3320
6283 1 3312 3318 3321
6284 1 3315 3312 3318
6285 1 3316 3312 3318
6286 5 3317 3324 3331
6287 4 3318 3319 3325
6288 4 3319 3325 3326
6289 1 3319 3325 3327
6290 1 3319 3325 3328
6291 1 3322 3319 3325
6292 1 3323 3319 3325
6293 5 3324 3331 3338
6294 4 3325 3326 3332
6295 4 3326 3332 3333
6296 1 3326 3332 3334
6297 1 3326 3332 3335
6298 1 3329 3326 3332
6299 1 3330 3326 3332
6300 5 3331 3338 3345
6301 4 3332 3333 3339
6302 4 3333 3339 3340
6303 1 3333 3339 3341
6304 1 3333 3339 3342
6305 1 3336 3333 3339
6306 1 3337 3333 3339
6307 5 3338 3345 3352
6308 4 3339 3340 3346
6309 4 3340 3346 3347
6310 1 3340 3346 3348
6311 1 3340 3346 3349
6312 1 3343 3340 3346
6313 1 3344 3340 3346
6314 5 3345 3352 3359
6315 4 3346 3347 3353
6316 4 3347 3353 3354
6317 1 3347 3353 3355
6318 1 3347 3353 3356
6319 1 3350 3347 3353
6320 1 3351 3347 3353
6321 5 3352 3359 3366
6322 4 3353 3354 3360
6323 4 3354 3360 3361
6324 1 3354 3360 3362
6325 1 3354 3360 3363
6326 1 3357 3354 3360
6327 1 3358 3354 3360
6328 5 3359 3366 3373
6329 4 3360 3361 3367
6330 4 3361 3367 3368
6331 1 3361 3367 3369
6332 1 3361 3367 3370
6333 1 3364 3361 3367
6334 1 3365 3361 3367
6335 5 3366 3373 3380
6336 4 3367 3368 3374
6337 4 3368 3374 3375
6338 1 3368 3374 3376
6339 1 3368 3374 3377
6340 1 3371 3368 3374
6341 1 3372 3368 3374
6342 5 3373 3380 3387
6343 4 3374 3375 3381
6344 4 3375 3381 3382
6345 1 3375 3381 3383
6346 1 3375 3381 3384
6347 1 3378 3375 3381
6348 1 3379 3375 3381
6349 5 3380 3387 3394
6350 4 3381 3382 3388
6351 4 3382 3388 3389
6352 1 3382 3388 3390
6353 1 3382 3388 3391
6354 1 3385 3382 3388
6355 1 3386 3382 3388
6356 5 3387 3394 3401
6357 4 3388 3389 3395
6358 4 3389 3395 3396
6359 1 3389 3395 3397
6360 1 3389 3395 3398
6361 1 3392 3389 3395
6362 1 3393 3389 3395
6363 5 3394 3401 3408
6364 4 3395 3396 3402
6365 4 3396 3402 3403
6366 1 3396 3402 3404
6367 1 3396 3402 3405
6368 1 3399 3396 3402
6369 1 3400 3396 3402
6370 5 3401 3408 3415
6371 4 3402 3403 3409
6372 4 3403 3409 3410
6373 1 3403 3409 3411
6374 1 3403 3409 3412
6375 1 3406 3403 3409
6376 1 3407 3403 3409
6377 5 3408 3415 3422
6378 4 3409 3410 3416
6379 4 3410 3416 3417
6380 1 3410 3416 3418
6381 1 3410 3416 3419
6382 1 3413 3410 3416
6383 1 3414 3410 3416
6384 5 3415 3422 3429
6385 4 3416 3417 3423
6386 4 3417 3423 3424
6387 1 3417 3423 3425
6388 1 3417 3423 3426
6389 1 3420 3417 3423
6390 1 3421 3417 3423
6391 5 3422 3429 3436
6392 4 3423 3424 3430
6393 4 3424 3430 3431
6394 1 3424 3430 3432
6395 1 3424 3430 3433
6396 1 3427 3424 3430
6397 1 3428 3424 3430
6398 5 3429 3436 3443
6399 4 3430 3431 3437
6400 4 3431 3437 3438
6401 1 3431 3437 3439
6402 1 3431 3437 3440
6403 1 3434 3431 3437
6404 1 3435 3431 3437
6405 5 3436 3443 3450
6406 4 3437 3438 3444
6407 4 3438 3444 3445
6408 1 3438 3444 3446
6409 1 3438 3444 3447
6410 1 3441 3438 3444
6411 1 3442 3438 3444
6412 5 3443 3450 3457
6413 4 3444 3445 3451
6414 4 3445 3451 3452
6415 1 3445 3451 3453
6416 1 3445 3451 3454
6417 1 3448 3445 3451
6418 1 3449 3445 3451
6419 5 3450 3457 3464
6420 4 3451 3452 3458
6421 4 3452 3458 3459
6422 1 3452 3458 3460
6423 1 3452 3458 3461
6424 1 3455 3452 3458
6425 1 3456 3452 3458
6426 5 3457 3464 3471
6427 4 3458 3459 3465
6428 4 3459 3465 3466
6429 1 3459 3465 3467
6430 1 3459 3465 3468
6431 1 3462 3459 3465
6432 1 3463 3459 3465
6433 5 3464 3471 3478
6434 4 3465 3466 3472
6435 4 3466 3472 3473
6436 1 3466 3472 3474
6437 1 3466 3472 3475
6438 1 3469 3466 3472
6439 1 3470 3466 3472
6440 5 3471 3478 3485
6441 4 3472 3473 3479
6442 4 3473 3479 3480
6443 1 3473 3479 3481
6444 1 3473 3479 3482
6445 1 3476 3473 3479
6446 1 3477 3473 3479
6447 5 3478 3485 3492
6448 4 3479 3480 3486
6449 4 3480 3486 3487
6450 1 3480 3486 3488
6451 1 3480 3486 3489
6452 1 3483 3480 3486
6453 1 3484 3480 3486
6454 5 3485 3492 3499
6455 4 3486 3487 3493
6456 4 3487 3493 3494
6457 1 3487 3493 3495
6458 1 3487 3493 3496
6459 1 3490 3487 3493
6460 1 3491 3487 3493
6461 5 3492 3499 3506
6462 4 3493 3494 3500
6463 4 3494 3500 3501
6464 1 3494 3500 3502
6465 1 3494 3500 3503
6466 1 3497 3494 3500
6467 1 3498 3494 3500
6468 3 3499 3506 3513
6469 4 3500 3501 3507
6470 4 3501 3507 3508
6471 1 3501 3507 3509
6472 1 3501 3507 3510
6473 1 3504 3501 3507
6474 1 3505 3501 3507
6475 4 3507 3508 3514
6476 4 3508 3514 3515
6477 1 3508 3514 3516
6478 1 3508 3514 3517
6479 1 3511 3508 3514
6480 1 3512 3508 3514

Dihedrals

1 1 4 2 3 6
2 1 4 2 3 7
3 1 4 2 3 8
4 1 5 2 3 6
5 1 5 2 3 7
6 1 5 2 3 8
7 1 12 10 11 14
8 1 12 10 11 15
9 1 13 10 11 14
10 1 13 10 11 15
11 1 19 17 18 21
12 1 19 17 18 22
13 1 20 17 18 21
14 1 20 17 18 22
15 1 26 24 25 28
16 1 26 24 25 29
17 1 27 24 25 28
18 1 27 24 25 29
19 1 33 31 32 35
20 1 33 31 32 36
21 1 34 31 32 35
22 1 34 31 32 36
23 1 40 38 39 42
24 1 40 38 39 43
25 1 41 38 39 42
26 1 41 38 39 43
27 1 47 45 46 49
28 1 47 45 46 50
29 1 48 45 46 49
30 1 48 45 46 50
31 1 54 52 53 56
32 1 54 52 53 57
33 1 55 52 53 56
34 1 55 52 53 57
35 1 61 59 60 63
36 1 61 59 60 64
37 1 62 59 60 63
38 1 62 59 60 64
39 1 68 66 67 70
40 1 68 66 67 71
41 1 69 66 67 70
42 1 69 66 67 71
43 1 75 73 74 77
44 1 75 73 74 78
45 1 76 73 74 77
46 1 76 73 74 78
47 1 82 80 81 84
48 1 82 80 81 85
49 1 83 80 81 84
50 1 83 80 81 85
51 1 89 87 88 91
52 1 89 87 88 92
53 1 90 87 88 91
54 1 90 87 88 92
55 1 96 94 95 98
56 1 96 94 95 99
57 1 97 94 95 98
58 1 97 94 95 99
59 1 103 101 102 105
60 1 103 101 102 106
61 1 104 101 102 105
62 1 104 101 102 106
63 1 110 108 109 112
64 1 110 108 109 113
65 1 111 108 109 112
66 1 111 108 109 113
67 1 117 115 116 119
68 1 117 115 116 120
69 1 118 115 116 119
70 1 118 115 116 120
71 1 124 122 123 126
72 1 124 122 123 127
73 1 125 122 123 126
74 1 125 122 123 127
75 1 131 129 130 133
76 1 131 129 130 134
77 1 132 129 130 133
78 1 132 129 130 134
79 1 138 136 137 140
80 1 138 136 137 141
81 1 139 136 137 140
82 1 139 136 137 141
83 1 145 143 144 147
84 1 145 143 144 148
85 1 146 143 144 147
86 1 146 143 144 148
87 1 152 150 151 154
88 1 152 150 151 155
89 1 153 150 151 154
90 1 153 150 151 155
91 1 159 157 158 161
92 1 159 157 158 162
93 1 160 157 158 161
94 1 160 157 158 162
95 1 166 164 165 168
96 1 166 164 165 169
97 1 167 164 165 168
98 1 167 164 165 169
99 1 173 171 172 175
100 1 173 171 172 176
101 1 174 171 172 175
102 1 174 171 172 176
103 1 180 178 179 182
104 1 180 178 179 183
105 1 181 178 179 182
106 1 181 178 179 183
107 1 187 185 186 189
108 1 187 185 186 190
109 1 188 185 186 189
110 1 188 185 186 190
111 1 194 192 193 196
112 1 194 192 193 197
113 1 195 192 193 196
114 1 195 192 193 197
115 1 201 199 200 203
116 1 201 199 200 204
117 1 202 199 200 203
118 1 202 199 200 204
119 1 208 206 207 210
120 1 208 206 207 211
121 1 209 206 207 210
122 1 209 206 207 211
123 1 215 213 214 217
124 1 215 213 214 218
125 1 216 213 214 217
126 1 216 213 214 218
127 1 222 220 221 224
128 1 222 220 221 225
129 1 223 220 221 224
130 1 223 220 221 225
131 1 229 227 228 231
132 1 229 227 228 232
133 1 230 227 228 231
134 1 230 227 228 232
135 1 236 234 235 238
136 1 236 234 235 239
137 1 237 234 235 238
138 1 237 234 235 239
139 1 243 241 242 245
140 1 243 241 242 246
141 1 244 241 242 245
142 1 244 241 242 246
143 1 250 248 249 252
144 1 250 248 249 253
145 1 251 248 249 252
146 1 251 248 249 253
147 1 257 255 256 259
148 1 257 255 256 260
149 1 258 255 256 259
150 1 258 255 256 260
151 1 264 262 263 266
152 1 264 262 263 267
153 1 265 262 263 266
154 1 265 262 263 267
155 1 271 269 270 273
156 1 271 269 270 274
157 1 272 269 270 273
158 1 272 269 270 274
159 1 278 276 277 280
160 1 278 276 277 281
161 1 279 276 277 280
162 1 279 276 277 281
163 1 285 283 284 287
164 1 285 283 284 288
165 1 286 283 284 287
166 1 286 283 284 288
167 1 292 290 291 294
168 1 292 290 291 295
169 1 293 290 291 294
170 1 293 290 291 295
171 1 299 297 298 301
172 1 299 297 298 302
173 1 300 297 298 301
174 1 300 297 298 302
175 1 306 304 305 308
176 1 306 304 305 309
177 1 307 304 305 308
178 1 307 304 305 309
179 1 313 311 312 315
180 1 313 311 312 316
181 1 314 311 312 315
182 1 314 311 312 316
183 1 320 318 319 322
184 1 320 318 319 323
185 1 321 318 319 322
186 1 321 318 319 323
187 1 327 325 326 329
188 1 327 325 326 330
189 1 328 325 326 329
190 1 328 325 326 330
191 1 334 332 333 336
192 1 334 332 333 337
193 1 335 332 333 336
194 1 335 332 333 337
195 1 341 339 340 343
196 1 341 339 340 344
197 1 342 339 340 343
198 1 342 339 340 344
199 1 348 346 347 350
200 1 348 346 347 351
201 1 348 346 347 352
202 1 349 346 347 350
203 1 349 346 347 351
204 1 349 346 347 352
205 1 356 354 355 358
206 1 356 354 355 359
207 1 356 354 355 360
208 1 357 354 355 358
209 1 357 354 355 359
210 1 357 354 355 360
211 1 364 362 363 366
212 1 364 362 363 367
213 1 365 362 363 366
214 1 365 362 363 367
215 1 371 369 370 373
216 1 371 369 370 374
217 1 372 369 370 373
218 1 372 369 370 374
219 1 378 376 377 380
220 1 378 376 377 381
221 1 379 376 377 380
222 1 379 376 377 381
223 1 385 383 384 387
224 1 385 383 384 388
225 1 386 383 384 387
226 1 386 383 384 388
227 1 392 390 391 394
228 1 392 390 391 395
229 1 393 390 391 394
230 1 393 390 391 395
231 1 399 397 398 401
232 1 399 397 398 402
233 1 400 397 398 401
234 1 400 397 398 402
235 1 406 404 405 408
236 1 406 404 405 409
237 1 407 404 405 408
238 1 407 404 405 409
239 1 413 411 412 415
240 1 413 411 412 416
241 1 414 411 412 415
242 1 414 411 412 416
243 1 420 418 419 422
244 1 420 418 419 423
245 1 421 418 419 422
246 1 421 418 419 423
247 1 427 425 426 429
248 1 427 425 426 430
249 1 428 425 426 429
250 1 428 425 426 430
251 1 434 432 433 436
252 1 434 432 433 437
253 1 435 432 433 436
254 1 435 432 433 437
255 1 441 439 440 443
256 1 441 439 440 444
257 1 442 439 440 443
258 1 442 439 440 444
259 1 448 446 447 450
260 1 448 446 447 451
261 1 449 446 447 450
262 1 449 446 447 451
263 1 455 453 454 457
264 1 455 453 454 458
265 1 456 453 454 457
266 1 456 453 454 458
267 1 462 460 461 464
268 1 462 460 461 465
269 1 463 460 461 464
270 1 463 460 461 465
271 1 469 467 468 471
272 1 469 467 468 472
273 1 470 467 468 471
274 1 470 467 468 472
275 1 476 474 475 478
276 1 476 474 475 479
277 1 477 474 475 478
278 1 477 474 475 479
279 1 483 481 482 485
280 1 483 481 482 486
281 1 484 481 482 485
282 1 484 481 482 486
283 1 490 488 489 492
284 1 490 488 489 493
285 1 491 488 489 492
286 1 491 488 489 493
287 1 497 495 496 499
288 1 497 495 496 500
289 1 498 495 496 499
290 1 498 495 496 500
291 1 504 502 503 506
292 1 504 502 503 507
293 1 505 502 503 506
294 1 505 502 503 507
295 1 511 509 510 513
296 1 511 509 510 514
297 1 512 509 510 513
298 1 512 509 510 514
299 1 518 516 517 520
300 1 518 516 517 521
301 1 519 516 517 520
302 1 519 516 517 521
303 1 525 523 524 527
304 1 525 523 524 528
305 1 526 523 524 527
306 1 526 523 524 528
307 1 532 530 531 534
308 1 532 530 531 535
309 1 533 530 531 534
310 1 533 530 531 535
311 1 539 537 538 541
312 1 539 537 538 542
313 1 540 537 538 541
314 1 540 537 538 542
315 1 546 544 545 548
316 1 546 544 545 549
317 1 547 544 545 548
318 1 547 544 545 549
319 1 553 551 552 555
320 1 553 551 552 556
321 1 554 551 552 555
322 1 554 551 552 556
323 1 560 558 559 562
324 1 560 558 559 563
325 1 561 558 559 562
326 1 561 558 559 563
327 1 567 565 566 569
328 1 567 565 566 570
329 1 568 565 566 569
330 1 568 565 566 570
331 1 574 572 573 576
332 1 574 572 573 577
333 1 575 572 573 576
334 1 575 572 573 577
335 1 581 579 580 583
336 1 581 579 580 584
337 1 582 579 580 583
338 1 582 579 580 584
339 1 588 586 587 590
340 1 588 586 587 591
341 1 589 586 587 590
342 1 589 586 587 591
343 1 595 593 594 597
344 1 595 593 594 598
345 1 596 593 594 597
346 1 596 593 594 598
347 1 602 600 601 604
348 1 602 600 601 605
349 1 603 600 601 604
350 1 603 600 601 605
351 1 609 607 608 611
352 1 609 607 608 612
353 1 610 607 608 611
354 1 610 607 608 612
355 1 616 614 615 618
356 1 616 614 615 619
357 1 617 614 615 618
358 1 617 614 615 619
359 1 623 621 622 625
360 1 623 621 622 626
361 1 624 621 622 625
362 1 624 621 622 626
363 1 630 628 629 632
364 1 630 628 629 633
365 1 631 628 629 632
366 1 631 628 629 633
367 1 637 635 636 639
368 1 637 635 636 640
369 1 638 635 636 639
370 1 638 635 636 640
371 1 644 642 643 646
372 1 644 642 643 647
373 1 645 642 643 646
374 1 645 642 643 647
375 1 651 649 650 653
376 1 651 649 650 654
377 1 652 649 650 653
378 1 652 649 650 654
379 1 658 656 657 660
380 1 658 656 657 661
381 1 659 656 657 660
382 1 659 656 657 661
383 1 665 663 664 667
384 1 665 663 664 668
385 1 666 663 664 667
386 1 666 663 664 668
387 1 672 670 671 674
388 1 672 670 671 675
389 1 673 670 671 674
390 1 673 670 671 675
391 1 679 677 678 681
392 1 679 677 678 682
393 1 680 677 678 681
394 1 680 677 678 682
395 1 686 684 685 688
396 1 686 684 685 689
397 1 687 684 685 688
398 1 687 684 685 689
399 1 693 691 692 695
400 1 693 691 692 696
401 1 694 691 692 695
402 1 694 691 692 696
403 1 700 698 699 702
404 1 700 698 699 703
405 1 700 698 699 704
406 1 701 698 699 702
407 1 701 698 699 703
408 1 701 698 699 704
409 1 708 706 707 710
410 1 708 706 707 711
411 1 708 706 707 712
412 1 709 706 707 710
413 1 709 706 707 711
414 1 709 706 707 712
415 1 716 714 715 718
416 1 716 714 715 719
417 1 717 714 715 718
418 1 717 714 715 719
419 1 723 721 722 725
420 1 723 721 722 726
421 1 724 721 722 725
422 1 724 721 722 726
423 1 730 728 729 732
424 1 730 728 729 733
425 1 731 728 729 732
426 1 731 728 729 733
427 1 737 735 736 739
428 1 737 735 736 740
429 1 738 735 736 739
430 1 738 735 736 740
431 1 744 742 743 746
432 1 744 742 743 747
433 1 745 742 743 746
434 1 745 742 743 747
435 1 751 749 750 753
436 1 751 749 750 754
437 1 752 749 750 753
438 1 752 749 750 754
439 1 758 756 757 760
440 1 758 756 757 761
441 1 759 756 757 760
442 1 759 756 757 761
443 1 765 763 764 767
444 1 765 763 764 768
445 1 766 763 764 767
446 1 766 763 764 768
447 1 772 770 771 774
448 1 772 770 771 775
449 1 773 770 771 774
450 1 773 770 771 775
451 1 779 777 778 781
452 1 779 777 778 782
453 1 780 777 778 781
454 1 780 777 778 782
455 1 786 784 785 788
456 1 786 784 785 789
457 1 787 784 785 788
458 1 787 784 785 789
459 1 793 791 792 795
460 1 793 791 792 796
461 1 794 791 792 795
462 1 794 791 792 796
463 1 800 798 799 802
464 1 800 798 799 803
465 1 801 798 799 802
466 1 801 798 799 803
467 1 807 805 806 809
468 1 807 805 806 810
469 1 808 805 806 809
470 1 808 805 806 810
471 1 814 812 813 816
472 1 814 812 813 817
473 1 815 812 813 816
474 1 815 812 813 817
475 1 821 819 820 823
476 1 821 819 820 824
477 1 822 819 820 823
478 1 822 819 820 824
479 1 828 826 827 830
480 1 828 826 827 831
481 1 829 826 827 830
482 1 829 826 827 831
483 1 835 833 834 837
484 1 835 833 834 838
485 1 836 833 834 837
486 1 836 833 834 838
487 1 842 840 841 844
488 1 842 840 841 845
489 1 843 840 841 844
490 1 843 840 841 845
491 1 849 847 848 851
492 1 849 847 848 852
493 1 850 847 848 851
494 1 850 847 848 852
495 1 856 854 855 858
496 1 856 854 855 859
497 1 857 854 855 858
498 1 857 854 855 859
499 1 863 861 862 865
500 1 863 861 862 866
501 1 864 861 862 865
502 1 864 861 862 866
503 1 870 868 869 872
504 1 870 868 869 873
505 1 871 868 869 872
506 1 871 868 869 873
507 1 877 875 876 879
508 1 877 875 876 880
509 1 878 875 876 879
510 1 878 875 876 880
511 1 884 882 883 886
512 1 884 882 883 887
513 1 885 882 883 886
514 1 885 882 883 887
515 1 891 889 890 893
516 1 891 889 890 894
517 1 892 889 890 893
518 1 892 889 890 894
519 1 898 896 897 900
520 1 898 896 897 901
521 1 899 896 897 900
522 1 899 896 897 901
523 1 905 903 904 907
524 1 905 903 904 908
525 1 906 903 904 907
526 1 906 903 904 908
527 1 912 910 911 914
528 1 912 910 911 915
529 1 913 910 911 914
530 1 913 910 911 915
531 1 919 917 918 921
532 1 919 917 918 922
533 1 920 917 918 921
534 1 920 917 918 922
535 1 926 924 925 928
536 1 926 924 925 929
537 1 927 924 925 928
538 1 927 924 925 929
539 1 933 931 932 935
540 1 933 931 932 936
541 1 934 931 932 935
542 1 934 931 932 936
543 1 940 938 939 942
544 1 940 938 939 943
545 1 941 938 939 942
546 1 941 938 939 943
547 1 947 945 946 949
548 1 947 945 946 950
549 1 948 945 946 949
550 1 948 945 946 950
551 1 954 952 953 956
552 1 954 952 953 957
553 1 955 952 953 956
554 1 955 952 953 957
555 1 961 959 960 963
556 1 961 959 960 964
557 1 962 959 960 963
558 1 962 959 960 964
559 1 968 966 967 970
560 1 968 966 967 971
561 1 969 966 967 970
562 1 969 966 967 971
563 1 975 973 974 977
564 1 975 973 974 978
565 1 976 973 974 977
566 1 976 973 974 978
567 1 982 980 981 984
568 1 982 980 981 985
569 1 983 980 981 984
570 1 983 980 981 985
571 1 989 987 988 991
572 1 989 987 988 992
573 1 990 987 988 991
574 1 990 987 988 992
575 1 996 994 995 998
576 1 996 994 995 999
577 1 997 994 995 998
578 1 997 994 995 999
579 1 1003 1001 1002 1005
580 1 1003 1001 1002 1006
581 1 1004 1001 1002 1005
582 1 1004 1001 1002 1006
583 1 1010 1008 1009 1012
584 1 1010 1008 1009 1013
585 1 1011 1008 1009 1012
586 1 1011 1008 1009 1013
587 1 1017 1015 1016 1019
588 1 1017 1015 1016 1020
589 1 1018 1015 1016 1019
590 1 1018 1015 1016 1020
591 1 1024 1022 1023 1026
592 1 1024 1022 1023 1027
593 1 1025 1022 1023 1026
594 1 1025 1022 1023 1027
595 1 1031 1029 1030 1033
596 1 1031 1029 1030 1034
597 1 1032 1029 1030 1033
598 1 1032 1029 1030 1034
599 1 1038 1036 1037 1040
600 1 1038 1036 1037 1041
601 1 1039 1036 1037 1040
602 1 1039 1036 1037 1041
603 1 1045 1043 1044 1047
604 1 1045 1043 1044 1048
605 1 1046 1043 1044 1047
606 1 1046 1043 1044 1048
607 1 1052 1050 1051 1054
608 1 1052 1050 1051 1055
609 1 1052 1050 1051 1056
610 1 1053 1050 1051 1054
611 1 1053 1050 1051 1055
612 1 1053 1050 1051 1056
613 1 1060 1058 1059 1062
614 1 1060 1058 1059 1063
615 1 1060 1058 1059 1064
616 1 1061 1058 1059 1062
617 1 1061 1058 1059 1063
618 1 1061 1058 1059 1064
619 1 1068 1066 1067 1070
620 1 1068 1066 1067 1071
621 1 1069 1066 1067 1070
622 1 1069 1066 1067 1071
623 1 1075 1073 1074 1077
624 1 1075 1073 1074 1078
625 1 1076 1073 1074 1077
626 1 1076 1073 1074 1078
627 1 1082 1080 1081 1084
628 1 1082 1080 1081 1085
629 1 1083 1080 1081 1084
630 1 1083 1080 1081 1085
631 1 1089 1087 1088 1091
632 1 1089 1087 1088 1092
633 1 1090 1087 1088 1091
634 1 1090 1087 1088 1092
635 1 1096 1094 1095 1098
636 1 1096 1094 1095 1099
637 1 1097 1094 1095 1098
638 1 1097 1094 1095 1099
639 1 1103 1101 1102 1105
640 1 1103 1101 1102 1106
641 1 1104 1101 1102 1105
642 1 1104 1101 1102 1106
643 1 1110 1108 1109 1112
644 1 1110 1108 1109 1113
645 1 1111 1108 1109 1112
646 1 1111 1108 1109 1113
647 1 1117 1115 1116 1119
648 1 1117 1115 1116 1120
649 1 1118 1115 1116 1119
650 1 1118 1115 1116 1120
651 1 1124 1122 1123 1126
652 1 1124 1122 1123 1127
653 1 1125 1122 1123 1126
654 1 1125 1122 1123 1127
655 1 1131 1129 1130 1133
656 1 1131 1129 1130 1134
657 1 1132 1129 1130 1133
658 1 1132 1129 1130 1134
659 1 1138 1136 1137 1140
660 1 1138 1136 1137 1141
661 1 1139 1136 1137 1140
662 1 1139 1136 1137 1141
663 1 1145 1143 1144 1147
664 1 1145 1143 1144 1148
665 1 1146 1143 1144 1147
666 1 1146 1143 1144 1148
667 1 1152 1150 1151 1154
668 1 1152 1150 1151 1155
669 1 1153 1150 1151 1154
670 1 1153 1150 1151 1155
671 1 1159 1157 1158 1161
672 1 1159 1157 1158 1162
673 1 1160 1157 1158 1161
674 1 1160 1157 1158 1162
675 1 1166 1164 1165 1168
676 1 1166 1164 1165 1169
677 1 1167 1164 1165 1168
678 1 1167 1164 1165 1169
679 1 1173 1171 1172 1175
680 1 1173 1171 1172 1176
681 1 1174 1171 1172 1175
682 1 1174 1171 1172 1176
683 1 1180 1178 1179 1182
684 1 1180 1178 1179 1183
685 1 1181 1178 1179 1182
686 1 1181 1178 1179 1183
687 1 1187 1185 1186 1189
688 1 1187 1185 1186 1190
689 1 1188 1185 1186 1189
690 1 1188 1185 1186 1190
691 1 1194 1192 1193 1196
692 1 1194 1192 1193 1197
693 1 1195 1192 1193 1196
694 1 1195 1192 1193 1197
695 1 1201 1199 1200 1203
696 1 1201 1199 1200 1204
697 1 1202 1199 1200 1203
698 1 1202 1199 1200 1204
699 1 1208 1206 1207 1210
700 1 1208 1206 1207 1211
701 1 1209 1206 1207 1210
702 1 1209 1206 1207 1211
703 1 1215 1213 1214 1217
704 1 1215 1213 1214 1218
705 1 1216 1213 1214 1217
706 1 1216 1213 1214 1218
707 1 1222 1220 1221 1224
708 1 1222 1220 1221 1225
709 1 1223 1220 1221 1224
710 1 1223 1220 1221 1225
711 1 1229 1227 1228 1231
712 1 1229 1227 1228 1232
713 1 1230 1227 1228 1231
714 1 1230 1227 1228 1232
715 1 1236 1234 1235 1238
716 1 1236 1234 1235 1239
717 1 1237 1234 1235 1238
718 1 1237 1234 1235 1239
719 1 1243 1241 1242 1245
720 1 1243 1241 1242 1246
721 1 1244 1241 1242 1245
722 1 1244 1241 1242 1246
723 1 1250 1248 1249 1252
724 1 1250 1248 1249 1253
725 1 1251 1248 1249 1252
726 1 1251 1248 1249 1253
727 1 1257 1255 1256 1259
728 1 1257 1255 1256 1260
729 1 1258 1255 1256 1259
730 1 1258 1255 1256 1260
731 1 1264 1262 1263 1266
732 1 1264 1262 1263 1267
733 1 1265 1262 1263 1266
734 1 1265 1262 1263 1267
735 1 1271 1269 1270 1273
736 1 1271 1269 1270 1274
737 1 1272 1269 1270 1273
738 1 1272 1269 1270 1274
739 1 1278 1276 1277 1280
740 1 1278 1276 1277 1281
741 1 1279 1276 1277 1280
742 1 1279 1276 1277 1281
743 1 1285 1283 1284 1287
744 1 1285 1283 1284 1288
745 1 1286 1283 1284 1287
746 1 1286 1283 1284 1288
747 1 1292 1290 1291 1294
748 1 1292 1290 1291 1295
749 1 1293 1290 1291 1294
750 1 1293 1290 1291 1295
751 1 1299 1297 1298 1301
752 1 1299 1297 1298 1302
753 1 1300 1297 1298 1301
754 1 1300 1297 1298 1302
755 1 1306 1304 1305 1308
756 1 1306 1304 1305 1309
757 1 1307 1304 1305 1308
758 1 1307 1304 1305 1309
759 1 1313 1311 1312 1315
760 1 1313 1311 1312 1316
761 1 1314 1311 1312 1315
762 1 1314 1311 1312 1316
763 1 1320 1318 1319 1322
764 1 1320 1318 1319 1323
765 1 1321 1318 1319 1322
766 1 1321 1318 1319 1323
767 1 1327 1325 1326 1329
768 1 1327 1325 1326 1330
769 1 1328 1325 1326 1329
770 1 1328 1325 1326 1330
771 1 1334 1332 1333 1336
772 1 1334 1332 1333 1337
773 1 1335 1332 1333 1336
774 1 1335 1332 1333 1337
775 1 1341 1339 1340 1343
776 1 1341 1339 1340 1344
777 1 1342 1339 1340 1343
778 1 1342 1339 1340 1344
779 1 1348 1346 1347 1350
780 1 1348 1346 1347 1351
781 1 1349 1346 1347 1350
782 1 1349 1346 1347 1351
783 1 1355 1353 1354 1357
784 1 1355 1353 1354 1358
785 1 1356 1353 1354 1357
786 1 1356 1353 1354 1358
787 1 1362 1360 1361 1364
788 1 1362 1360 1361 1365
789 1 1363 1360 1361 1364
790 1 1363 1360 1361 1365
791 1 1369 1367 1368 1371
792 1 1369 1367 1368 1372
793 1 1370 1367 1368 1371
794 1 1370 1367 1368 1372
795 1 1376 1374 1375 1378
796 1 1376 1374 1375 1379
797 1 1377 1374 1375 1378
798 1 1377 1374 1375 1379
799 1 1383 1381 1382 1385
800 1 1383 1381 1382 1386
801 1 1384 1381 1382 1385
802 1 1384 1381 1382 1386
803 1 1390 1388 1389 1392
804 1 1390 1388 1389 1393
805 1 1391 1388 1389 1392
806 1 1391 1388 1389 1393
807 1 1397 1395 1396 1399
808 1 1397 1395 1396 1400
809 1 1398 1395 1396 1399
810 1 1398 1395 1396 1400
811 1 1404 1402 1403 1406
812 1 1404 1402 1403 1407
813 1 1404 1402 1403 1408
814 1 1405 1402 1403 1406
815 1 1405 1402 1403 1407
816 1 1405 1402 1403 1408
817 1 1412 1410 1411 1414
818 1 1412 1410 1411 1415
819 1 1412 1410 1411 1416
820 1 1413 1410 1411 1414
821 1 1413 1410 1411 1415
822 1 1413 1410 1411 1416
823 1 1420 1418 1419 1422
824 1 1420 1418 1419 1423
825 1 1421 1418 1419 1422
826 1 1421 1418 1419 1423
827 1 1427 1425 1426 1429
828 1 1427 1425 1426 1430
829 1 1428 1425 1426 1429
830 1 1428 1425 1426 1430
831 1 1434 1432 1433 1436
832 1 1434 1432 1433 1437
833 1 1435 1432 1433 1436
834 1 1435 1432 1433 1437
835 1 1441 1439 1440 1443
836 1 1441 1439 1440 1444
837 1 1442 1439 1440 1443
838 1 1442 1439 1440 1444
839 1 1448 1446 1447 1450
840 1 1448 1446 1447 1451
841 1 1449 1446 1447 1450
842 1 1449 1446 1447 1451
843 1 1455 1453 1454 1457
844 1 1455 1453 1454 1458
845 1 1456 1453 1454 1457
846 1 1456 1453 1454 1458
847 1 1462 1460 1461 1464
848 1 1462 1460 1461 1465
849 1 1463 1460 1461 1464
850 1 1463 1460 1461 1465
851 1 1469 1467 1468 1471
852 1 1469 1467 1468 1472
853 1 1470 1467 1468 1471
854 1 1470 1467 1468 1472
855 1 1476 1474 1475 1478
856 1 1476 1474 1475 1479
857 1 1477 1474 1475 1478
858 1 1477 1474 1475 1479
859 1 1483 1481 1482 1485
860 1 1483 1481 1482 1486
861 1 1484 1481 1482 1485
862 1 1484 1481 1482 1486
863 1 1490 1488 1489 1492
864 1 1490 1488 1489 1493
865 1 1491 1488 1489 1492
866 1 1491 1488 1489 1493
867 1 1497 1495 1496 1499
868 1 1497 1495 1496 1500
869 1 1498 1495 1496 1499
870 1 1498 1495 1496 1500
871 1 1504 1502 1503 1506
872 1 1504 1502 1503 1507
873 1 1505 1502 1503 1506
874 1 1505 1502 1503 1507
875 1 1511 1509 1510 1513
876 1 1511 1509 1510 1514
877 1 1512 1509 1510 1513
878 1 1512 1509 1510 1514
879 1 1518 1516 1517 1520
880 1 1518 1516 1517 1521
881 1 1519 1516 1517 1520
882 1 1519 1516 1517 1521
883 1 1525 1523 1524 1527
884 1 1525 1523 1524 1528
885 1 1526 1523 1524 1527
886 1 1526 1523 1524 1528
887 1 1532 1530 1531 1534
888 1 1532 1530 1531 1535
889 1 1533 1530 1531 1534
890 1 1533 1530 1531 1535
891 1 1539 1537 1538 1541
892 1 1539 1537 1538 1542
893 1 1540 1537 1538 1541
894 1 1540 1537 1538 1542
895 1 1546 1544 1545 1548
896 1 1546 1544 1545 1549
897 1 1547 1544 1545 1548
898 1 1547 1544 1545 1549
899 1 1553 1551 1552 1555
900 1 1553 1551 1552 1556
901 1 1554 1551 1552 1555
902 1 1554 1551 1552 1556
903 1 1560 1558 1559 1562
904 1 1560 1558 1559 1563
905 1 1561 1558 1559 1562
906 1 1561 1558 1559 1563
907 1 1567 1565 1566 1569
908 1 1567 1565 1566 1570
909 1 1568 1565 1566 1569
910 1 1568 1565 1566 1570
911 1 1574 1572 1573 1576
912 1 1574 1572 1573 1577
913 1 1575 1572 1573 1576
914 1 1575 1572 1573 1577
915 1 1581 1579 1580 1583
916 1 1581 1579 1580 1584
917 1 1582 1579 1580 1583
918 1 1582 1579 1580 1584
919 1 1588 1586 1587 1590
920 1 1588 1586 1587 1591
921 1 1589 1586 1587 1590
922 1 1589 1586 1587 1591
923 1 1595 1593 1594 1597
924 1 1595 1593 1594 1598
925 1 1596 1593 1594 1597
926 1 1596 1593 1594 1598
927 1 1602 1600 1601 1604
928 1 1602 1600 1601 1605
929 1 1603 1600 1601 1604
930 1 1603 1600 1601 1605
931 1 1609 1607 1608 1611
932 1 1609 1607 1608 1612
933 1 1610 1607 1608 1611
934 1 1610 1607 1608 1612
935 1 1616 1614 1615 1618
936 1 1616 1614 1615 1619
937 1 1617 1614 1615 1618
938 1 1617 1614 1615 1619
939 1 1623 1621 1622 1625
940 1 1623 1621 1622 1626
941 1 1624 1621 1622 1625
942 1 1624 1621 1622 1626
943 1 1630 1628 1629 1632
944 1 1630 1628 1629 1633
945 1 1631 1628 1629 1632
946 1 1631 1628 1629 1633
947 1 1637 1635 1636 1639
948 1 1637 1635 1636 1640
949 1 1638 1635 1636 1639
950 1 1638 1635 1636 1640
951 1 1644 1642 1643 1646
952 1 1644 1642 1643 1647
953 1 1645 1642 1643 1646
954 1 1645 1642 1643 1647
955 1 1651 1649 1650 1653
956 1 1651 1649 1650 1654
957 1 1652 1649 1650 1653
958 1 1652 1649 1650 1654
959 1 1658 1656 1657 1660
960 1 1658 1656 1657 1661
961 1 1659 1656 1657 1660
962 1 1659 1656 1657 1661
963 1 1665 1663 1664 1667
964 1 1665 1663 1664 1668
965 1 1666 1663 1664 1667
966 1 1666 1663 1664 1668
967 1 1672 1670 1671 1674
968 1 1672 1670 1671 1675
969 1 1673 1670 1671 1674
970 1 1673 1670 1671 1675
971 1 1679 1677 1678 1681
972 1 1679 1677 1678 1682
973 1 1680 1677 1678 1681
974 1 1680 1677 1678 1682
975 1 1686 1684 1685 1688
976 1 1686 1684 1685 1689
977 1 1687 1684 1685 1688
978 1 1687 1684 1685 1689
979 1 1693 1691 1692 1695
980 1 1693 1691 1692 1696
981 1 1694 1691 1692 1695
982 1 1694 1691 1692 1696
983 1 1700 1698 1699 1702
984 1 1700 1698 1699 1703
985 1 1701 1698 1699 1702
986 1 1701 1698 1699 1703
987 1 1707 1705 1706 1709
988 1 1707 1705 1706 1710
989 1 1708 1705 1706 1709
990 1 1708 1705 1706 1710
991 1 1714 1712 1713 1716
992 1 1714 1712 1713 1717
993 1 1715 1712 1713 1716
994 1 1715 1712 1713 1717
995 1 1721 1719 1720 1723
996 1 1721 1719 1720 1724
997 1 1722 1719 1720 1723
998 1 1722 1719 1720 1724
999 1 1728 1726 1727 1730
1000 1 1728 1726 1727 1731
1001 1 1729 1726 1727 1730
1002 1 1729 1726 1727 1731
1003 1 1735 1733 1734 1737
1004 1 1735 1733 1734 1738
1005 1 1736 1733 1734 1737
1006 1 1736 1733 1734 1738
1007 1 1742 1740 1741 1744
1008 1 1742 1740 1741 1745
1009 1 1743 1740 1741 1744
1010 1 1743 1740 1741 1745
1011 1 1749 1747 1748 1751
1012 1 1749 1747 1748 1752
1013 1 1750 1747 1748 1751
1014 1 1750 1747 1748 1752
1015 1 1756 1754 1755 1758
1016 1 1756 1754 1755 1759
1017 1 1756 1754 1755 1760
1018 1 1757 1754 1755 1758
1019 1 1757 1754 1755 1759
1020 1 1757 1754 1755 1760
1021 1 1764 1762 1763 1766
1022 1 1764 1762 1763 1767
1023 1 1764 1762 1763 1768
1024 1 1765 1762 1763 1766
1025 1 1765 1762 1763 1767
1026 1 1765 1762 1763 1768
1027 1 1772 1770 1771 1774
1028 1 1772 1770 1771 1775
1029 1 1773 1770 1771 1774
1030 1 1773 1770 1771 1775
1031 1 1779 1777 1778 1781
1032 1 1779 1777 1778 1782
1033 1 1780 1777 1778 1781
1034 1 1780 1777 1778 1782
1035 1 1786 1784 1785 1788
1036 1 1786 1784 1785 1789
1037 1 1787 1784 1785 1788
1038 1 1787 1784 1785 1789
1039 1 1793 1791 1792 1795
1040 1 1793 1791 1792 1796
1041 1 1794 1791 1792 1795
1042 1 1794 1791 1792 1796
1043 1 1800 1798 1799 1802
1044 1 1800 1798 1799 1803
1045 1 1801 1798 1799 1802
1046 1 1801 1798 1799 1803
1047 1 1807 1805 1806 1809
1048 1 1807 1805 1806 1810
1049 1 1808 1805 1806 1809
1050 1 1808 1805 1806 1810
1051 1 1814 1812 1813 1816
1052 1 1814 1812 1813 1817
1053 1 1815 1812 1813 1816
1054 1 1815 1812 1813 1817
1055 1 1821 1819 1820 1823
1056 1 1821 1819 1820 1824
1057 1 1822 1819 1820 1823
1058 1 1822 1819 1820 1824
1059 1 1828 1826 1827 1830
1060 1 1828 1826 1827 1831
1061 1 1829 1826 1827 1830
1062 1 1829 1826 1827 1831
1063 1 1835 1833 1834 1837
1064 1 1835 1833 1834 1838
1065 1 1836 1833 1834 1837
1066 1 1836 1833 1834 1838
1067 1 1842 1840 1841 1844
1068 1 1842 1840 1841 1845
1069 1 1843 1840 1841 1844
1070 1 1843 1840 1841 1845
1071 1 1849 1847 1848 1851
1072 1 1849 1847 1848 1852
1073 1 1850 1847 1848 1851
1074 1 1850 1847 1848 1852
1075 1 1856 1854 1855 1858
1076 1 1856 1854 1855 1859
1077 1 1857 1854 1855 1858
1078 1 1857 1854 1855 1859
1079 1 1863 1861 1862 1865
1080 1 1863 1861 1862 1866
1081 1 1864 1861 1862 1865
1082 1 1864 1861 1862 1866
1083 1 1870 1868 1869 1872
1084 1 1870 1868 1869 1873
1085 1 1871 1868 1869 1872
1086 1 1871 1868 1869 1873
1087 1 1877 1875 1876 1879
1088 1 1877 1875 1876 1880
1089 1 1878 1875 1876 1879
1090 1 1878 1875 1876 1880
1091 1 1884 1882 1883 1886
1092 1 1884 1882 1883 1887
1093 1 1885 1882 1883 1886
1094 1 1885 1882 1883 1887
1095 1 1891 1889 1890 1893
1096 1 1891 1889 1890 1894
1097 1 1892 1889 1890 1893
1098 1 1892 1889 1890 1894
1099 1 1898 1896 1897 1900
1100 1 1898 1896 1897 1901
1101 1 1899 1896 1897 1900
1102 1 1899 1896 1897 1901
1103 1 1905 1903 1904 1907
1104 1 1905 1903 1904 1908
1105 1 1906 1903 1904 1907
1106 1 1906 1903 1904 1908
1107 1 1912 1910 1911 1914
1108 1 1912 1910 1911 1915
1109 1 1913 1910 1911 1914
1110 1 1913 1910 1911 1915
1111 1 1919 1917 1918 1921
1112 1 1919 1917 1918 1922
1113 1 1920 1917 1918 1921
1114 1 1920 1917 1918 1922
1115 1 1926 1924 1925 1928
1116 1 1926 1924 1925 1929
1117 1 1927 1924 1925 1928
1118 1 1927 1924 1925 1929
1119 1 1933 1931 1932 1935
1120 1 1933 1931 1932 1936
1121 1 1934 1931 1932 1935
1122 1 1934 1931 1932 1936
1123 1 1940 1938 1939 1942
1124 1 1940 1938 1939 1943
1125 1 1941 1938 1939 1942
1126 1 1941 1938 1939 1943
1127 1 1947 1945 1946 1949
1128 1 1947 1945 1946 1950
1129 1 1948 1945 1946 1949
1130 1 1948 1945 1946 1950
1131 1 1954 1952 1953 1956
1132 1 1954 1952 1953 1957
1133 1 1955 1952 1953 1956
1134 1 1955 1952 1953 1957
1135 1 1961 1959 1960 1963
1136 1 1961 1959 1960 1964
1137 1 1962 1959 1960 1963
1138 1 1962 1959 1960 1964
1139 1 1968 1966 1967 1970
1140 1 1968 1966 1967 1971
1141 1 1969 1966 1967 1970
1142 1 1969 1966 1967 1971
1143 1 1975 1973 1974 1977
1144 1 1975 1973 1974 1978
1145 1 1976 1973 1974 1977
1146 1 1976 1973 1974 1978
1147 1 1982 1980 1981 1984
1148 1 1982 1980 1981 1985
1149 1 1983 1980 1981 1984
1150 1 1983 1980 1981 1985
1151 1 1989 1987 1988 1991
1152 1 1989 1987 1988 1992
1153 1 1990 1987 1988 1991
1154 1 1990 1987 1988 1992
1155 1 1996 1994 1995 1998
1156 1 1996 1994 1995 1999
1157 1 1997 1994 1995 1998
1158 1 1997 1994 1995 1999
1159 1 2003 2001 2002 2005
1160 1 2003 2001 2002 2006
1161 1 2004 2001 2002 2005
1162 1 2004 2001 2002 2006
1163 1 2010 2008 2009 2012
1164 1 2010 2008 2009 2013
1165 1 2011 2008 2009 2012
1166 1 2011 2008 2009 2013
1167 1 2017 2015 2016 2019
1168 1 2017 2015 2016 2020
1169 1 2018 2015 2016 2019
1170 1 2018 2015 2016 2020
1171 1 2024 2022 2023 2026
1172 1 2024 2022 2023 2027
1173 1 2025 2022 2023 2026
1174 1 2025 2022 2023 2027
1175 1 2031 2029 2030 2033
1176 1 2031 2029 2030 2034
1177 1 2032 2029 2030 2033
1178 1 2032 2029 2030 2034
1179 1 2038 2036 2037 2040
1180 1 2038 2036 2037 2041
1181 1 2039 2036 2037 2040
1182 1 2039 2036 2037 2041
1183 1 2045 2043 2044 2047
1184 1 2045 2043 2044 2048
1185 1 2046 2043 2044 2047
1186 1 2046 2043 2044 2048
1187 1 2052 2050 2051 2054
1188 1 2052 2050 2051 2055
1189 1 2053 2050 2051 2054
1190 1 2053 2050 2051 2055
1191 1 2059 2057 2058 2061
1192 1 2059 2057 2058 2062
1193 1 2060 2057 2058 2061
1194 1 2060 2057 2058 2062
1195 1 2066 2064 2065 2068
1196 1 2066 2064 2065 2069
1197 1 2067 2064 2065 2068
1198 1 2067 2064 2065 2069
1199 1 2073 2071 2072 2075
1200 1 2073 2071 2072 2076
1201 1 2074 2071 2072 2075
1202 1 2074 2071 2072 2076
1203 1 2080 2078 2079 2082
1204 1 2080 2078 2079 2083
1205 1 2081 2078 2079 2082
1206 1 2081 2078 2079 2083
1207 1 2087 2085 2086 2089
1208 1 2087 2085 2086 2090
1209 1 2088 2085 2086 2089
1210 1 2088 2085 2086 2090
1211 1 2094 2092 2093 2096
1212 1 2094 2092 2093 2097
1213 1 2095 2092 2093 2096
1214 1 2095 2092 2093 2097
1215 1 2101 2099 2100 2103
1216 1 2101 2099 2100 2104
1217 1 2102 2099 2100 2103
1218 1 2102 2099 2100 2104
1219 1 2108 2106 2107 2110
1220 1 2108 2106 2107 2111
1221 1 2108 2106 2107 2112
1222 1 2109 2106 2107 2110
1223 1 2109 2106 2107 2111
1224 1 2109 2106 2107 2112
1225 1 2116 2114 2115 2118
1226 1 2116 2114 2115 2119
1227 1 2116 2114 2115 2120
1228 1 2117 2114 2115 2118
1229 1 2117 2114 2115 2119
1230 1 2117 2114 2115 2120
1231 1 2124 2122 2123 2126
1232 1 2124 2122 2123 2127
1233 1 2125 2122 2123 2126
1234 1 2125 2122 2123 2127
1235 1 2131 2129 2130 2133
1236 1 2131 2129 2130 2134
1237 1 2132 2129 2130 2133
1238 1 2132 2129 2130 2134
1239 1 2138 2136 2137 2140
1240 1 2138 2136 2137 2141
1241 1 2139 2136 2137 2140
1242 1 2139 2136 2137 2141
1243 1 2145 2143 2144 2147
1244 1 2145 2143 2144 2148
1245 1 2146 2143 2144 2147
1246 1 2146 2143 2144 2148
1247 1 2152 2150 2151 2154
1248 1 2152 2150 2151 2155
1249 1 2153 2150 2151 2154
1250 1 2153 2150 2151 2155
1251 1 2159 2157 2158 2161
1252 1 2159 2157 2158 2162
1253 1 2160 2157 2158 2161
1254 1 2160 2157 2158 2162
1255 1 2166 2164 2165 2168
1256 1 2166 2164 2165 2169
1257 1 2167 2164 2165 2168
1258 1 2167 2164 2165 2169
1259 1 2173 2171 2172 2175
1260 1 2173 2171 2172 2176
1261 1 2174 2171 2172 2175
1262 1 2174 2171 2172 2176
1263 1 2180 2178 2179 2182
1264 1 2180 2178 2179 2183
1265 1 2181 2178 2179 2182
1266 1 2181 2178 2179 2183
1267 1 2187 2185 2186 2189
1268 1 2187 2185 2186 2190
1269 1 2188 2185 2186 2189
1270 1 2188 2185 2186 2190
1271 1 2194 2192 2193 2196
1272 1 2194 2192 2193 2197
1273 1 2195 2192 2193 2196
1274 1 2195 2192 2193 2197
1275 1 2201 2199 2200 2203
1276 1 2201 2199 2200 2204
1277 1 2202 2199 2200 2203
1278 1 2202 2199 2200 2204
1279 1 2208 2206 2207 2210
1280 1 2208 2206 2207 2211
1281 1 2209 2206 2207 2210
1282 1 2209 2206 2207 2211
1283 1 2215 2213 2214 2217
1284 1 2215 2213 2214 2218
1285 1 2216 2213 2214 2217
1286 1 2216 2213 2214 2218
1287 1 2222 2220 2221 2224
1288 1 2222 2220 2221 2225
1289 1 2223 2220 2221 2224
1290 1 2223 2220 2221 2225
1291 1 2229 2227 2228 2231
1292 1 2229 2227 2228 2232
1293 1 2230 2227 2228 2231
1294 1 2230 2227 2228 2232
1295 1 2236 2234 2235 2238
1296 1 2236 2234 2235 2239
1297 1 2237 2234 2235 2238
1298 1 2237 2234 2235 2239
1299 1 2243 2241 2242 2245
1300 1 2243 2241 2242 2246
1301 1 2244 2241 2242 2245
1302 1 2244 2241 2242 2246
1303 1 2250 2248 2249 2252
1304 1 2250 2248 2249 2253
1305 1 2251 2248 2249 2252
1306 1 2251 2248 2249 2253
1307 1 2257 2255 2256 2259
1308 1 2257 2255 2256 2260
1309 1 2258 2255 2256 2259
1310 1 2258 2255 2256 2260
1311 1 2264 2262 2263 2266
1312 1 2264 2262 2263 2267
1313 1 2265 2262 2263 2266
1314 1 2265 2262 2263 2267
1315 1 2271 2269 2270 2273
1316 1 2271 2269 2270 2274
1317 1 2272 2269 2270 2273
1318 1 2272 2269 2270 2274
1319 1 2278 2276 2277 2280
1320 1 2278 2276 2277 2281
1321 1 2279 2276 2277 2280
1322 1 2279 2276 2277 2281
1323 1 2285 2283 2284 2287
1324 1 2285 2283 2284 2288
1325 1 2286 2283 2284 2287
1326 1 2286 2283 2284 2288
1327 1 2292 2290 2291 2294
1328 1 2292 2290 2291 2295
1329 1 2293 2290 2291 2294
1330 1 2293 2290 2291 2295
1331 1 2299 2297 2298 2301
1332 1 2299 2297 2298 2302
1333 1 2300 2297 2298 2301
1334 1 2300 2297 2298 2302
1335 1 2306 2304 2305 2308
1336 1 2306 2304 2305 2309
1337 1 2307 2304 2305 2308
1338 1 2307 2304 2305 2309
1339 1 2313 2311 2312 2315
1340 1 2313 2311 2312 2316
1341 1 2314 2311 2312 2315
1342 1 2314 2311 2312 2316
1343 1 2320 2318 2319 2322
1344 1 2320 2318 2319 2323
1345 1 2321 2318 2319 2322
1346 1 2321 2318 2319 2323
1347 1 2327 2325 2326 2329
1348 1 2327 2325 2326 2330
1349 1 2328 2325 2326 2329
1350 1 2328 2325 2326 2330
1351 1 2334 2332 2333 2336
1352 1 2334 2332 2333 2337
1353 1 2335 2332 2333 2336
1354 1 2335 2332 2333 2337
1355 1 2341 2339 2340 2343
1356 1 2341 2339 2340 2344
1357 1 2342 2339 2340 2343
1358 1 2342 2339 2340 2344
1359 1 2348 2346 2347 2350
1360 1 2348 2346 2347 2351
1361 1 2349 2346 2347 2350
1362 1 2349 2346 2347 2351
1363 1 2355 2353 2354 2357
1364 1 2355 2353 2354 2358
1365 1 2356 2353 2354 2357
1366 1 2356 2353 2354 2358
1367 1 2362 2360 2361 2364
1368 1 2362 2360 2361 2365
1369 1 2363 2360 2361 2364
1370 1 2363 2360 2361 2365
1371 1 2369 2367 2368 2371
1372 1 2369 2367 2368 2372
1373 1 2370 2367 2368 2371
1374 1 2370 2367 2368 2372
1375 1 2376 2374 2375 2378
1376 1 2376 2374 2375 2379
1377 1 2377 2374 2375 2378
1378 1 2377 2374 2375 2379
1379 1 2383 2381 2382 2385
1380 1 2383 2381 2382 2386
1381 1 2384 2381 2382 2385
1382 1 2384 2381 2382 2386
1383 1 2390 2388 2389 2392
1384 1 2390 2388 2389 2393
1385 1 2391 2388 2389 2392
1386 1 2391 2388 2389 2393
1387 1 2397 2395 2396 2399
1388 1 2397 2395 2396 2400
1389 1 2398 2395 2396 2399
1390 1 2398 2395 2396 2400
1391 1 2404 2402 2403 2406
1392 1 2404 2402 2403 2407
1393 1 2405 2402 2403 2406
1394 1 2405 2402 2403 2407
1395 1 2411 2409 2410 2413
1396 1 2411 2409 2410 2414
1397 1 2412 2409 2410 2413
1398 1 2412 2409 2410 2414
1399 1 2418 2416 2417 2420
1400 1 2418 2416 2417 2421
1401 1 2419 2416 2417 2420
1402 1 2419 2416 2417 2421
1403 1 2425 2423 2424 2427
1404 1 2425 2423 2424 2428
1405 1 2426 2423 2424 2427
1406 1 2426 2423 2424 2428
1407 1 2432 2430 2431 2434
1408 1 2432 2430 2431 2435
1409 1 2433 2430 2431 2434
1410 1 2433 2430 2431 2435
1411 1 2439 2437 2438 2441
1412 1 2439 2437 2438 2442
1413 1 2440 2437 2438 2441
1414 1 2440 2437 2438 2442
1415 1 2446 2444 2445 2448
1416 1 2446 2444 2445 2449
1417 1 2447 2444 2445 2448
1418 1 2447 2444 2445 2449
1419 1 2453 2451 2452 2455
1420 1 2453 2451 2452 2456
1421 1 2454 2451 2452 2455
1422 1 2454 2451 2452 2456
1423 1 2460 2458 2459 2462
1424 1 2460 2458 2459 2463
1425 1 2460 2458 2459 2464
1426 1 2461 2458 2459 2462
1427 1 2461 2458 2459 2463
1428 1 2461 2458 2459 2464
1429 1 2468 2466 2467 2470
1430 1 2468 2466 2467 2471
1431 1 2468 2466 2467 2472
1432 1 2469 2466 2467 2470
1433 1 2469 2466 2467 2471
1434 1 2469 2466 2467 2472
1435 1 2476 2474 2475 2478
1436 1 2476 2474 2475 2479
1437 1 2477 2474 2475 2478
1438 1 2477 2474 2475 2479
1439 1 2483 2481 2482 2485
1440 1 2483 2481 2482 2486
1441 1 2484 2481 2482 2485
1442 1 2484 2481 2482 2486
1443 1 2490 2488 2489 2492
1444 1 2490 2488 2489 2493
1445 1 2491 2488 2489 2492
1446 1 2491 2488 2489 2493
1447 1 2497 2495 2496 2499
1448 1 2497 2495 2496 2500
1449 1 2498 2495 2496 2499
1450 1 2498 2495 2496 2500
1451 1 2504 2502 2503 2506
1452 1 2504 2502 2503 2507
1453 1 2505 2502 2503 2506
1454 1 2505 2502 2503 2507
1455 1 2511 2509 2510 2513
1456 1 2511 2509 2510 2514
1457 1 2512 2509 2510 2513
1458 1 2512 2509 2510 2514
1459 1 2518 2516 2517 2520
1460 1 2518 2516 2517 2521
1461 1 2519 2516 2517 2520
1462 1 2519 2516 2517 2521
1463 1 2525 2523 2524 2527
1464 1 2525 2523 2524 2528
1465 1 2526 2523 2524 2527
1466 1 2526 2523 2524 2528
1467 1 2532 2530 2531 2534
1468 1 2532 2530 2531 2535
1469 1 2533 2530 2531 2534
1470 1 2533 2530 2531 2535
1471 1 2539 2537 2538 2541
1472 1 2539 2537 2538 2542
1473 1 2540 2537 2538 2541
1474 1 2540 2537 2538 2542
1475 1 2546 2544 2545 2548
1476 1 2546 2544 2545 2549
1477 1 2547 2544 2545 2548
1478 1 2547 2544 2545 2549
1479 1 2553 2551 2552 2555
1480 1 2553 2551 2552 2556
1481 1 2554 2551 2552 2555
1482 1 2554 2551 2552 2556
1483 1 2560 2558 2559 2562
1484 1 2560 2558 2559 2563
1485 1 2561 2558 2559 2562
1486 1 2561 2558 2559 2563
1487 1 2567 2565 2566 2569
1488 1 2567 2565 2566 2570
1489 1 2568 2565 2566 2569
1490 1 2568 2565 2566 2570
1491 1 2574 2572 2573 2576
1492 1 2574 2572 2573 2577
1493 1 2575 2572 2573 2576
1494 1 2575 2572 2573 2577
1495 1 2581 2579 2580 2583
1496 1 2581 2579 2580 2584
1497 1 2582 2579 2580 2583
1498 1 2582 2579 2580 2584
1499 1 2588 2586 2587 2590
1500 1 2588 2586 2587 2591
1501 1 2589 2586 2587 2590
1502 1 2589 2586 2587 2591
1503 1 2595 2593 2594 2597
1504 1 2595 2593 2594 2598
1505 1 2596 2593 2594 2597
1506 1 2596 2593 2594 2598
1507 1 2602 2600 2601 2604
1508 1 2602 2600 2601 2605
1509 1 2603 2600 2601 2604
1510 1 2603 2600 2601 2605
1511 1 2609 2607 2608 2611
1512 1 2609 2607 2608 2612
1513 1 2610 2607 2608 2611
1514 1 2610 2607 2608 2612
1515 1 2616 2614 2615 2618
1516 1 2616 2614 2615 2619
1517 1 2617 2614 2615 2618
1518 1 2617 2614 2615 2619
1519 1 2623 2621 2622 2625
1520 1 2623 2621 2622 2626
1521 1 2624 2621 2622 2625
1522 1 2624 2621 2622 2626
1523 1 2630 2628 2629 2632
1524 1 2630 2628 2629 2633
1525 1 2631 2628 2629 2632
1526 1 2631 2628 2629 2633
1527 1 2637 2635 2636 2639
1528 1 2637 2635 2636 2640
1529 1 2638 2635 2636 2639
1530 1 2638 2635 2636 2640
1531 1 2644 2642 2643 2646
1532 1 2644 2642 2643 2647
1533 1 2645 2642 2643 2646
1534 1 2645 2642 2643 2647
1535 1 2651 2649 2650 2653
1536 1 2651 2649 2650 2654
1537 1 2652 2649 2650 2653
1538 1 2652 2649 2650 2654
1539 1 2658 2656 2657 2660
1540 1 2658 2656 2657 2661
1541 1 2659 2656 2657 2660
1542 1 2659 2656 2657 2661
1543 1 2665 2663 2664 2667
1544 1 2665 2663 2664 2668
1545 1 2666 2663 2664 2667
1546 1 2666 2663 2664 2668
1547 1 2672 2670 2671 2674
1548 1 2672 2670 2671 2675
1549 1 2673 2670 2671 2674
1550 1 2673 2670 2671 2675
1551 1 2679 2677 2678 2681
1552 1 2679 2677 2678 2682
1553 1 2680 2677 2678 2681
1554 1 2680 2677 2678 2682
1555 1 2686 2684 2685 2688
1556 1 2686 2684 2685 2689
1557 1 2687 2684 2685 2688
1558 1 2687 2684 2685 2689
1559 1 2693 2691 2692 2695
1560 1 2693 2691 2692 2696
1561 1 2694 2691 2692 2695
1562 1 2694 2691 2692 2696
1563 1 2700 2698 2699 2702
1564 1 2700 2698 2699 2703
1565 1 2701 2698 2699 2702
1566 1 2701 2698 2699 2703
1567 1 2707 2705 2706 2709
1568 1 2707 2705 2706 2710
1569 1 2708 2705 2706 2709
1570 1 2708 2705 2706 2710
1571 1 2714 2712 2713 2716
1572 1 2714 2712 2713 2717
1573 1 2715 2712 2713 2716
1574 1 2715 2712 2713 2717
1575 1 2721 2719 2720 2723
1576 1 2721 2719 2720 2724
1577 1 2722 2719 2720 2723
1578 1 2722 2719 2720 2724
1579 1 2728 2726 2727 2730
1580 1 2728 2726 2727 2731
1581 1 2729 2726 2727 2730
1582 1 2729 2726 2727 2731
1583 1 2735 2733 2734 2737
1584 1 2735 2733 2734 2738
1585 1 2736 2733 2734 2737
1586 1 2736 2733 2734 2738
1587 1 2742 2740 2741 2744
1588 1 2742 2740 2741 2745
1589 1 2743 2740 2741 2744
1590 1 2743 2740 2741 2745
1591 1 2749 2747 2748 2751
1592 1 2749 2747 2748 2752
1593 1 2750 2747 2748 2751
1594 1 2750 2747 2748 2752
1595 1 2756 2754 2755 2758
1596 1 2756 2754 2755 2759
1597 1 2757 2754 2755 2758
1598 1 2757 2754 2755 2759
1599 1 2763 2761 2762 2765
1600 1 2763 2761 2762 2766
1601 1 2764 2761 2762 2765
1602 1 2764 2761 2762 2766
1603 1 2770 2768 2769 2772
1604 1 2770 2768 2769 2773
1605 1 2771 2768 2769 2772
1606 1 2771 2768 2769 2773
1607 1 2777 2775 2776 2779
1608 1 2777 2775 2776 2780
1609 1 2778 2775 2776 2779
1610 1 2778 2775 2776 2780
1611 1 2784 2782 2783 2786
1612 1 2784 2782 2783 2787
1613 1 2785 2782 2783 2786
1614 1 2785 2782 2783 2787
1615 1 2791 2789 2790 2793
1616 1 2791 2789 2790 2794
1617 1 2792 2789 2790 2793
1618 1 2792 2789 2790 2794
1619 1 2798 2796 2797 2800
1620 1 2798 2796 2797 2801
1621 1 2799 2796 2797 2800
1622 1 2799 2796 2797 2801
1623 1 2805 2803 2804 2807
1624 1 2805 2803 2804 2808
1625 1 2806 2803 2804 2807
1626 1 2806 2803 2804 2808
1627 1 2812 2810 2811 2814
1628 1 2812 2810 2811 2815
1629 1 2812 2810 2811 2816
1630 1 2813 2810 2811 2814
1631 1 2813 2810 2811 2815
1632 1 2813 2810 2811 2816
1633 1 2820 2818 2819 2822
1634 1 2820 2818 2819 2823
1635 1 2820 2818 2819 2824
1636 1 2821 2818 2819 2822
1637 1 2821 2818 2819 2823
1638 1 2821 2818 2819 2824
1639 1 2828 2826 2827 2830
1640 1 2828 2826 2827 2831
1641 1 2829 2826 2827 2830
1642 1 2829 2826 2827 2831
1643 1 2835 2833 2834 2837
1644 1 2835 2833 2834 2838
1645 1 2836 2833 2834 2837
1646 1 2836 2833 2834 2838
1647 1 2842 2840 2841 2844
1648 1 2842 2840 2841 2845
1649 1 2843 2840 2841 2844
1650 1 2843 2840 2841 2845
1651 1 2849 2847 2848 2851
1652 1 2849 2847 2848 2852
1653 1 2850 2847 2848 2851
1654 1 2850 2847 2848 2852
1655 1 2856 2854 2855 2858
1656 1 2856 2854 2855 2859
1657 1 2857 2854 2855 2858
1658 1 2857 2854 2855 2859
1659 1 2863 2861 2862 2865
1660 1 2863 2861 2862 2866
1661 1 2864 2861 2862 2865
1662 1 2864 2861 2862 2866
1663 1 2870 2868 2869 2872
1664 1 2870 2868 2869 2873
1665 1 2871 2868 2869 2872
1666 1 2871 2868 2869 2873
1667 1 2877 2875 2876 2879
1668 1 2877 2875 2876 2880
1669 1 2878 2875 2876 2879
1670 1 2878 2875 2876 2880
1671 1 2884 2882 2883 2886
1672 1 2884 2882 2883 2887
1673 1 2885 2882 2883 2886
1674 1 2885 2882 2883 2887
1675 1 2891 2889 2890 2893
1676 1 2891 2889 2890 2894
1677 1 2892 2889 2890 2893
1678 1 2892 2889 2890 2894
1679 1 2898 2896 2897 2900
1680 1 2898 2896 2897 2901
1681 1 2899 2896 2897 2900
1682 1 2899 2896 2897 2901
1683 1 2905 2903 2904 2907
1684 1 2905 2903 2904 2908
1685 1 2906 2903 2904 2907
1686 1 2906 2903 2904 2908
1687 1 2912 2910 2911 2914
1688 1 2912 2910 2911 2915
1689 1 2913 2910 2911 2914
1690 1 2913 2910 2911 2915
1691 1 2919 2917 2918 2921
1692 1 2919 2917 2918 2922
1693 1 2920 2917 2918 2921
1694 1 2920 2917 2918 2922
1695 1 2926 2924 2925 2928
1696 1 2926 2924 2925 2929
1697 1 2927 2924 2925 2928
1698 1 2927 2924 2925 2929
1699 1 2933 2931 2932 2935
1700 1 2933 2931 2932 2936
1701 1 2934 2931 2932 2935
1702 1 2934 2931 2932 2936
1703 1 2940 2938 2939 2942
1704 1 2940 2938 2939 2943
1705 1 2941 2938 2939 2942
1706 1 2941 2938 2939 2943
1707 1 2947 2945 2946 2949
1708 1 2947 2945 2946 2950
1709 1 2948 2945 2946 2949
1710 1 2948 2945 2946 2950
1711 1 2954 2952 2953 2956
1712 1 2954 2952 2953 2957
1713 1 2955 2952 2953 2956
1714 1 2955 2952 2953 2957
1715 1 2961 2959 2960 2963
1716 1 2961 2959 2960 2964
1717 1 2962 2959 2960 2963
1718 1 2962 2959 2960 2964
1719 1 2968 2966 2967 2970
1720 1 2968 2966 2967 2971
1721 1 2969 2966 2967 2970
1722 1 2969 2966 2967 2971
1723 1 2975 2973 2974 2977
1724 1 2975 2973 2974 2978
1725 1 2976 2973 2974 2977
1726 1 2976 2973 2974 2978
1727 1 2982 2980 2981 2984
1728 1 2982 2980 2981 2985
1729 1 2983 2980 2981 2984
1730 1 2983 2980 2981 2985
1731 1 2989 2987 2988 2991
1732 1 2989 2987 2988 2992
1733 1 2990 2987 2988 2991
1734 1 2990 2987 2988 2992
1735 1 2996 2994 2995 2998
1736 1 2996 2994 2995 2999
1737 1 2997 2994 2995 2998
1738 1 2997 2994 2995 2999
1739 1 3003 3001 3002 3005
1740 1 3003 3001 3002 3006
1741 1 3004 3001 3002 3005
1742 1 3004 3001 3002 3006
1743 1 3010 3008 3009 3012
1744 1 3010 3008 3009 3013
1745 1 3011 3008 3009 3012
1746 1 3011 3008 3009 3013
1747 1 3017 3015 3016 3019
1748 1 3017 3015 3016 3020
1749 1 3018 3015 3016 3019
1750 1 3018 3015 3016 3020
1751 1 3024 3022 3023 3026
1752 1 3024 3022 3023 3027
1753 1 3025 3022 3023 3026
1754 1 3025 3022 3023 3027
1755 1 3031 3029 3030 3033
1756 1 3031 3029 3030 3034
1757 1 3032 3029 3030 3033
1758 1 3032 3029 3030 3034
1759 1 3038 3036 3037 3040
1760 1 3038 3036 3037 3041
1761 1 3039 3036 3037 3040
1762 1 3039 3036 3037 3041
1763 1 3045 3043 3044 3047
1764 1 3045 3043 3044 3048
1765 1 3046 3043 3044 3047
1766 1 3046 3043 3044 3048
1767 1 3052 3050 3051 3054
1768 1 3052 3050 3051 3055
1769 1 3053 3050 3051 3054
1770 1 3053 3050 3051 3055
1771 1 3059 3057 3058 3061
1772 1 3059 3057 3058 3062
1773 1 3060 3057 3058 3061
1774 1 3060 3057 3058 3062
1775 1 3066 3064 3065 3068
1776 1 3066 3064 3065 3069
1777 1 3067 3064 3065 3068
1778 1 3067 3064 3065 3069
1779 1 3073 3071 3072 3075
1780 1 3073 3071 3072 3076
1781 1 3074 3071 3072 3075
1782 1 3074 3071 3072 3076
1783 1 3080 3078 3079 3082
1784 1 3080 3078 3079 3083
1785 1 3081 3078 3079 3082
1786 1 3081 3078 3079 3083
1787 1 3087 3085 3086 3089
1788 1 3087 3085 3086 3090
1789 1 3088 3085 3086 3089
1790 1 3088 3085 3086 3090
1791 1 3094 3092 3093 3096
1792 1 3094 3092 3093 3097
1793 1 3095 3092 3093 3096
1794 1 3095 3092 3093 3097
1795 1 3101 3099 3100 3103
1796 1 3101 3099 3100 3104
1797 1 3102 3099 3100 3103
1798 1 3102 3099 3100 3104
1799 1 3108 3106 3107 3110
1800 1 3108 3106 3107 3111
1801 1 3109 3106 3107 3110
1802 1 3109 3106 3107 3111
1803 1 3115 3113 3114 3117
1804 1 3115 3113 3114 3118
1805 1 3116 3113 3114 3117
1806 1 3116 3113 3114 3118
1807 1 3122 3120 3121 3124
1808 1 3122 3120 3121 3125
1809 1 3123 3120 3121 3124
1810 1 3123 3120 3121 3125
1811 1 3129 3127 3128 3131
1812 1 3129 3127 3128 3132
1813 1 3130 3127 3128 3131
1814 1 3130 3127 3128 3132
1815 1 3136 3134 3135 3138
1816 1 3136 3134 3135 3139
1817 1 3137 3134 3135 3138
1818 1 3137 3134 3135 3139
1819 1 3143 3141 3142 3145
1820 1 3143 3141 3142 3146
1821 1 3144 3141 3142 3145
1822 1 3144 3141 3142 3146
1823 1 3150 3148 3149 3152
1824 1 3150 3148 3149 3153
1825 1 3151 3148 3149 3152
1826 1 3151 3148 3149 3153
1827 1 3157 3155 3156 3159
1828 1 3157 3155 3156 3160
1829 1 3158 3155 3156 3159
1830 1 3158 3155 3156 3160
1831 1 3164 3162 3163 3166
1832 1 3164 3162 3163 3167
1833 1 3164 3162 3163 3168
1834 1 3165 3162 3163 3166
1835 1 3165 3162 3163 3167
1836 1 3165 3162 3163 3168
1837 1 3172 3170 3171 3174
1838 1 3172 3170 3171 3175
1839 1 3172 3170 3171 3176
1840 1 3173 3170 3171 3174
1841 1 3173 3170 3171 3175
1842 1 3173 3170 3171 3176
1843 1 3180 3178 3179 3182
1844 1 3180 3178 3179 3183
1845 1 3181 3178 3179 3182
1846 1 3181 3178 3179 3183
1847 1 3187 3185 3186 3189
1848 1 3187 3185 3186 3190
1849 1 3188 3185 3186 3189
1850 1 3188 3185 3186 3190
1851 1 3194 3192 3193 3196
1852 1 3194 3192 3193 3197
1853 1 3195 3192 3193 3196
1854 1 3195 3192 3193 3197
1855 1 3201 3199 3200 3203
1856 1 3201 3199 3200 3204
1857 1 3202 3199 3200 3203
1858 1 3202 3199 3200 3204
1859 1 3208 3206 3207 3210
1860 1 3208 3206 3207 3211
1861 1 3209 3206 3207 3210
1862 1 3209 3206 3207 3211
1863 1 3215 3213 3214 3217
1864 1 3215 3213 3214 3218
1865 1 3216 3213 3214 3217
1866 1 3216 3213 3214 3218
1867 1 3222 3220 3221 3224
1868 1 3222 3220 3221 3225
1869 1 3223 3220 3221 3224
1870 1 3223 3220 3221 3225
1871 1 3229 3227 3228 3231
1872 1 3229 3227 3228 3232
1873 1 3230 3227 3228 3231
1874 1 3230 3227 3228 3232
1875 1 3236 3234 3235 3238
1876 1 3236 3234 3235 3239
1877 1 3237 3234 3235 3238
1878 1 3237 3234 3235 3239
1879 1 3243 3241 3242 3245
1880 1 3243 3241 3242 3246
1881 1 3244 3241 3242 3245
1882 1 3244 3241 3242 3246
1883 1 3250 3248 3249 3252
1884 1 3250 3248 3249 3253
1885 1 3251 3248 3249 3252
1886 1 3251 3248 3249 3253
1887 1 3257 3255 3256 3259
1888 1 3257 3255 3256 3260
1889 1 3258 3255 3256 3259
1890 1 3258 3255 3256 3260
1891 1 3264 3262 3263 3266
1892 1 3264 3262 3263 3267
1893 1 3265 3262 3263 3266
1894 1 3265 3262 3263 3267
1895 1 3271 3269 3270 3273
1896 1 3271 3269 3270 3274
1897 1 3272 3269 3270 3273
1898 1 3272 3269 3270 3274
1899 1 3278 3276 3277 3280
1900 1 3278 3276 3277 3281
1901 1 3279 3276 3277 3280
1902 1 3279 3276 3277 3281
1903 1 3285 3283 3284 3287
1904 1 3285 3283 3284 3288
1905 1 3286 3283 3284 3287
1906 1 3286 3283 3284 3288
1907 1 3292 3290 3291 3294
1908 1 3292 3290 3291 3295
1909 1 3293 3290 3291 3294
1910 1 3293 3290 3291 3295
1911 1 3299 3297 3298 3301
1912 1 3299 3297 3298 3302
1913 1 3300 3297 3298 3301
1914 1 3300 3297 3298 3302
1915 1 3306 3304 3305 3308
1916 1 3306 3304 3305 3309
1917 1 3307 3304 3305 3308
1918 1 3307 3304 3305 3309
1919 1 3313 3311 3312 3315
1920 1 3313 3311 3312 3316
1921 1 3314 3311 3312 3315
1922 1 3314 3311 3312 3316
1923 1 3320 3318 3319 3322
1924 1 3320 3318 3319 3323
1925 1 3321 3318 3319 3322
1926 1 3321 3318 3319 3323
1927 1 3327 3325 3326 3329
1928 1 3327 3325 3326 3330
1929 1 3328 3325 3326 3329
1930 1 3328 3325 3326 3330
1931 1 3334 3332 3333 3336
1932 1 3334 3332 3333 3337
1933 1 3335 3332 3333 3336
1934 1 3335 3332 3333 3337
1935 1 3341 3339 3340 3343
1936 1 3341 3339 3340 3344
1937 1 3342 3339 3340 3343
1938 1 3342 3339 3340 3344
1939 1 3348 3346 3347 3350
1940 1 3348 3346 3347 3351
1941 1 3349 3346 3347 3350
1942 1 3349 3346 3347 3351
1943 1 3355 3353 3354 3357
1944 1 3355 3353 3354 3358
1945 1 3356 3353 3354 3357
1946 1 3356 3353 3354 3358
1947 1 3362 3360 3361 3364
1948 1 3362 3360 3361 3365
1949 1 3363 3360 3361 3364
1950 1 3363 3360 3361 3365
1951 1 3369 3367 3368 3371
1952 1 3369 3367 3368 3372
1953 1 3370 3367 3368 3371
1954 1 3370 3367 3368 3372
1955 1 3376 3374 3375 3378
1956 1 3376 3374 3375 3379
1957 1 3377 3374 3375 3378
1958 1 3377 3374 3375 3379
1959 1 3383 3381 3382 3385
1960 1 3383 3381 3382 3386
1961 1 3384 3381 3382 3385
1962 1 3384 3381 3382 3386
1963 1 3390 3388 3389 3392
1964 1 3390 3388 3389 3393
1965 1 3391 3388 3389 3392
1966 1 3391 3388 3389 3393
1967 1 3397 3395 3396 3399
1968 1 3397 3395 3396 3400
1969 1 3398 3395 3396 3399
1970 1 3398 3395 3396 3400
1971 1 3404 3402 3403 3406
1972 1 3404 3402 3403 3407
1973 1 3405 3402 3403 3406
1974 1 3405 3402 3403 3407
1975 1 3411 3409 3410 3413
1976 1 3411 3409 3410 3414
1977 1 3412 3409 3410 3413
1978 1 3412 3409 3410 3414
1979 1 3418 3416 3417 3420
1980 1 3418 3416 3417 3421
1981 1 3419 3416 3417 3420
1982 1 3419 3416 3417 3421
1983 1 3425 3423 3424 3427
1984 1 3425 3423 3424 3428
1985 1 3426 3423 3424 3427
1986 1 3426 3423 3424 3428
1987 1 3432 3430 3431 3434
1988 1 3432 3430 3431 3435
1989 1 3433 3430 3431 3434
1990 1 3433 3430 3431 3435
1991 1 3439 3437 3438 3441
1992 1 3439 3437 3438 3442
1993 1 3440 3437 3438 3441
1994 1 3440 3437 3438 3442
1995 1 3446 3444 3445 3448
1996 1 3446 3444 3445 3449
1997 1 3447 3444 3445 3448
1998 1 3447 3444 3445 3449
1999 1 3453 3451 3452 3455
2000 1 3453 3451 3452 3456
2001 1 3454 3451 3452 3455
2002 1 3454 3451 3452 3456
2003 1 3460 3458 3459 3462
2004 1 3460 3458 3459 3463
2005 1 3461 3458 3459 3462
2006 1 3461 3458 3459 3463
2007 1 3467 3465 3466 3469
2008 1 3467 3465 3466 3470
2009 1 3468 3465 3466 3469
2010 1 3468 3465 3466 3470
2011 1 3474 3472 3473 3476
2012 1 3474 3472 3473 3477
2013 1 3475 3472 3473 3476
2014 1 3475 3472 3473 3477
2015 1 3481 3479 3480 3483
2016 1 3481 3479 3480 3484
2017 1 3482 3479 3480 3483
2018 1 3482 3479 3480 3484
2019 1 3488 3486 3487 3490
2020 1 3488 3486 3487 3491
2021 1 3489 3486 3487 3490
2022 1 3489 3486 3487 3491
2023 1 3495 3493 3494 3497
2024 1 3495 3493 3494 3498
2025 1 3496 3493 3494 3497
2026 1 3496 3493 3494 3498
2027 1 3502 3500 3501 3504
2028 1 3502 3500 3501 3505
2029 1 3503 3500 3501 3504
2030 1 3503 3500 3501 3505
2031 1 3509 3507 3508 3511
2032 1 3509 3507 3508 3512
2033 1 3510 3507 3508 3511
2034 1 3510 3507 3508 3512
2035 1 3516 3514 3515 3518
2036 1 3516 3514 3515 3519
2037 1 3516 3514 3515 3520
2038 1 3517 3514 3515 3518
2039 1 3517 3514 3515 3519
2040 1 3517 3514 3515 3520
2041 2 1 9 16 23
2042 3 2 10 11 14
2043 3 2 10 11 15
2044 4 2 10 11 17
2045 4 3 2 10 11
2046 3 3 2 10 12
2047 3 3 2 10 13
2048 3 4 2 10 11
2049 3 4 2 10 12
2050 3 4 2 10 13
2051 3 5 2 10 11
2052 3 5 2 10 12
2053 3 5 2 10 13
2054 2 9 16 23 30
2055 3 10 2 3 6
2056 3 10 2 3 7
2057 3 10 2 3 8
2058 4 10 11 17 18
2059 3 10 11 17 19
2060 3 10 11 17 20
2061 3 11 17 18 21
2062 3 11 17 18 22
2063 4 11 17 18 24
2064 3 12 10 11 17
2065 3 13 10 11 17
2066 3 14 11 17 18
2067 3 14 11 17 19
2068 3 14 11 17 20
2069 3 15 11 17 18
2070 3 15 11 17 19
2071 3 15 11 17 20
2072 2 16 23 30 37
2073 4 17 18 24 25
2074 3 17 18 24 26
2075 3 17 18 24 27
2076 3 18 24 25 28
2077 3 18 24 25 29
2078 4 18 24 25 31
2079 3 19 17 18 24
2080 3 20 17 18 24
2081 3 21 18 24 25
2082 3 21 18 24 26
2083 3 21 18 24 27
2084 3 22 18 24 25
2085 3 22 18 24 26
2086 3 22 18 24 27
2087 2 23 30 37 44
2088 4 24 25 31 32
2089 3 24 25 31 33
2090 3 24 25 31 34
2091 3 25 31 32 35
2092 3 25 31 32 36
2093 4 25 31 32 38
2094 3 26 24 25 31
2095 3 27 24 25 31
2096 3 28 25 31 32
2097 3 28 25 31 33
2098 3 28 25 31 34
2099 3 29 25 31 32
2100 3 29 25 31 33
2101 3 29 25 31 34
2102 2 30 37 44 51
2103 4 31 32 38 39
2104 3 31 32 38 40
2105 3 31 32 38 41
2106 3 32 38 39 42
2107 3 32 38 39 43
2108 4 32 38 39 45
2109 3 33 31 32 38
2110 3 34 31 32 38
2111 3 35 32 38 39
2112 3 35 32 38 40
2113 3 35 32 38 41
2114 3 36 32 38 39
2115 3 36 32 38 40
2116 3 36 32 38 41
2117 2 37 44 51 58
2118 4 38 39 45 46
2119 3 38 39 45 47
2120 3 38 39 45 48
2121 3 39 45 46 49
2122 3 39 45 46 50
2123 4 39 45 46 52
2124 3 40 38 39 45
2125 3 41 38 39 45
2126 3 42 39 45 46
2127 3 42 39 45 47
2128 3 42 39 45 48
2129 3 43 39 45 46
2130 3 43 39 45 47
2131 3 43 39 45 48
2132 2 44 51 58 65
2133 4 45 46 52 53
2134 3 45 46 52 54
2135 3 45 46 52 55
2136 3 46 52 53 56
2137 3 46 52 53 57
2138 4 46 52 53 59
2139 3 47 45 46 52
2140 3 48 45 46 52
2141 3 49 46 52 53
2142 3 49 46 52 54
2143 3 49 46 52 55
2144 3 50 46 52 53
2145 3 50 46 52 54
2146 3 50 46 52 55
2147 2 51 58 65 72
2148 4 52 53 59 60
2149 3 52 53 59 61
2150 3 52 53 59 62
2151 3 53 59 60 63
2152 3 53 59 60 64
2153 4 53 59 60 66
2154 3 54 52 53 59
2155 3 55 52 53 59
2156 3 56 53 59 60
2157 3 56 53 59 61
2158 3 56 53 59 62
2159 3 57 53 59 60
2160 3 57 53 59 61
2161 3 57 53 59 62
2162 2 58 65 72 79
2163 4 59 60 66 67
2164 3 59 60 66 68
2165 3 59 60 66 69
2166 3 60 66 67 70
2167 3 60 66 67 71
2168 4 60 66 67 73
2169 3 61 59 60 66
2170 3 62 59 60 66
2171 3 63 60 66 67
2172 3 63 60 66 68
2173 3 63 60 66 69
2174 3 64 60 66 67
2175 3 64 60 66 68
2176 3 64 60 66 69
2177 2 65 72 79 86
2178 4 66 67 73 74
2179 3 66 67 73 75
2180 3 66 67 73 76
2181 3 67 73 74 77
2182 3 67 73 74 78
2183 4 67 73 74 80
2184 3 68 66 67 73
2185 3 69 66 67 73
2186 3 70 67 73 74
2187 3 70 67 73 75
2188 3 70 67 73 76
2189 3 71 67 73 74
2190 3 71 67 73 75
2191 3 71 67 73 76
2192 2 72 79 86 93
2193 4 73 74 80 81
2194 3 73 74 80 82
2195 3 73 74 80 83
2196 3 74 80 81 84
2197 3 74 80 81 85
2198 4 74 80 81 87
2199 3 75 73 74 80
2200 3 76 73 74 80
2201 3 77 74 80 81
2202 3 77 74 80 82
2203 3 77 74 80 83
2204 3 78 74 80 81
2205 3 78 74 80 82
2206 3 78 74 80 83
2207 2 79 86 93 100
2208 4 80 81 87 88
2209 3 80 81 87 89
2210 3 80 81 87 90
2211 3 81 87 88 91
2212 3 81 87 88 92
2213 4 81 87 88 94
2214 3 82 80 81 87
2215 3 83 80 81 87
2216 3 84 81 87 88
2217 3 84 81 87 89
2218 3 84 81 87 90
2219 3 85 81 87 88
2220 3 85 81 87 89
2221 3 85 81 87 90
2222 2 86 93 100 107
2223 4 87 88 94 95
2224 3 87 88 94 96
2225 3 87 88 94 97
2226 3 88 94 95 98
2227 3 88 94 95 99
2228 4 88 94 95 101
2229 3 89 87 88 94
2230 3 90 87 88 94
2231 3 91 88 94 95
2232 3 91 88 94 96
2233 3 91 88 94 97
2234 3 92 88 94 95
2235 3 92 88 94 96
2236 3 92 88 94 97
2237 2 93 100 107 114
2238 4 94 95 101 102
2239 3 94 95 101 103
2240 3 94 95 101 104
2241 3 95 101 102 105
2242 3 95 101 102 106
2243 4 95 101 102 108
2244 3 96 94 95 101
2245 3 97 94 95 101
2246 3 98 95 101 102
2247 3 98 95 101 103
2248 3 98 95 101 104
2249 3 99 95 101 102
2250 3 99 95 101 103
2251 3 99 95 101 104
2252 2 100 107 114 121
2253 4 101 102 108 109
2254 3 101 102 108 110
2255 3 101 102 108 111
2256 3 102 108 109 112
2257 3 102 108 109 113
2258 4 102 108 109 115
2259 3 103 101 102 108
2260 3 104 101 102 108
2261 3 105 102 108 109
2262 3 105 102 108 110
2263 3 105 102 108 111
2264 3 106 102 108 109
2265 3 106 102 108 110
2266 3 106 102 108 111
2267 2 107 114 121 128
2268 4 108 109 115 116
2269 3 108 109 115 117
2270 3 108 109 115 118
2271 3 109 115 116 119
2272 3 109 115 116 120
2273 4 109 115 116 122
2274 3 110 108 109 115
2275 3 111 108 109 115
2276 3 112 109 115 116
2277 3 112 109 115 117
2278 3 112 109 115 118
2279 3 113 109 115 116
2280 3 113 109 115 117
2281 3 113 109 115 118
2282 2 114 121 128 135
2283 4 115 116 122 123
2284 3 115 116 122 124
2285 3 115 116 122 125
2286 3 116 122 123 126
2287 3 116 122 123 127
2288 4 116 122 123 129
2289 3 117 115 116 122
2290 3 118 115 116 122
2291 3 119 116 122 123
2292 3 119 116 122 124
2293 3 119 116 122 125
2294 3 120 116 122 123
2295 3 120 116 122 124
2296 3 120 116 122 125
2297 2 121 128 135 142
2298 4 122 123 129 130
2299 3 122 123 129 131
2300 3 122 123 129 132
2301 3 123 129 130 133
2302 3 123 129 130 134
2303 4 123 129 130 136
2304 3 124 122 123 129
2305 3 125 122 123 129
2306 3 126 123 129 130
2307 3 126 123 129 131
2308 3 126 123 129 132
2309 3 127 123 129 130
2310 3 127 123 129 131
2311 3 127 123 129 132
2312 2 128 135 142 149
2313 4 129 130 136 137
2314 3 129 130 136 138
2315 3 129 130 136 139
2316 3 130 136 137 140
2317 3 130 136 137 141
2318 4 130 136 137 143
2319 3 131 129 130 136
2320 3 132 129 130 136
2321 3 133 130 136 137
2322 3 133 130 136 138
2323 3 133 130 136 139
2324 3 134 130 136 137
2325 3 134 130 136 138
2326 3 134 130 136 139
2327 2 135 142 149 156
2328 4 136 137 143 144
2329 3 136 137 143 145
2330 3 136 137 143 146
2331 3 137 143 144 147
2332 3 137 143 144 148
2333 4 137 143 144 150
2334 3 138 136 137 143
2335 3 139 136 137 143
2336 3 140 137 143 144
2337 3 140 137 143 145
2338 3 140 137 143 146
2339 3 141 137 143 144
2340 3 141 137 143 145
2341 3 141 137 143 146
2342 2 142 149 156 163
2343 4 143 144 150 151
2344 3 143 144 150 152
2345 3 143 144 150 153
2346 3 144 150 151 154
2347 3 144 150 151 155
2348 4 144 150 151 157
2349 3 145 143 144 150
2350 3 146 143 144 150
2351 3 147 144 150 151
2352 3 147 144 150 152
2353 3 147 144 150 153
2354 3 148 144 150 151
2355 3 148 144 150 152
2356 3 148 144 150 153
2357 2 149 156 163 170
2358 4 150 151 157 158
2359 3 150 151 157 159
2360 3 150 151 157 160
2361 3 151 157 158 161
2362 3 151 157 158 162
2363 4 151 157 158 164
2364 3 152 150 151 157
2365 3 153 150 151 157
2366 3 154 151 157 158
2367 3 154 151 157 159
2368 3 154 151 157 160
2369 3 155 151 157 158
2370 3 155 151 157 159
2371 3 155 151 157 160
2372 2 156 163 170 177
2373 4 157 158 164 165
2374 3 157 158 164 166
2375 3 157 158 164 167
2376 3 158 164 165 168
2377 3 158 164 165 169
2378 4 158 164 165 171
2379 3 159 157 158 164
2380 3 160 157 158 164
2381 3 161 158 164 165
2382 3 161 158 164 166
2383 3 161 158 164 167
2384 3 162 158 164 165
2385 3 162 158 164 166
2386 3 162 158 164 167
2387 2 163 170 177 184
2388 4 164 165 171 172
2389 3 164 165 171 173
2390 3 164 165 171 174
2391 3 165 171 172 175
2392 3 165 171 172 176
2393 4 165 171 172 178
2394 3 166 164 165 171
2395 3 167 164 165 171
2396 3 168 165 171 172
2397 3 168 165 171 173
2398 3 168 165 171 174
2399 3 169 165 171 172
2400 3 169 165 171 173
2401 3 169 165 171 174
2402 2 170 177 184 191
2403 4 171 172 178 179
2404 3 171 172 178 180
2405 3 171 172 178 181
2406 3 172 178 179 182
2407 3 172 178 179 183
2408 4 172 178 179 185
2409 3 173 171 172 178
2410 3 174 171 172 178
2411 3 175 172 178 179
2412 3 175 172 178 180
2413 3 175 172 178 181
2414 3 176 172 178 179
2415 3 176 172 178 180
2416 3 176 172 178 181
2417 2 177 184 191 198
2418 4 178 179 185 186
2419 3 178 179 185 187
2420 3 178 179 185 188
2421 3 179 185 186 189
2422 3 179 185 186 190
2423 4 179 185 186 192
2424 3 180 178 179 185
2425 3 181 178 179 185
2426 3 182 179 185 186
2427 3 182 179 185 187
2428 3 182 179 185 188
2429 3 183 179 185 186
2430 3 183 179 185 187
2431 3 183 179 185 188
2432 2 184 191 198 205
2433 4 185 186 192 193
2434 3 185 186 192 194
2435 3 185 186 192 195
2436 3 186 192 193 196
2437 3 186 192 193 197
2438 4 186 192 193 199
2439 3 187 185 186 192
2440 3 188 185 186 192
2441 3 189 186 192 193
2442 3 189 186 192 194
2443 3 189 186 192 195
2444 3 190 186 192 193
2445 3 190 186 192 194
2446 3 190 186 192 195
2447 2 191 198 205 212
2448 4 192 193 199 200
2449 3 192 193 199 201
2450 3 192 193 199 202
2451 3 193 199 200 203
2452 3 193 199 200 204
2453 4 193 199 200 206
2454 3 194 192 193 199
2455 3 195 192 193 199
2456 3 196 193 199 200
2457 3 196 193 199 201
2458 3 196 193 199 202
2459 3 197 193 199 200
2460 3 197 193 199 201
2461 3 197 193 199 202
2462 2 198 205 212 219
2463 4 199 200 206 207
2464 3 199 200 206 208
2465 3 199 200 206 209
2466 3 200 206 207 210
2467 3 200 206 207 211
2468 4 200 206 207 213
2469 3 201 199 200 206
2470 3 202 199 200 206
2471 3 203 200 206 207
2472 3 203 200 206 208
2473 3 203 200 206 209
2474 3 204 200 206 207
2475 3 204 200 206 208
2476 3 204 200 206 209
2477 2 205 212 219 226
2478 4 206 207 213 214
2479 3 206 207 213 215
2480 3 206 207 213 216
2481 3 207 213 214 217
2482 3 207 213 214 218
2483 4 207 213 214 220
2484 3 208 206 207 213
2485 3 209 206 207 213
2486 3 210 207 213 214
2487 3 210 207 213 215
2488 3 210 207 213 216
2489 3 211 207 213 214
2490 3 211 207 213 215
2491 3 211 207 213 216
2492 2 212 219 226 233
2493 4 213 214 220 221
2494 3 213 214 220 222
2495 3 213 214 220 223
2496 3 214 220 221 224
2497 3 214 220 221 225
2498 4 214 220 221 227
2499 3 215 213 214 220
2500 3 216 213 214 220
2501 3 217 214 220 221
2502 3 217 214 220 222
2503 3 217 214 220 223
2504 3 218 214 220 221
2505 3 218 214 220 222
2506 3 218 214 220 223
2507 2 219 226 233 240
2508 4 220 221 227 228
2509 3 220 221 227 229
2510 3 220 221 227 230
2511 3 221 227 228 231
2512 3 221 227 228 232
2513 4 221 227 228 234
2514 3 222 220 221 227
2515 3 223 220 221 227
2516 3 224 221 227 228
2517 3 224 221 227 229
2518 3 224 221 227 230
2519 3 225 221 227 228
2520 3 225 221 227 229
2521 3 225 221 227 230
2522 2 226 233 240 247
2523 4 227 228 234 235
2524 3 227 228 234 236
2525 3 227 228 234 237
2526 3 228 234 235 238
2527 3 228 234 235 239
2528 4 228 234 235 241
2529 3 229 227 228 234
2530 3 230 227 228 234
2531 3 231 228 234 235
2532 3 231 228 234 236
2533 3 231 228 234 237
2534 3 232 228 234 235
2535 3 232 228 234 236
2536 3 232 228 234 237
2537 2 233 240 247 254
2538 4 234 235 241 242
2539 3 234 235 241 243
2540 3 234 235 241 244
2541 3 235 241 242 245
2542 3 235 241 242 246
2543 4 235 241 242 248
2544 3 236 234 235 241
2545 3 237 234 235 241
2546 3 238 235 241 242
2547 3 238 235 241 243
2548 3 238 235 241 244
2549 3 239 235 241 242
2550 3 239 235 241 243
2551 3 239 235 241 244
2552 2 240 247 254 261
2553 4 241 242 248 249
2554 3 241 242 248 250
2555 3 241 242 248 251
2556 3 242 248 249 252
2557 3 242 248 249 253
2558 4 242 248 249 255
2559 3 243 241 242 248
2560 3 244 241 242 248
2561 3 245 242 248 249
2562 3 245 242 248 250
2563 3 245 242 248 251
2564 3 246 242 248 249
2565 3 246 242 248 250
2566 3 246 242 248 251
2567 2 247 254 261 268
2568 4 248 249 255 256
2569 3 248 249 255 257
2570 3 248 249 255 258
2571 3 249 255 256 259
2572 3 249 255 256 260
2573 4 249 255 256 262
2574 3 250 248 249 255
2575 3 251 248 249 255
2576 3 252 249 255 256
2577 3 252 249 255 257
2578 3 252 249 255 258
2579 3 253 249 255 256
2580 3 253 249 255 257
2581 3 253 249 255 258
2582 2 254 261 268 275
2583 4 255 256 262 263
2584 3 255 256 262 264
2585 3 255 256 262 265
2586 3 256 262 263 266
2587 3 256 262 263 267
2588 4 256 262 263 269
2589 3 257 255 256 262
2590 3 258 255 256 262
2591 3 259 256 262 263
2592 3 259 256 262 264
2593 3 259 256 262 265
2594 3 260 256 262 263
2595 3 260 256 262 264
2596 3 260 256 262 265
2597 2 261 268 275 282
2598 4 262 263 269 270
2599 3 262 263 269 271
2600 3 262 263 269 272
2601 3 263 269 270 273
2602 3 263 269 270 274
2603 4 263 269 270 276
2604 3 264 262 263 269
2605 3 265 262 263 269
2606 3 266 263 269 270
2607 3 266 263 269 271
2608 3 266 263 269 272
2609 3 267 263 269 270
2610 3 267 263 269 271
2611 3 267 263 269 272
2612 2 268 275 282 289
2613 4 269 270 276 277
2614 3 269 270 276 278
2615 3 269 270 276 279
2616 3 270 276 277 280
2617 3 270 276 277 281
2618 4 270 276 277 283
2619 3 271 269 270 276
2620 3 272 269 270 276
2621 3 273 270 276 277
2622 3 273 270 276 278
2623 3 273 270 276 279
2624 3 274 270 276 277
2625 3 274 270 276 278
2626 3 274 270 276 279
2627 2 275 282 289 296
2628 4 276 277 283 284
2629 3 276 277 283 285
2630 3 276 277 283 286
2631 3 277 283 284 287
2632 3 277 283 284 288
2633 4 277 283 284 290
2634 3 278 276 277 283
2635 3 279 276 277 283
2636 3 280 277 283 284
2637 3 280 277 283 285
2638 3 280 277 283 286
2639 3 281 277 283 284
2640 3 281 277 283 285
2641 3 281 277 283 286
2642 2 282 289 296 303
2643 4 283 284 290 291
2644 3 283 284 290 292
2645 3 283 284 290 293
2646 3 284 290 291 294
2647 3 284 290 291 295
2648 4 284 290 291 297
2649 3 285 283 284 290
2650 3 286 283 284 290
2651 3 287 284 290 291
2652 3 287 284 290 292
2653 3 287 284 290 293
2654 3 288 284 290 291
2655 3 288 284 290 292
2656 3 288 284 290 293
2657 2 289 296 303 310
2658 4 290 291 297 298
2659 3 290 291 297 299
2660 3 290 291 297 300
2661 3 291 297 298 301
2662 3 291 297 298 302
2663 4 291 297 298 304
2664 3 292 290 291 297
2665 3 293 290 291 297
2666 3 294 291 297 298
2667 3 294 291 297 299
2668 3 294 291 297 300
2669 3 295 291 297 298
2670 3 295 291 297 299
2671 3 295 291 297 300
2672 2 296 303 310 317
2673 4 297 298 304 305
2674 3 297 298 304 306
2675 3 297 298 304 307
2676 3 298 304 305 308
2677 3 298 304 305 309
2678 4 298 304 305 311
2679 3 299 297 298 304
2680 3 300 297 298 304
2681 3 301 298 304 305
2682 3 301 298 304 306
2683 3 301 298 304 307
2684 3 302 298 304 305
2685 3 302 298 304 306
2686 3 302 298 304 307
2687 2 303 310 317 324
2688 4 304 305 311 312
2689 3 304 305 311 313
2690 3 304 305 311 314
2691 3 305 311 312 315
2692 3 305 311 312 316
2693 4 305 311 312 318
2694 3 306 304 305 311
2695 3 307 304 305 311
2696 3 308 305 311 312
2697 3 308 305 311 313
2698 3 308 305 311 314
2699 3 309 305 311 312
2700 3 309 305 311 313
2701 3 309 305 311 314
2702 2 310 317 324 331
2703 4 311 312 318 319
2704 3 311 312 318 320
2705 3 311 312 318 321
2706 3 312 318 319 322
2707 3 312 318 319 323
2708 4 312 318 319 325
2709 3 313 311 312 318
2710 3 314 311 312 318
2711 3 315 312 318 319
2712 3 315 312 318 320
2713 3 315 312 318 321
2714 3 316 312 318 319
2715 3 316 312 318 320
2716 3 316 312 318 321
2717 2 317 324 331 338
2718 4 318 319 325 326
2719 3 318 319 325 327
2720 3 318 319 325 328
2721 3 319 325 326 329
2722 3 319 325 326 330
2723 4 319 325 326 332
2724 3 320 318 319 325
2725 3 321 318 319 325
2726 3 322 319 325 326
2727 3 322 319 325 327
2728 3 322 319 325 328
2729 3 323 319 325 326
2730 3 323 319 325 327
2731 3 323 319 325 328
2732 2 324 331 338 345
2733 4 325 326 332 333
2734 3 325 326 332 334
2735 3 325 326 332 335
2736 3 326 332 333 336
2737 3 326 332 333 337
2738 4 326 332 333 339
2739 3 327 325 326 332
2740 3 328 325 326 332
2741 3 329 326 332 333
2742 3 329 326 332 334
2743 3 329 326 332 335
2744 3 330 326 332 333
2745 3 330 326 332 334
2746 3 330 326 332 335
2747 4 332 333 339 340
2748 3 332 333 339 341
2749 3 332 333 339 342
2750 3 333 339 340 343
2751 3 333 339 340 344
2752 4 333 339 340 346
2753 3 334 332 333 339
2754 3 335 332 333 339
2755 3 336 333 339 340
2756 3 336 333 339 341
2757 3 336 333 339 342
2758 3 337 333 339 340
2759 3 337 333 339 341
2760 3 337 333 339 342
2761 4 339 340 346 347
2762 3 339 340 346 348
2763 3 339 340 346 349
2764 3 340 346 347 350
2765 3 340 346 347 351
2766 3 340 346 347 352
2767 3 341 339 340 346
2768 3 342 339 340 346
2769 3 343 340 346 347
2770 3 343 340 346 348
2771 3 343 340 346 349
2772 3 344 340 346 347
2773 3 344 340 346 348
2774 3 344 340 346 349
2775 2 353 361 368 375
2776 3 354 362 363 366
2777 3 354 362 363 367
2778 4 354 362 363 369
2779 4 355 354 362 363
2780 3 355 354 362 364
2781 3 355 354 362 365
2782 3 356 354 362 363
2783 3 356 354 362 364
2784 3 356 354 362 365
2785 3 357 354 362 363
2786 3 357 354 362 364
2787 3 357 354 362 365
2788 2 361 368 375 382
2789 3 362 354 355 358
2790 3 362 354 355 359
2791 3 362 354 355 360
2792 4 362 363 369 370
2793 3 362 363 369 371
2794 3 362 363 369 372
2795 3 363 369 370 373
2796 3 363 369 370 374
2797 4 363 369 370 376
2798 3 364 362 363 369
2799 3 365 362 363 369
2800 3 366 363 369 370
2801 3 366 363 369 371
2802 3 366 363 369 372
2803 3 367 363 369 370
2804 3 367 363 369 371
2805 3 367 363 369 372
2806 2 368 375 382 389
2807 4 369 370 376 377
2808 3 369 370 376 378
2809 3 369 370 376 379
2810 3 370 376 377 380
2811 3 370 376 377 381
2812 4 370 376 377 383
2813 3 371 369 370 376
2814 3 372 369 370 376
2815 3 373 370 376 377
2816 3 373 370 376 378
2817 3 373 370 376 379
2818 3 374 370 376 377
2819 3 374 370 376 378
2820 3 374 370 376 379
2821 2 375 382 389 396
2822 4 376 377 383 384
2823 3 376 377 383 385
2824 3 376 377 383 386
2825 3 377 383 384 387
2826 3 377 383 384 388
2827 4 377 383 384 390
2828 3 378 376 377 383
2829 3 379 376 377 383
2830 3 380 377 383 384
2831 3 380 377 383 385
2832 3 380 377 383 386
2833 3 381 377 383 384
2834 3 381 377 383 385
2835 3 381 377 383 386
2836 2 382 389 396 403
2837 4 383 384 390 391
2838 3 383 384 390 392
2839 3 383 384 390 393
2840 3 384 390 391 394
2841 3 384 390 391 395
2842 4 384 390 391 397
2843 3 385 383 384 390
2844 3 386 383 384 390
2845 3 387 384 390 391
2846 3 387 384 390 392
2847 3 387 384 390 393
2848 3 388 384 390 391
2849 3 388 384 390 392
2850 3 388 384 390 393
2851 2 389 396 403 410
2852 4 390 391 397 398
2853 3 390 391 397 399
2854 3 390 391 397 400
2855 3 391 397 398 401
2856 3 391 397 398 402
2857 4 391 397 398 404
2858 3 392 390 391 397
2859 3 393 390 391 397
2860 3 394 391 397 398
2861 3 394 391 397 399
2862 3 394 391 397 400
2863 3 395 391 397 398
2864 3 395 391 397 399
2865 3 395 391 397 400
2866 2 396 403 410 417
2867 4 397 398 404 405
2868 3 397 398 404 406
2869 3 397 398 404 407
2870 3 398 404 405 408
2871 3 398 404 405 409
2872 4 398 404 405 411
2873 3 399 397 398 404
2874 3 400 397 398 404
2875 3 401 398 404 405
2876 3 401 398 404 406
2877 3 401 398 404 407
2878 3 402 398 404 405
2879 3 402 398 404 406
2880 3 402 398 404 407
2881 2 403 410 417 424
2882 4 404 405 411 412
2883 3 404 405 411 413
2884 3 404 405 411 414
2885 3 405 411 412 415
2886 3 405 411 412 416
2887 4 405 411 412 418
2888 3 406 404 405 411
2889 3 407 404 405 411
2890 3 408 405 411 412
2891 3 408 405 411 413
2892 3 408 405 411 414
2893 3 409 405 411 412
2894 3 409 405 411 413
2895 3 409 405 411 414
2896 2 410 417 424 431
2897 4 411 412 418 419
2898 3 411 412 418 420
2899 3 411 412 418 421
2900 3 412 418 419 422
2901 3 412 418 419 423
2902 4 412 418 419 425
2903 3 413 411 412 418
2904 3 414 411 412 418
2905 3 415 412 418 419
2906 3 415 412 418 420
2907 3 415 412 418 421
2908 3 416 412 418 419
2909 3 416 412 418 420
2910 3 416 412 418 421
2911 2 417 424 431 438
2912 4 418 419 425 426
2913 3 418 419 425 427
2914 3 418 419 425 428
2915 3 419 425 426 429
2916 3 419 425 426 430
2917 4 419 425 426 432
2918 3 420 418 419 425
2919 3 421 418 419 425
2920 3 422 419 425 426
2921 3 422 419 425 427
2922 3 422 419 425 428
2923 3 423 419 425 426
2924 3 423 419 425 427
2925 3 423 419 425 428
2926 2 424 431 438 445
2927 4 425 426 432 433
2928 3 425 426 432 434
2929 3 425 426 432 435
2930 3 426 432 433 436
2931 3 426 432 433 437
2932 4 426 432 433 439
2933 3 427 425 426 432
2934 3 428 425 426 432
2935 3 429 426 432 433
2936 3 429 426 432 434
2937 3 429 426 432 435
2938 3 430 426 432 433
2939 3 430 426 432 434
2940 3 430 426 432 435
2941 2 431 438 445 452
2942 4 432 433 439 440
2943 3 432 433 439 441
2944 3 432 433 439 442
2945 3 433 439 440 443
2946 3 433 439 440 444
2947 4 433 439 440 446
2948 3 434 432 433 439
2949 3 435 432 433 439
2950 3 436 433 439 440
2951 3 436 433 439 441
2952 3 436 433 439 442
2953 3 437 433 439 440
2954 3 437 433 439 441
2955 3 437 433 439 442
2956 2 438 445 452 459
2957 4 439 440 446 447
2958 3 439 440 446 448
2959 3 439 440 446 449
2960 3 440 446 447 450
2961 3 440 446 447 451
2962 4 440 446 447 453
2963 3 441 439 440 446
2964 3 442 439 440 446
2965 3 443 440 446 447
2966 3 443 440 446 448
2967 3 443 440 446 449
2968 3 444 440 446 447
2969 3 444 440 446 448
2970 3 444 440 446 449
2971 2 445 452 459 466
2972 4 446 447 453 454
2973 3 446 447 453 455
2974 3 446 447 453 456
2975 3 447 453 454 457
2976 3 447 453 454 458
2977 4 447 453 454 460
2978 3 448 446 447 453
2979 3 449 446 447 453
2980 3 450 447 453 454
2981 3 450 447 453 455
2982 3 450 447 453 456
2983 3 451 447 453 454
2984 3 451 447 453 455
2985 3 451 447 453 456
2986 2 452 459 466 473
2987 4 453 454 460 461
2988 3 453 454 460 462
2989 3 453 454 460 463
2990 3 454 460 461 464
2991 3 454 460 461 465
2992 4 454 460 461 467
2993 3 455 453 454 460
2994 3 456 453 454 460
2995 3 457 454 460 461
2996 3 457 454 460 462
2997 3 457 454 460 463
2998 3 458 454 460 461
2999 3 458 454 460 462
3000 3 458 454 460 463
3001 2 459 466 473 480
3002 4 460 461 467 468
3003 3 460 461 467 469
3004 3 460 461 467 470
3005 3 461 467 468 471
3006 3 461 467 468 472
3007 4 461 467 468 474
3008 3 462 460 461 467
3009 3 463 460 461 467
3010 3 464 461 467 468
3011 3 464 461 467 469
3012 3 464 461 467 470
3013 3 465 461 467 468
3014 3 465 461 467 469
3015 3 465 461 467 470
3016 2 466 473 480 487
3017 4 467 468 474 475
3018 3 467 468 474 476
3019 3 467 468 474 477
3020 3 468 474 475 478
3021 3 468 474 475 479
3022 4 468 474 475 481
3023 3 469 467 468 474
3024 3 470 467 468 474
3025 3 471 468 474 475
3026 3 471 468 474 476
3027 3 471 468 474 477
3028 3 472 468 474 475
3029 3 472 468 474 476
3030 3 472 468 474 477
3031 2 473 480 487 494
3032 4 474 475 481 482
3033 3 474 475 481 483
3034 3 474 475 481 484
3035 3 475 481 482 485
3036 3 475 481 482 486
3037 4 475 481 482 488
3038 3 476 474 475 481
3039 3 477 474 475 481
3040 3 478 475 481 482
3041 3 478 475 481 483
3042 3 478 475 481 484
3043 3 479 475 481 482
3044 3 479 475 481 483
3045 3 479 475 481 484
3046 2 480 487 494 501
3047 4 481 482 488 489
3048 3 481 482 488 490
3049 3 481 482 488 491
3050 3 482 488 489 492
3051 3 482 488 489 493
3052 4 482 488 489 495
3053 3 483 481 482 488
3054 3 484 481 482 488
3055 3 485 482 488 489
3056 3 485 482 488 490
3057 3 485 482 488 491
3058 3 486 482 488 489
3059 3 486 482 488 490
3060 3 486 482 488 491
3061 2 487 494 501 508
3062 4 488 489 495 496
3063 3 488 489 495 497
3064 3 488 489 495 498
3065 3 489 495 496 499
3066 3 489 495 496 500
3067 4 489 495 496 502
3068 3 490 488 489 495
3069 3 491 488 489 495
3070 3 492 489 495 496
3071 3 492 489 495 497
3072 3 492 489 495 498
3073 3 493 489 495 496
3074 3 493 489 495 497
3075 3 493 489 495 498
3076 2 494 501 508 515
3077 4 495 496 502 503
3078 3 495 496 502 504
3079 3 495 496 502 505
3080 3 496 502 503 506
3081 3 496 502 503 507
3082 4 496 502 503 509
3083 3 497 495 496 502
3084 3 498 495 496 502
3085 3 499 496 502 503
3086 3 499 496 502 504
3087 3 499 496 502 505
3088 3 500 496 502 503
3089 3 500 496 502 504
3090 3 500 496 502 505
3091 2 501 508 515 522
3092 4 502 503 509 510
3093 3 502 503 509 511
3094 3 502 503 509 512
3095 3 503 509 510 513
3096 3 503 509 510 514
3097 4 503 509 510 516
3098 3 504 502 503 509
3099 3 505 502 503 509
3100 3 506 503 509 510
3101 3 506 503 509 511
3102 3 506 503 509 512
3103 3 507 503 509 510
3104 3 507 503 509 511
3105 3 507 503 509 512
3106 2 508 515 522 529
3107 4 509 510 516 517
3108 3 509 510 516 518
3109 3 509 510 516 519
3110 3 510 516 517 520
3111 3 510 516 517 521
3112 4 510 516 517 523
3113 3 511 509 510 516
3114 3 512 509 510 516
3115 3 513 510 516 517
3116 3 513 510 516 518
3117 3 513 510 516 519
3118 3 514 510 516 517
3119 3 514 510 516 518
3120 3 514 510 516 519
3121 2 515 522 529 536
3122 4 516 517 523 524
3123 3 516 517 523 525
3124 3 516 517 523 526
3125 3 517 523 524 527
3126 3 517 523 524 528
3127 4 517 523 524 530
3128 3 518 516 517 523
3129 3 519 516 517 523
3130 3 520 517 523 524
3131 3 520 517 523 525
3132 3 520 517 523 526
3133 3 521 517 523 524
3134 3 521 517 523 525
3135 3 521 517 523 526
3136 2 522 529 536 543
3137 4 523 524 530 531
3138 3 523 524 530 532
3139 3 523 524 530 533
3140 3 524 530 531 534
3141 3 524 530 531 535
3142 4 524 530 531 537
3143 3 525 523 524 530
3144 3 526 523 524 530
3145 3 527 524 530 531
3146 3 527 524 530 532
3147 3 527 524 530 533
3148 3 528 524 530 531
3149 3 528 524 530 532
3150 3 528 524 530 533
3151 2 529 536 543 550
3152 4 530 531 537 538
3153 3 530 531 537 539
3154 3 530 531 537 540
3155 3 531 537 538 541
3156 3 531 537 538 542
3157 4 531 537 538 544
3158 3 532 530 531 537
3159 3 533 530 531 537
3160 3 534 531 537 538
3161 3 534 531 537 539
3162 3 534 531 537 540
3163 3 535 531 537 538
3164 3 535 531 537 539
3165 3 535 531 537 540
3166 2 536 543 550 557
3167 4 537 538 544 545
3168 3 537 538 544 546
3169 3 537 538 544 547
3170 3 538 544 545 548
3171 3 538 544 545 549
3172 4 538 544 545 551
3173 3 539 537 538 544
3174 3 540 537 538 544
3175 3 541 538 544 545
3176 3 541 538 544 546
3177 3 541 538 544 547
3178 3 542 538 544 545
3179 3 542 538 544 546
3180 3 542 538 544 547
3181 2 543 550 557 564
3182 4 544 545 551 552
3183 3 544 545 551 553
3184 3 544 545 551 554
3185 3 545 551 552 555
3186 3 545 551 552 556
3187 4 545 551 552 558
3188 3 546 544 545 551
3189 3 547 544 545 551
3190 3 548 545 551 552
3191 3 548 545 551 553
3192 3 548 545 551 554
3193 3 549 545 551 552
3194 3 549 545 551 553
3195 3 549 545 551 554
3196 2 550 557 564 571
3197 4 551 552 558 559
3198 3 551 552 558 560
3199 3 551 552 558 561
3200 3 552 558 559 562
3201 3 552 558 559 563
3202 4 552 558 559 565
3203 3 553 551 552 558
3204 3 554 551 552 558
3205 3 555 552 558 559
3206 3 555 552 558 560
3207 3 555 552 558 561
3208 3 556 552 558 559
3209 3 556 552 558 560
3210 3 556 552 558 561
3211 2 557 564 571 578
3212 4 558 559 565 566
3213 3 558 559 565 567
3214 3 558 559 565 568
3215 3 559 565 566 569
3216 3 559 565 566 570
3217 4 559 565 566 572
3218 3 560 558 559 565
3219 3 561 558 559 565
3220 3 562 559 565 566
3221 3 562 559 565 567
3222 3 562 559 565 568
3223 3 563 559 565 566
3224 3 563 559 565 567
3225 3 563 559 565 568
3226 2 564 571 578 585
3227 4 565 566 572 573
3228 3 565 566 572 574
3229 3 565 566 572 575
3230 3 566 572 573 576
3231 3 566 572 573 577
3232 4 566 572 573 579
3233 3 567 565 566 572
3234 3 568 565 566 572
3235 3 569 566 572 573
3236 3 569 566 572 574
3237 3 569 566 572 575
3238 3 570 566 572 573
3239 3 570 566 572 574
3240 3 570 566 572 575
3241 2 571 578 585 592
3242 4 572 573 579 580
3243 3 572 573 579 581
3244 3 572 573 579 582
3245 3 573 579 580 583
3246 3 573 579 580 584
3247 4 573 579 580 586
3248 3 574 572 573 579
3249 3 575 572 573 579
3250 3 576 573 579 580
3251 3 576 573 579 581
3252 3 576 573 579 582
3253 3 577 573 579 580
3254 3 577 573 579 581
3255 3 577 573 579 582
3256 2 578 585 592 599
3257 4 579 580 586 587
3258 3 579 580 586 588
3259 3 579 580 586 589
3260 3 580 586 587 590
3261 3 580 586 587 591
3262 4 580 586 587 593
3263 3 581 579 580 586
3264 3 582 579 580 586
3265 3 583 580 586 587
3266 3 583 580 586 588
3267 3 583 580 586 589
3268 3 584 580 586 587
3269 3 584 580 586 588
3270 3 584 580 586 589
3271 2 585 592 599 606
3272 4 586 587 593 594
3273 3 586 587 593 595
3274 3 586 587 593 596
3275 3 587 593 594 597
3276 3 587 593 594 598
3277 4 587 593 594 600
3278 3 588 586 587 593
3279 3 589 586 587 593
3280 3 590 587 593 594
3281 3 590 587 593 595
3282 3 590 587 593 596
3283 3 591 587 593 594
3284 3 591 587 593 595
3285 3 591 587 593 596
3286 2 592 599 606 613
3287 4 593 594 600 601
3288 3 593 594 600 602
3289 3 593 594 600 603
3290 3 594 600 601 604
3291 3 594 600 601 605
3292 4 594 600 601 607
3293 3 595 593 594 600
3294 3 596 593 594 600
3295 3 597 594 600 601
3296 3 597 594 600 602
3297 3 597 594 600 603
3298 3 598 594 600 601
3299 3 598 594 600 602
3300 3 598 594 600 603
3301 2 599 606 613 620
3302 4 600 601 607 608
3303 3 600 601 607 609
3304 3 600 601 607 610
3305 3 601 607 608 611
3306 3 601 607 608 612
3307 4 601 607 608 614
3308 3 602 600 601 607
3309 3 603 600 601 607
3310 3 604 601 607 608
3311 3 604 601 607 609
3312 3 604 601 607 610
3313 3 605 601 607 608
3314 3 605 601 607 609
3315 3 605 601 607 610
3316 2 606 613 620 627
3317 4 607 608 614 615
3318 3 607 608 614 616
3319 3 607 608 614 617
3320 3 608 614 615 618
3321 3 608 614 615 619
3322 4 608 614 615 621
3323 3 609 607 608 614
3324 3 610 607 608 614
3325 3 611 608 614 615
3326 3 611 608 614 616
3327 3 611 608 614 617
3328 3 612 608 614 615
3329 3 612 608 614 616
3330 3 612 608 614 617
3331 2 613 620 627 634
3332 4 614 615 621 622
3333 3 614 615 621 623
3334 3 614 615 621 624
3335 3 615 621 622 625
3336 3 615 621 622 626
3337 4 615 621 622 628
3338 3 616 614 615 621
3339 3 617 614 615 621
3340 3 618 615 621 622
3341 3 618 615 621 623
3342 3 618 615 621 624
3343 3 619 615 621 622
3344 3 619 615 621 623
3345 3 619 615 621 624
3346 2 620 627 634 641
3347 4 621 622 628 629
3348 3 621 622 628 630
3349 3 621 622 628 631
3350 3 622 628 629 632
3351 3 622 628 629 633
3352 4 622 628 629 635
3353 3 623 621 622 628
3354 3 624 621 622 628
3355 3 625 622 628 629
3356 3 625 622 628 630
3357 3 625 622 628 631
3358 3 626 622 628 629
3359 3 626 622 628 630
3360 3 626 622 628 631
3361 2 627 634 641 648
3362 4 628 629 635 636
3363 3 628 629 635 637
3364 3 628 629 635 638
3365 3 629 635 636 639
3366 3 629 635 636 640
3367 4 629 635 636 642
3368 3 630 628 629 635
3369 3 631 628 629 635
3370 3 632 629 635 636
3371 3 632 629 635 637
3372 3 632 629 635 638
3373 3 633 629 635 636
3374 3 633 629 635 637
3375 3 633 629 635 638
3376 2 634 641 648 655
3377 4 635 636 642 643
3378 3 635 636 642 644
3379 3 635 636 642 645
3380 3 636 642 643 646
3381 3 636 642 643 647
3382 4 636 642 643 649
3383 3 637 635 636 642
3384 3 638 635 636 642
3385 3 639 636 642 643
3386 3 639 636 642 644
3387 3 639 636 642 645
3388 3 640 636 642 643
3389 3 640 636 642 644
3390 3 640 636 642 645
3391 2 641 648 655 662
3392 4 642 643 649 650
3393 3 642 643 649 651
3394 3 642 643 649 652
3395 3 643 649 650 653
3396 3 643 649 650 654
3397 4 643 649 650 656
3398 3 644 642 643 649
3399 3 645 642 643 649
3400 3 646 643 649 650
3401 3 646 643 649 651
3402 3 646 643 649 652
3403 3 647 643 649 650
3404 3 647 643 649 651
3405 3 647 643 649 652
3406 2 648 655 662 669
3407 4 649 650 656 657
3408 3 649 650 656 658
3409 3 649 650 656 659
3410 3 650 656 657 660
3411 3 650 656 657 661
3412 4 650 656 657 663
3413 3 651 649 650 656
3414 3 652 649 650 656
3415 3 653 650 656 657
3416 3 653 650 656 658
3417 3 653 650 656 659
3418 3 654 650 656 657
3419 3 654 650 656 658
3420 3 654 650 656 659
3421 2 655 662 669 676
3422 4 656 657 663 664
3423 3 656 657 663 665
3424 3 656 657 663 666
3425 3 657 663 664 667
3426 3 657 663 664 668
3427 4 657 663 664 670
3428 3 658 656 657 663
3429 3 659 656 657 663
3430 3 660 657 663 664
3431 3 660 657 663 665
3432 3 660 657 663 666
3433 3 661 657 663 664
3434 3 661 657 663 665
3435 3 661 657 663 666
3436 2 662 669 676 683
3437 4 663 664 670 671
3438 3 663 664 670 672
3439 3 663 664 670 673
3440 3 664 670 671 674
3441 3 664 670 671 675
3442 4 664 670 671 677
3443 3 665 663 664 670
3444 3 666 663 664 670
3445 3 667 664 670 671
3446 3 667 664 670 672
3447 3 667 664 670 673
3448 3 668 664 670 671
3449 3 668 664 670 672
3450 3 668 664 670 673
3451 2 669 676 683 690
3452 4 670 671 677 678
3453 3 670 671 677 679
3454 3 670 671 677 680
3455 3 671 677 678 681
3456 3 671 677 678 682
3457 4 671 677 678 684
3458 3 672 670 671 677
3459 3 673 670 671 677
3460 3 674 671 677 678
3461 3 674 671 677 679
3462 3 674 671 677 680
3463 3 675 671 677 678
3464 3 675 671 677 679
3465 3 675 671 677 680
3466 2 676 683 690 697
3467 4 677 678 684 685
3468 3 677 678 684 686
3469 3 677 678 684 687
3470 3 678 684 685 688
3471 3 678 684 685 689
3472 4 678 684 685 691
3473 3 679 677 678 684
3474 3 680 677 678 684
3475 3 681 678 684 685
3476 3 681 678 684 686
3477 3 681 678 684 687
3478 3 682 678 684 685
3479 3 682 678 684 686
3480 3 682 678 684 687
3481 4 684 685 691 692
3482 3 684 685 691 693
3483 3 684 685 691 694
3484 3 685 691 692 695
3485 3 685 691 692 696
3486 4 685 691 692 698
3487 3 686 684 685 691
3488 3 687 684 685 691
3489 3 688 685 691 692
3490 3 688 685 691 693
3491 3 688 685 691 694
3492 3 689 685 691 692
3493 3 689 685 691 693
3494 3 689 685 691 694
3495 4 691 692 698 699
3496 3 691 692 698 700
3497 3 691 692 698 701
3498 3 692 698 699 702
3499 3 692 698 699 703
3500 3 692 698 699 704
3501 3 693 691 692 698
3502 3 694 691 692 698
3503 3 695 692 698 699
3504 3 695 692 698 700
3505 3 695 692 698 701
3506 3 696 692 698 699
3507 3 696 692 698 700
3508 3 696 692 698 701
3509 2 705 713 720 727
3510 3 706 714 715 718
3511 3 706 714 715 719
3512 4 706 714 715 721
3513 4 707 706 714 715
3514 3 707 706 714 716
3515 3 707 706 714 717
3516 3 708 706 714 715
3517 3 708 706 714 716
3518 3 708 706 714 717
3519 3 709 706 714 715
3520 3 709 706 714 716
3521 3 709 706 714 717
3522 2 713 720 727 734
3523 3 714 706 707 710
3524 3 714 706 707 711
3525 3 714 706 707 712
3526 4 714 715 721 722
3527 3 714 715 721 723
3528 3 714 715 721 724
3529 3 715 721 722 725
3530 3 715 721 722 726
3531 4 715 721 722 728
3532 3 716 714 715 721
3533 3 717 714 715 721
3534 3 718 715 721 722
3535 3 718 715 721 723
3536 3 718 715 721 724
3537 3 719 715 721 722
3538 3 719 715 721 723
3539 3 719 715 721 724
3540 2 720 727 734 741
3541 4 721 722 728 729
3542 3 721 722 728 730
3543 3 721 722 728 731
3544 3 722 728 729 732
3545 3 722 728 729 733
3546 4 722 728 729 735
3547 3 723 721 722 728
3548 3 724 721 722 728
3549 3 725 722 728 729
3550 3 725 722 728 730
3551 3 725 722 728 731
3552 3 726 722 728 729
3553 3 726 722 728 730
3554 3 726 722 728 731
3555 2 727 734 741 748
3556 4 728 729 735 736
3557 3 728 729 735 737
3558 3 728 729 735 738
3559 3 729 735 736 739
3560 3 729 735 736 740
3561 4 729 735 736 742
3562 3 730 728 729 735
3563 3 731 728 729 735
3564 3 732 729 735 736
3565 3 732 729 735 737
3566 3 732 729 735 738
3567 3 733 729 735 736
3568 3 733 729 735 737
3569 3 733 729 735 738
3570 2 734 741 748 755
3571 4 735 736 742 743
3572 3 735 736 742 744
3573 3 735 736 742 745
3574 3 736 742 743 746
3575 3 736 742 743 747
3576 4 736 742 743 749
3577 3 737 735 736 742
3578 3 738 735 736 742
3579 3 739 736 742 743
3580 3 739 736 742 744
3581 3 739 736 742 745
3582 3 740 736 742 743
3583 3 740 736 742 744
3584 3 740 736 742 745
3585 2 741 748 755 762
3586 4 742 743 749 750
3587 3 742 743 749 751
3588 3 742 743 749 752
3589 3 743 749 750 753
3590 3 743 749 750 754
3591 4 743 749 750 756
3592 3 744 742 743 749
3593 3 745 742 743 749
3594 3 746 743 749 750
3595 3 746 743 749 751
3596 3 746 743 749 752
3597 3 747 743 749 750
3598 3 747 743 749 751
3599 3 747 743 749 752
3600 2 748 755 762 769
3601 4 749 750 756 757
3602 3 749 750 756 758
3603 3 749 750 756 759
3604 3 750 756 757 760
3605 3 750 756 757 761
3606 4 750 756 757 763
3607 3 751 749 750 756
3608 3 752 749 750 756
3609 3 753 750 756 757
3610 3 753 750 756 758
3611 3 753 750 756 759
3612 3 754 750 756 757
3613 3 754 750 756 758
3614 3 754 750 756 759
3615 2 755 762 769 776
3616 4 756 757 763 764
3617 3 756 757 763 765
3618 3 756 757 763 766
3619 3 757 763 764 767
3620 3 757 763 764 768
3621 4 757 763 764 770
3622 3 758 756 757 763
3623 3 759 756 757 763
3624 3 760 757 763 764
3625 3 760 757 763 765
3626 3 760 757 763 766
3627 3 761 757 763 764
3628 3 761 757 763 765
3629 3 761 757 763 766
3630 2 762 769 776 783
3631 4 763 764 770 771
3632 3 763 764 770 772
3633 3 763 764 770 773
3634 3 764 770 771 774
3635 3 764 770 771 775
3636 4 764 770 771 777
3637 3 765 763 764 770
3638 3 766 763 764 770
3639 3 767 764 770 771
3640 3 767 764 770 772
3641 3 767 764 770 773
3642 3 768 764 770 771
3643 3 768 764 770 772
3644 3 768 764 770 773
3645 2 769 776 783 790
3646 4 770 771 777 778
3647 3 770 771 777 779
3648 3 770 771 777 780
3649 3 771 777 778 781
3650 3 771 777 778 782
3651 4 771 777 778 784
3652 3 772 770 771 777
3653 3 773 770 771 777
3654 3 774 771 777 778
3655 3 774 771 777 779
3656 3 774 771 777 780
3657 3 775 771 777 778
3658 3 775 771 777 779
3659 3 775 771 777 780
3660 2 776 783 790 797
3661 4 777 778 784 785
3662 3 777 778 784 786
3663 3 777 778 784 787
3664 3 778 784 785 788
3665 3 778 784 785 789
3666 4 778 784 785 791
3667 3 779 777 778 784
3668 3 780 777 778 784
3669 3 781 778 784 785
3670 3 781 778 784 786
3671 3 781 778 784 787
3672 3 782 778 784 785
3673 3 782 778 784 786
3674 3 782 778 784 787
3675 2 783 790 797 804
3676 4 784 785 791 792
3677 3 784 785 791 793
3678 3 784 785 791 794
3679 3 785 791 792 795
3680 3 785 791 792 796
3681 4 785 791 792 798
3682 3 786 784 785 791
3683 3 787 784 785 791
3684 3 788 785 791 792
3685 3 788 785 791 793
3686 3 788 785 791 794
3687 3 789 785 791 792
3688 3 789 785 791 793
3689 3 789 785 791 794
3690 2 790 797 804 811
3691 4 791 792 798 799
3692 3 791 792 798 800
3693 3 791 792 798 801
3694 3 792 798 799 802
3695 3 792 798 799 803
3696 4 792 798 799 805
3697 3 793 791 792 798
3698 3 794 791 792 798
3699 3 795 792 798 799
3700 3 795 792 798 800
3701 3 795 792 798 801
3702 3 796 792 798 799
3703 3 796 792 798 800
3704 3 796 792 798 801
3705 2 797 804 811 818
3706 4 798 799 805 806
3707 3 798 799 805 807
3708 3 798 799 805 808
3709 3 799 805 806 809
3710 3 799 805 806 810
3711 4 799 805 806 812
3712 3 800 798 799 805
3713 3 801 798 799 805
3714 3 802 799 805 806
3715 3 802 799 805 807
3716 3 802 799 805 808
3717 3 803 799 805 806
3718 3 803 799 805 807
3719 3 803 799 805 808
3720 2 804 811 818 825
3721 4 805 806 812 813
3722 3 805 806 812 814
3723 3 805 806 812 815
3724 3 806 812 813 816
3725 3 806 812 813 817
3726 4 806 812 813 819
3727 3 807 805 806 812
3728 3 808 805 806 812
3729 3 809 806 812 813
3730 3 809 806 812 814
3731 3 809 806 812 815
3732 3 810 806 812 813
3733 3 810 806 812 814
3734 3 810 806 812 815
3735 2 811 818 825 832
3736 4 812 813 819 820
3737 3 812 813 819 821
3738 3 812 813 819 822
3739 3 813 819 820 823
3740 3 813 819 820 824
3741 4 813 819 820 826
3742 3 814 812 813 819
3743 3 815 812 813 819
3744 3 816 813 819 820
3745 3 816 813 819 821
3746 3 816 813 819 822
3747 3 817 813 819 820
3748 3 817 813 819 821
3749 3 817 813 819 822
3750 2 818 825 832 839
3751 4 819 820 826 827
3752 3 819 820 826 828
3753 3 819 820 826 829
3754 3 820 826 827 830
3755 3 820 826 827 831
3756 4 820 826 827 833
3757 3 821 819 820 826
3758 3 822 819 820 826
3759 3 823 820 826 827
3760 3 823 820 826 828
3761 3 823 820 826 829
3762 3 824 820 826 827
3763 3 824 820 826 828
3764 3 824 820 826 829
3765 2 825 832 839 846
3766 4 826 827 833 834
3767 3 826 827 833 835
3768 3 826 827 833 836
3769 3 827 833 834 837
3770 3 827 833 834 838
3771 4 827 833 834 840
3772 3 828 826 827 833
3773 3 829 826 827 833
3774 3 830 827 833 834
3775 3 830 827 833 835
3776 3 830 827 833 836
3777 3 831 827 833 834
3778 3 831 827 833 835
3779 3 831 827 833 836
3780 2 832 839 846 853
3781 4 833 834 840 841
3782 3 833 834 840 842
3783 3 833 834 840 843
3784 3 834 840 841 844
3785 3 834 840 841 845
3786 4 834 840 841 847
3787 3 835 833 834 840
3788 3 836 833 834 840
3789 3 837 834 840 841
3790 3 837 834 840 842
3791 3 837 834 840 843
3792 3 838 834 840 841
3793 3 838 834 840 842
3794 3 838 834 840 843
3795 2 839 846 853 860
3796 4 840 841 847 848
3797 3 840 841 847 849
3798 3 840 841 847 850
3799 3 841 847 848 851
3800 3 841 847 848 852
3801 4 841 847 848 854
3802 3 842 840 841 847
3803 3 843 840 841 847
3804 3 844 841 847 848
3805 3 844 841 847 849
3806 3 844 841 847 850
3807 3 845 841 847 848
3808 3 845 841 847 849
3809 3 845 841 847 850
3810 2 846 853 860 867
3811 4 847 848 854 855
3812 3 847 848 854 856
3813 3 847 848 854 857
3814 3 848 854 855 858
3815 3 848 854 855 859
3816 4 848 854 855 861
3817 3 849 847 848 854
3818 3 850 847 848 854
3819 3 851 848 854 855
3820 3 851 848 854 856
3821 3 851 848 854 857
3822 3 852 848 854 855
3823 3 852 848 854 856
3824 3 852 848 854 857
3825 2 853 860 867 874
3826 4 854 855 861 862
3827 3 854 855 861 863
3828 3 854 855 861 864
3829 3 855 861 862 865
3830 3 855 861 862 866
3831 4 855 861 862 868
3832 3 856 854 855 861
3833 3 857 854 855 861
3834 3 858 855 861 862
3835 3 858 855 861 863
3836 3 858 855 861 864
3837 3 859 855 861 862
3838 3 859 855 861 863
3839 3 859 855 861 864
3840 2 860 867 874 881
3841 4 861 862 868 869
3842 3 861 862 868 870
3843 3 861 862 868 871
3844 3 862 868 869 872
3845 3 862 868 869 873
3846 4 862 868 869 875
3847 3 863 861 862 868
3848 3 864 861 862 868
3849 3 865 862 868 869
3850 3 865 862 868 870
3851 3 865 862 868 871
3852 3 866 862 868 869
3853 3 866 862 868 870
3854 3 866 862 868 871
3855 2 867 874 881 888
3856 4 868 869 875 876
3857 3 868 869 875 877
3858 3 868 869 875 878
3859 3 869 875 876 879
3860 3 869 875 876 880
3861 4 869 875 876 882
3862 3 870 868 869 875
3863 3 871 868 869 875
3864 3 872 869 875 876
3865 3 872 869 875 877
3866 3 872 869 875 878
3867 3 873 869 875 876
3868 3 873 869 875 877
3869 3 873 869 875 878
3870 2 874 881 888 895
3871 4 875 876 882 883
3872 3 875 876 882 884
3873 3 875 876 882 885
3874 3 876 882 883 886
3875 3 876 882 883 887
3876 4 876 882 883 889
3877 3 877 875 876 882
3878 3 878 875 876 882
3879 3 879 876 882 883
3880 3 879 876 882 884
3881 3 879 876 882 885
3882 3 880 876 882 883
3883 3 880 876 882 884
3884 3 880 876 882 885
3885 2 881 888 895 902
3886 4 882 883 889 890
3887 3 882 883 889 891
3888 3 882 883 889 892
3889 3 883 889 890 893
3890 3 883 889 890 894
3891 4 883 889 890 896
3892 3 884 882 883 889
3893 3 885 882 883 889
3894 3 886 883 889 890
3895 3 886 883 889 891
3896 3 886 883 889 892
3897 3 887 883 889 890
3898 3 887 883 889 891
3899 3 887 883 889 892
3900 2 888 895 902 909
3901 4 889 890 896 897
3902 3 889 890 896 898
3903 3 889 890 896 899
3904 3 890 896 897 900
3905 3 890 896 897 901
3906 4 890 896 897 903
3907 3 891 889 890 896
3908 3 892 889 890 896
3909 3 893 890 896 897
3910 3 893 890 896 898
3911 3 893 890 896 899
3912 3 894 890 896 897
3913 3 894 890 896 898
3914 3 894 890 896 899
3915 2 895 902 909 916
3916 4 896 897 903 904
3917 3 896 897 903 905
3918 3 896 897 903 906
3919 3 897 903 904 907
3920 3 897 903 904 908
3921 4 897 903 904 910
3922 3 898 896 897 903
3923 3 899 896 897 903
3924 3 900 897 903 904
3925 3 900 897 903 905
3926 3 900 897 903 906
3927 3 901 897 903 904
3928 3 901 897 903 905
3929 3 901 897 903 906
3930 2 902 909 916 923
3931 4 903 904 910 911
3932 3 903 904 910 912
3933 3 903 904 910 913
3934 3 904 910 911 914
3935 3 904 910 911 915
3936 4 904 910 911 917
3937 3 905 903 904 910
3938 3 906 903 904 910
3939 3 907 904 910 911
3940 3 907 904 910 912
3941 3 907 904 910 913
3942 3 908 904 910 911
3943 3 908 904 910 912
3944 3 908 904 910 913
3945 2 909 916 923 930
3946 4 910 911 917 918
3947 3 910 911 917 919
3948 3 910 911 917 920
3949 3 911 917 918 921
3950 3 911 917 918 922
3951 4 911 917 918 924
3952 3 912 910 911 917
3953 3 913 910 911 917
3954 3 914 911 917 918
3955 3 914 911 917 919
3956 3 914 911 917 920
3957 3 915 911 917 918
3958 3 915 911 917 919
3959 3 915 911 917 920
3960 2 916 923 930 937
3961 4 917 918 924 925
3962 3 917 918 924 926
3963 3 917 918 924 927
3964 3 918 924 925 928
3965 3 918 924 925 929
3966 4 918 924 925 931
3967 3 919 917 918 924
3968 3 920 917 918 924
3969 3 921 918 924 925
3970 3 921 918 924 926
3971 3 921 918 924 927
3972 3 922 918 924 925
3973 3 922 918 924 926
3974 3 922 918 924 927
3975 2 923 930 937 944
3976 4 924 925 931 932
3977 3 924 925 931 933
3978 3 924 925 931 934
3979 3 925 931 932 935
3980 3 925 931 932 936
3981 4 925 931 932 938
3982 3 926 924 925 931
3983 3 927 924 925 931
3984 3 928 925 931 932
3985 3 928 925 931 933
3986 3 928 925 931 934
3987 3 929 925 931 932
3988 3 929 925 931 933
3989 3 929 925 931 934
3990 2 930 937 944 951
3991 4 931 932 938 939
3992 3 931 932 938 940
3993 3 931 932 938 941
3994 3 932 938 939 942
3995 3 932 938 939 943
3996 4 932 938 939 945
3997 3 933 931 932 938
3998 3 934 931 932 938
3999 3 935 932 938 939
4000 3 935 932 938 940
4001 3 935 932 938 941
4002 3 936 932 938 939
4003 3 936 932 938 940
4004 3 936 932 938 941
4005 2 937 944 951 958
4006 4 938 939 945 946
4007 3 938 939 945 947
4008 3 938 939 945 948
4009 3 939 945 946 949
4010 3 939 945 946 950
4011 4 939 945 946 952
4012 3 940 938 939 945
4013 3 941 938 939 945
4014 3 942 939 945 946
4015 3 942 939 945 947
4016 3 942 939 945 948
4017 3 943 939 945 946
4018 3 943 939 945 947
4019 3 943 939 945 948
4020 2 944 951 958 965
4021 4 945 946 952 953
4022 3 945 946 952 954
4023 3 945 946 952 955
4024 3 946 952 953 956
4025 3 946 952 953 957
4026 4 946 952 953 959
4027 3 947 945 946 952
4028 3 948 945 946 952
4029 3 949 946 952 953
4030 3 949 946 952 954
4031 3 949 946 952 955
4032 3 950 946 952 953
4033 3 950 946 952 954
4034 3 950 946 952 955
4035 2 951 958 965 972
4036 4 952 953 959 960
4037 3 952 953 959 961
4038 3 952 953 959 962
4039 3 953 959 960 963
4040 3 953 959 960 964
4041 4 953 959 960 966
4042 3 954 952 953 959
4043 3 955 952 953 959
4044 3 956 953 959 960
4045 3 956 953 959 961
4046 3 956 953 959 962
4047 3 957 953 959 960
4048 3 957 953 959 961
4049 3 957 953 959 962
4050 2 958 965 972 979
4051 4 959 960 966 967
4052 3 959 960 966 968
4053 3 959 960 966 969
4054 3 960 966 967 970
4055 3 960 966 967 971
4056 4 960 966 967 973
4057 3 961 959 960 966
4058 3 962 959 960 966
4059 3 963 960 966 967
4060 3 963 960 966 968
4061 3 963 960 966 969
4062 3 964 960 966 967
4063 3 964 960 966 968
4064 3 964 960 966 969
4065 2 965 972 979 986
4066 4 966 967 973 974
4067 3 966 967 973 975
4068 3 966 967 973 976
4069 3 967 973 974 977
4070 3 967 973 974 978
4071 4 967 973 974 980
4072 3 968 966 967 973
4073 3 969 966 967 973
4074 3 970 967 973 974
4075 3 970 967 973 975
4076 3 970 967 973 976
4077 3 971 967 973 974
4078 3 971 967 973 975
4079 3 971 967 973 976
4080 2 972 979 986 993
4081 4 973 974 980 981
4082 3 973 974 980 982
4083 3 973 974 980 983
4084 3 974 980 981 984
4085 3 974 980 981 985
4086 4 974 980 981 987
4087 3 975 973 974 980
4088 3 976 973 974 980
4089 3 977 974 980 981
4090 3 977 974 980 982
4091 3 977 974 980 983
4092 3 978 974 980 981
4093 3 978 974 980 982
4094 3 978 974 980 983
4095 2 979 986 993 1000
4096 4 980 981 987 988
4097 3 980 981 987 989
4098 3 980 981 987 990
4099 3 981 987 988 991
4100 3 981 987 988 992
4101 4 981 987 988 994
4102 3 982 980 981 987
4103 3 983 980 981 987
4104 3 984 981 987 988
4105 3 984 981 987 989
4106 3 984 981 987 990
4107 3 985 981 987 988
4108 3 985 981 987 989
4109 3 985 981 987 990
4110 2 986 993 1000 1007
4111 4 987 988 994 995
4112 3 987 988 994 996
4113 3 987 988 994 997
4114 3 988 994 995 998
4115 3 988 994 995 999
4116 4 988 994 995 1001
4117 3 989 987 988 994
4118 3 990 987 988 994
4119 3 991 988 994 995
4120 3 991 988 994 996
4121 3 991 988 994 997
4122 3 992 988 994 995
4123 3 992 988 994 996
4124 3 992 988 994 997
4125 2 993 1000 1007 1014
4126 4 994 995 1001 1002
4127 3 994 995 1001 1003
4128 3 994 995 1001 1004
4129 3 995 1001 1002 1005
4130 3 995 1001 1002 1006
4131 4 995 1001 1002 1008
4132 3 996 994 995 1001
4133 3 997 994 995 1001
4134 3 998 995 1001 1002
4135 3 998 995 1001 1003
4136 3 998 995 1001 1004
4137 3 999 995 1001 1002
4138 3 999 995 1001 1003
4139 3 999 995 1001 1004
4140 2 1000 1007 1014 1021
4141 4 1001 1002 1008 1009
4142 3 1001 1002 1008 1010
4143 3 1001 1002 1008 1011
4144 3 1002 1008 1009 1012
4145 3 1002 1008 1009 1013
4146 4 1002 1008 1009 1015
4147 3 1003 1001 1002 1008
4148 3 1004 1001 1002 1008
4149 3 1005 1002 1008 1009
4150 3 1005 1002 1008 1010
4151 3 1005 1002 1008 1011
4152 3 1006 1002 1008 1009
4153 3 1006 1002 1008 1010
4154 3 1006 1002 1008 1011
4155 2 1007 1014 1021 1028
4156 4 1008 1009 1015 1016
4157 3 1008 1009 1015 1017
4158 3 1008 1009 1015 1018
4159 3 1009 1015 1016 1019
4160 3 1009 1015 1016 1020
4161 4 1009 1015 1016 1022
4162 3 1010 1008 1009 1015
4163 3 1011 1008 1009 1015
4164 3 1012 1009 1015 1016
4165 3 1012 1009 1015 1017
4166 3 1012 1009 1015 1018
4167 3 1013 1009 1015 1016
4168 3 1013 1009 1015 1017
4169 3 1013 1009 1015 1018
4170 2 1014 1021 1028 1035
4171 4 1015 1016 1022 1023
4172 3 1015 1016 1022 1024
4173 3 1015 1016 1022 1025
4174 3 1016 1022 1023 1026
4175 3 1016 1022 1023 1027
4176 4 1016 1022 1023 1029
4177 3 1017 1015 1016 1022
4178 3 1018 1015 1016 1022
4179 3 1019 1016 1022 1023
4180 3 1019 1016 1022 1024
4181 3 1019 1016 1022 1025
4182 3 1020 1016 1022 1023
4183 3 1020 1016 1022 1024
4184 3 1020 1016 1022 1025
4185 2 1021 1028 1035 1042
4186 4 1022 1023 1029 1030
4187 3 1022 1023 1029 1031
4188 3 1022 1023 1029 1032
4189 3 1023 1029 1030 1033
4190 3 1023 1029 1030 1034
4191 4 1023 1029 1030 1036
4192 3 1024 1022 1023 1029
4193 3 1025 1022 1023 1029
4194 3 1026 1023 1029 1030
4195 3 1026 1023 1029 1031
4196 3 1026 1023 1029 1032
4197 3 1027 1023 1029 1030
4198 3 1027 1023 1029 1031
4199 3 1027 1023 1029 1032
4200 2 1028 1035 1042 1049
4201 4 1029 1030 1036 1037
4202 3 1029 1030 1036 1038
4203 3 1029 1030 1036 1039
4204 3 1030 1036 1037 1040
4205 3 1030 1036 1037 1041
4206 4 1030 1036 1037 1043
4207 3 1031 1029 1030 1036
4208 3 1032 1029 1030 1036
4209 3 1033 1030 1036 1037
4210 3 1033 1030 1036 1038
4211 3 1033 1030 1036 1039
4212 3 1034 1030 1036 1037
4213 3 1034 1030 1036 1038
4214 3 1034 1030 1036 1039
4215 4 1036 1037 1043 1044
4216 3 1036 1037 1043 1045
4217 3 1036 1037 1043 1046
4218 3 1037 1043 1044 1047
4219 3 1037 1043 1044 1048
4220 4 1037 1043 1044 1050
4221 3 1038 1036 1037 1043
4222 3 1039 1036 1037 1043
4223 3 1040 1037 1043 1044
4224 3 1040 1037 1043 1045
4225 3 1040 1037 1043 1046
4226 3 1041 1037 1043 1044
4227 3 1041 1037 1043 1045
4228 3 1041 1037 1043 1046
4229 4 1043 1044 1050 1051
4230 3 1043 1044 1050 1052
4231 3 1043 1044 1050 1053
4232 3 1044 1050 1051 1054
4233 3 1044 1050 1051 1055
4234 3 1044 1050 1051 1056
4235 3 1045 1043 1044 1050
4236 3 1046 1043 1044 1050
4237 3 1047 1044 1050 1051
4238 3 1047 1044 1050 1052
4239 3 1047 1044 1050 1053
4240 3 1048 1044 1050 1051
4241 3 1048 1044 1050 1052
4242 3 1048 1044 1050 1053
4243 2 1057 1065 1072 1079
4244 3 1058 1066 1067 1070
4245 3 1058 1066 1067 1071
4246 4 1058 1066 1067 1073
4247 4 1059 1058 1066 1067
4248 3 1059 1058 1066 1068
4249 3 1059 1058 1066 1069
4250 3 1060 1058 1066 1067
4251 3 1060 1058 1066 1068
4252 3 1060 1058 1066 1069
4253 3 1061 1058 1066 1067
4254 3 1061 1058 1066 1068
4255 3 1061 1058 1066 1069
4256 2 1065 1072 1079 1086
4257 3 1066 1058 1059 1062
4258 3 1066 1058 1059 1063
4259 3 1066 1058 1059 1064
4260 4 1066 1067 1073 1074
4261 3 1066 1067 1073 1075
4262 3 1066 1067 1073 1076
4263 3 1067 1073 1074 1077
4264 3 1067 1073 1074 1078
4265 4 1067 1073 1074 1080
4266 3 1068 1066 1067 1073
4267 3 1069 1066 1067 1073
4268 3 1070 1067 1073 1074
4269 3 1070 1067 1073 1075
4270 3 1070 1067 1073 1076
4271 3 1071 1067 1073 1074
4272 3 1071 1067 1073 1075
4273 3 1071 1067 1073 1076
4274 2 1072 1079 1086 1093
4275 4 1073 1074 1080 1081
4276 3 1073 1074 1080 1082
4277 3 1073 1074 1080 1083
4278 3 1074 1080 1081 1084
4279 3 1074 1080 1081 1085
4280 4 1074 1080 1081 1087
4281 3 1075 1073 1074 1080
4282 3 1076 1073 1074 1080
4283 3 1077 1074 1080 1081
4284 3 1077 1074 1080 1082
4285 3 1077 1074 1080 1083
4286 3 1078 1074 1080 1081
4287 3 1078 1074 1080 1082
4288 3 1078 1074 1080 1083
4289 2 1079 1086 1093 1100
4290 4 1080 1081 1087 1088
4291 3 1080 1081 1087 1089
4292 3 1080 1081 1087 1090
4293 3 1081 1087 1088 1091
4294 3 1081 1087 1088 1092
4295 4 1081 1087 1088 1094
4296 3 1082 1080 1081 1087
4297 3 1083 1080 1081 1087
4298 3 1084 1081 1087 1088
4299 3 1084 1081 1087 1089
4300 3 1084 1081 1087 1090
4301 3 1085 1081 1087 1088
4302 3 1085 1081 1087 1089
4303 3 1085 1081 1087 1090
4304 2 1086 1093 1100 1107
4305 4 1087 1088 1094 1095
4306 3 1087 1088 1094 1096
4307 3 1087 1088 1094 1097
4308 3 1088 1094 1095 1098
4309 3 1088 1094 1095 1099
4310 4 1088 1094 1095 1101
4311 3 1089 1087 1088 1094
4312 3 1090 1087 1088 1094
4313 3 1091 1088 1094 1095
4314 3 1091 1088 1094 1096
4315 3 1091 1088 1094 1097
4316 3 1092 1088 1094 1095
4317 3 1092 1088 1094 1096
4318 3 1092 1088 1094 1097
4319 2 1093 1100 1107 1114
4320 4 1094 1095 1101 1102
4321 3 1094 1095 1101 1103
4322 3 1094 1095 1101 1104
4323 3 1095 1101 1102 1105
4324 3 1095 1101 1102 1106
4325 4 1095 1101 1102 1108
4326 3 1096 1094 1095 1101
4327 3 1097 1094 1095 1101
4328 3 1098 1095 1101 1102
4329 3 1098 1095 1101 1103
4330 3 1098 1095 1101 1104
4331 3 1099 1095 1101 1102
4332 3 1099 1095 1101 1103
4333 3 1099 1095 1101 1104
4334 2 1100 1107 1114 1121
4335 4 1101 1102 1108 1109
4336 3 1101 1102 1108 1110
4337 3 1101 1102 1108 1111
4338 3 1102 1108 1109 1112
4339 3 1102 1108 1109 1113
4340 4 1102 1108 1109 1115
4341 3 1103 1101 1102 1108
4342 3 1104 1101 1102 1108
4343 3 1105 1102 1108 1109
4344 3 1105 1102 1108 1110
4345 3 1105 1102 1108 1111
4346 3 1106 1102 1108 1109
4347 3 1106 1102 1108 1110
4348 3 1106 1102 1108 1111
4349 2 1107 1114 1121 1128
4350 4 1108 1109 1115 1116
4351 3 1108 1109 1115 1117
4352 3 1108 1109 1115 1118
4353 3 1109 1115 1116 1119
4354 3 1109 1115 1116 1120
4355 4 1109 1115 1116 1122
4356 3 1110 1108 1109 1115
4357 3 1111 1108 1109 1115
4358 3 1112 1109 1115 1116
4359 3 1112 1109 1115 1117
4360 3 1112 1109 1115 1118
4361 3 1113 1109 1115 1116
4362 3 1113 1109 1115 1117
4363 3 1113 1109 1115 1118
4364 2 1114 1121 1128 1135
4365 4 1115 1116 1122 1123
4366 3 1115 1116 1122 1124
4367 3 1115 1116 1122 1125
4368 3 1116 1122 1123 1126
4369 3 1116 1122 1123 1127
4370 4 1116 1122 1123 1129
4371 3 1117 1115 1116 1122
4372 3 1118 1115 1116 1122
4373 3 1119 1116 1122 1123
4374 3 1119 1116 1122 1124
4375 3 1119 1116 1122 1125
4376 3 1120 1116 1122 1123
4377 3 1120 1116 1122 1124
4378 3 1120 1116 1122 1125
4379 2 1121 1128 1135 1142
4380 4 1122 1123 1129 1130
4381 3 1122 1123 1129 1131
4382 3 1122 1123 1129 1132
4383 3 1123 1129 1130 1133
4384 3 1123 1129 1130 1134
4385 4 1123 1129 1130 1136
4386 3 1124 1122 1123 1129
4387 3 1125 1122 1123 1129
4388 3 1126 1123 1129 1130
4389 3 1126 1123 1129 1131
4390 3 1126 1123 1129 1132
4391 3 1127 1123 1129 1130
4392 3 1127 1123 1129 1131
4393 3 1127 1123 1129 1132
4394 2 1128 1135 1142 1149
4395 4 1129 1130 1136 1137
4396 3 1129 1130 1136 1138
4397 3 1129 1130 1136 1139
4398 3 1130 1136 1137 1140
4399 3 1130 1136 1137 1141
4400 4 1130 1136 1137 1143
4401 3 1131 1129 1130 1136
4402 3 1132 1129 1130 1136
4403 3 1133 1130 1136 1137
4404 3 1133 1130 1136 1138
4405 3 1133 1130 1136 1139
4406 3 1134 1130 1136 1137
4407 3 1134 1130 1136 1138
4408 3 1134 1130 1136 1139
4409 2 1135 1142 1149 1156
4410 4 1136 1137 1143 1144
4411 3 1136 1137 1143 1145
4412 3 1136 1137 1143 1146
4413 3 1137 1143 1144 1147
4414 3 1137 1143 1144 1148
4415 4 1137 1143 1144 1150
4416 3 1138 1136 1137 1143
4417 3 1139 1136 1137 1143
4418 3 1140 1137 1143 1144
4419 3 1140 1137 1143 1145
4420 3 1140 1137 1143 1146
4421 3 1141 1137 1143 1144
4422 3 1141 1137 1143 1145
4423 3 1141 1137 1143 1146
4424 2 1142 1149 1156 1163
4425 4 1143 1144 1150 1151
4426 3 1143 1144 1150 1152
4427 3 1143 1144 1150 1153
4428 3 1144 1150 1151 1154
4429 3 1144 1150 1151 1155
4430 4 1144 1150 1151 1157
4431 3 1145 1143 1144 1150
4432 3 1146 1143 1144 1150
4433 3 1147 1144 1150 1151
4434 3 1147 1144 1150 1152
4435 3 1147 1144 1150 1153
4436 3 1148 1144 1150 1151
4437 3 1148 1144 1150 1152
4438 3 1148 1144 1150 1153
4439 2 1149 1156 1163 1170
4440 4 1150 1151 1157 1158
4441 3 1150 1151 1157 1159
4442 3 1150 1151 1157 1160
4443 3 1151 1157 1158 1161
4444 3 1151 1157 1158 1162
4445 4 1151 1157 1158 1164
4446 3 1152 1150 1151 1157
4447 3 1153 1150 1151 1157
4448 3 1154 1151 1157 1158
4449 3 1154 1151 1157 1159
4450 3 1154 1151 1157 1160
4451 3 1155 1151 1157 1158
4452 3 1155 1151 1157 1159
4453 3 1155 1151 1157 1160
4454 2 1156 1163 1170 1177
4455 4 1157 1158 1164 1165
4456 3 1157 1158 1164 1166
4457 3 1157 1158 1164 1167
4458 3 1158 1164 1165 1168
4459 3 1158 1164 1165 1169
4460 4 1158 1164 1165 1171
4461 3 1159 1157 1158 1164
4462 3 1160 1157 1158 1164
4463 3 1161 1158 1164 1165
4464 3 1161 1158 1164 1166
4465 3 1161 1158 1164 1167
4466 3 1162 1158 1164 1165
4467 3 1162 1158 1164 1166
4468 3 1162 1158 1164 1167
4469 2 1163 1170 1177 1184
4470 4 1164 1165 1171 1172
4471 3 1164 1165 1171 1173
4472 3 1164 1165 1171 1174
4473 3 1165 1171 1172 1175
4474 3 1165 1171 1172 1176
4475 4 1165 1171 1172 1178
4476 3 1166 1164 1165 1171
4477 3 1167 1164 1165 1171
4478 3 1168 1165 1171 1172
4479 3 1168 1165 1171 1173
4480 3 1168 1165 1171 1174
4481 3 1169 1165 1171 1172
4482 3 1169 1165 1171 1173
4483 3 1169 1165 1171 1174
4484 2 1170 1177 1184 1191
4485 4 1171 1172 1178 1179
4486 3 1171 1172 1178 1180
4487 3 1171 1172 1178 1181
4488 3 1172 1178 1179 1182
4489 3 1172 1178 1179 1183
4490 4 1172 1178 1179 1185
4491 3 1173 1171 1172 1178
4492 3 1174 1171 1172 1178
4493 3 1175 1172 1178 1179
4494 3 1175 1172 1178 1180
4495 3 1175 1172 1178 1181
4496 3 1176 1172 1178 1179
4497 3 1176 1172 1178 1180
4498 3 1176 1172 1178 1181
4499 2 1177 1184 1191 1198
4500 4 1178 1179 1185 1186
4501 3 1178 1179 1185 1187
4502 3 1178 1179 1185 1188
4503 3 1179 1185 1186 1189
4504 3 1179 1185 1186 1190
4505 4 1179 1185 1186 1192
4506 3 1180 1178 1179 1185
4507 3 1181 1178 1179 1185
4508 3 1182 1179 1185 1186
4509 3 1182 1179 1185 1187
4510 3 1182 1179 1185 1188
4511 3 1183 1179 1185 1186
4512 3 1183 1179 1185 1187
4513 3 1183 1179 1185 1188
4514 2 1184 1191 1198 1205
4515 4 1185 1186 1192 1193
4516 3 1185 1186 1192 1194
4517 3 1185 1186 1192 1195
4518 3 1186 1192 1193 1196
4519 3 1186 1192 1193 1197
4520 4 1186 1192 1193 1199
4521 3 1187 1185 1186 1192
4522 3 1188 1185 1186 1192
4523 3 1189 1186 1192 1193
4524 3 1189 1186 1192 1194
4525 3 1189 1186 1192 1195
4526 3 1190 1186 1192 1193
4527 3 1190 1186 1192 1194
4528 3 1190 1186 1192 1195
4529 2 1191 1198 1205 1212
4530 4 1192 1193 1199 1200
4531 3 1192 1193 1199 1201
4532 3 1192 1193 1199 1202
4533 3 1193 1199 1200 1203
4534 3 1193 1199 1200 1204
4535 4 1193 1199 1200 1206
4536 3 1194 1192 1193 1199
4537 3 1195 1192 1193 1199
4538 3 1196 1193 1199 1200
4539 3 1196 1193 1199 1201
4540 3 1196 1193 1199 1202
4541 3 1197 1193 1199 1200
4542 3 1197 1193 1199 1201
4543 3 1197 1193 1199 1202
4544 2 1198 1205 1212 1219
4545 4 1199 1200 1206 1207
4546 3 1199 1200 1206 1208
4547 3 1199 1200 1206 1209
4548 3 1200 1206 1207 1210
4549 3 1200 1206 1207 1211
4550 4 1200 1206 1207 1213
4551 3 1201 1199 1200 1206
4552 3 1202 1199 1200 1206
4553 3 1203 1200 1206 1207
4554 3 1203 1200 1206 1208
4555 3 1203 1200 1206 1209
4556 3 1204 1200 1206 1207
4557 3 1204 1200 1206 1208
4558 3 1204 1200 1206 1209
4559 2 1205 1212 1219 1226
4560 4 1206 1207 1213 1214
4561 3 1206 1207 1213 1215
4562 3 1206 1207 1213 1216
4563 3 1207 1213 1214 1217
4564 3 1207 1213 1214 1218
4565 4 1207 1213 1214 1220
4566 3 1208 1206 1207 1213
4567 3 1209 1206 1207 1213
4568 3 1210 1207 1213 1214
4569 3 1210 1207 1213 1215
4570 3 1210 1207 1213 1216
4571 3 1211 1207 1213 1214
4572 3 1211 1207 1213 1215
4573 3 1211 1207 1213 1216
4574 2 1212 1219 1226 1233
4575 4 1213 1214 1220 1221
4576 3 1213 1214 1220 1222
4577 3 1213 1214 1220 1223
4578 3 1214 1220 1221 1224
4579 3 1214 1220 1221 1225
4580 4 1214 1220 1221 1227
4581 3 1215 1213 1214 1220
4582 3 1216 1213 1214 1220
4583 3 1217 1214 1220 1221
4584 3 1217 1214 1220 1222
4585 3 1217 1214 1220 1223
4586 3 1218 1214 1220 1221
4587 3 1218 1214 1220 1222
4588 3 1218 1214 1220 1223
4589 2 1219 1226 1233 1240
4590 4 1220 1221 1227 1228
4591 3 1220 1221 1227 1229
4592 3 1220 1221 1227 1230
4593 3 1221 1227 1228 1231
4594 3 1221 1227 1228 1232
4595 4 1221 1227 1228 1234
4596 3 1222 1220 1221 1227
4597 3 1223 1220 1221 1227
4598 3 1224 1221 1227 1228
4599 3 1224 1221 1227 1229
4600 3 1224 1221 1227 1230
4601 3 1225 1221 1227 1228
4602 3 1225 1221 1227 1229
4603 3 1225 1221 1227 1230
4604 2 1226 1233 1240 1247
4605 4 1227 1228 1234 1235
4606 3 1227 1228 1234 1236
4607 3 1227 1228 1234 1237
4608 3 1228 1234 1235 1238
4609 3 1228 1234 1235 1239
4610 4 1228 1234 1235 1241
4611 3 1229 1227 1228 1234
4612 3 1230 1227 1228 1234
4613 3 1231 1228 1234 1235
4614 3 1231 1228 1234 1236
4615 3 1231 1228 1234 1237
4616 3 1232 1228 1234 1235
4617 3 1232 1228 1234 1236
4618 3 1232 1228 1234 1237
4619 2 1233 1240 1247 1254
4620 4 1234 1235 1241 1242
4621 3 1234 1235 1241 1243
4622 3 1234 1235 1241 1244
4623 3 1235 1241 1242 1245
4624 3 1235 1241 1242 1246
4625 4 1235 1241 1242 1248
4626 3 1236 1234 1235 1241
4627 3 1237 1234 1235 1241
4628 3 1238 1235 1241 1242
4629 3 1238 1235 1241 1243
4630 3 1238 1235 1241 1244
4631 3 1239 1235 1241 1242
4632 3 1239 1235 1241 1243
4633 3 1239 1235 1241 1244
4634 2 1240 1247 1254 1261
4635 4 1241 1242 1248 1249
4636 3 1241 1242 1248 1250
4637 3 1241 1242 1248 1251
4638 3 1242 1248 1249 1252
4639 3 1242 1248 1249 1253
4640 4 1242 1248 1249 1255
4641 3 1243 1241 1242 1248
4642 3 1244 1241 1242 1248
4643 3 1245 1242 1248 1249
4644 3 1245 1242 1248 1250
4645 3 1245 1242 1248 1251
4646 3 1246 1242 1248 1249
4647 3 1246 1242 1248 1250
4648 3 1246 1242 1248 1251
4649 2 1247 1254 1261 1268
4650 4 1248 1249 1255 1256
4651 3 1248 1249 1255 1257
4652 3 1248 1249 1255 1258
4653 3 1249 1255 1256 1259
4654 3 1249 1255 1256 1260
4655 4 1249 1255 1256 1262
4656 3 1250 1248 1249 1255
4657 3 1251 1248 1249 1255
4658 3 1252 1249 1255 1256
4659 3 1252 1249 1255 1257
4660 3 1252 1249 1255 1258
4661 3 1253 1249 1255 1256
4662 3 1253 1249 1255 1257
4663 3 1253 1249 1255 1258
4664 2 1254 1261 1268 1275
4665 4 1255 1256 1262 1263
4666 3 1255 1256 1262 1264
4667 3 1255 1256 1262 1265
4668 3 1256 1262 1263 1266
4669 3 1256 1262 1263 1267
4670 4 1256 1262 1263 1269
4671 3 1257 1255 1256 1262
4672 3 1258 1255 1256 1262
4673 3 1259 1256 1262 1263
4674 3 1259 1256 1262 1264
4675 3 1259 1256 1262 1265
4676 3 1260 1256 1262 1263
4677 3 1260 1256 1262 1264
4678 3 1260 1256 1262 1265
4679 2 1261 1268 1275 1282
4680 4 1262 1263 1269 1270
4681 3 1262 1263 1269 1271
4682 3 1262 1263 1269 1272
4683 3 1263 1269 1270 1273
4684 3 1263 1269 1270 1274
4685 4 1263 1269 1270 1276
4686 3 1264 1262 1263 1269
4687 3 1265 1262 1263 1269
4688 3 1266 1263 1269 1270
4689 3 1266 1263 1269 1271
4690 3 1266 1263 1269 1272
4691 3 1267 1263 1269 1270
4692 3 1267 1263 1269 1271
4693 3 1267 1263 1269 1272
4694 2 1268 1275 1282 1289
4695 4 1269 1270 1276 1277
4696 3 1269 1270 1276 1278
4697 3 1269 1270 1276 1279
4698 3 1270 1276 1277 1280
4699 3 1270 1276 1277 1281
4700 4 1270 1276 1277 1283
4701 3 1271 1269 1270 1276
4702 3 1272 1269 1270 1276
4703 3 1273 1270 1276 1277
4704 3 1273 1270 1276 1278
4705 3 1273 1270 1276 1279
4706 3 1274 1270 1276 1277
4707 3 1274 1270 1276 1278
4708 3 1274 1270 1276 1279
4709 2 1275 1282 1289 1296
4710 4 1276 1277 1283 1284
4711 3 1276 1277 1283 1285
4712 3 1276 1277 1283 1286
4713 3 1277 1283 1284 1287
4714 3 1277 1283 1284 1288
4715 4 1277 1283 1284 1290
4716 3 1278 1276 1277 1283
4717 3 1279 1276 1277 1283
4718 3 1280 1277 1283 1284
4719 3 1280 1277 1283 1285
4720 3 1280 1277 1283 1286
4721 3 1281 1277 1283 1284
4722 3 1281 1277 1283 1285
4723 3 1281 1277 1283 1286
4724 2 1282 1289 1296 1303
4725 4 1283 1284 1290 1291
4726 3 1283 1284 1290 1292
4727 3 1283 1284 1290 1293
4728 3 1284 1290 1291 1294
4729 3 1284 1290 1291 1295
4730 4 1284 1290 1291 1297
4731 3 1285 1283 1284 1290
4732 3 1286 1283 1284 1290
4733 3 1287 1284 1290 1291
4734 3 1287 1284 1290 1292
4735 3 1287 1284 1290 1293
4736 3 1288 1284 1290 1291
4737 3 1288 1284 1290 1292
4738 3 1288 1284 1290 1293
4739 2 1289 1296 1303 1310
4740 4 1290 1291 1297 1298
4741 3 1290 1291 1297 1299
4742 3 1290 1291 1297 1300
4743 3 1291 1297 1298 1301
4744 3 1291 1297 1298 1302
4745 4 1291 1297 1298 1304
4746 3 1292 1290 1291 1297
4747 3 1293 1290 1291 1297
4748 3 1294 1291 1297 1298
4749 3 1294 1291 1297 1299
4750 3 1294 1291 1297 1300
4751 3 1295 1291 1297 1298
4752 3 1295 1291 1297 1299
4753 3 1295 1291 1297 1300
4754 2 1296 1303 1310 1317
4755 4 1297 1298 1304 1305
4756 3 1297 1298 1304 1306
4757 3 1297 1298 1304 1307
4758 3 1298 1304 1305 1308
4759 3 1298 1304 1305 1309
4760 4 1298 1304 1305 1311
4761 3 1299 1297 1298 1304
4762 3 1300 1297 1298 1304
4763 3 1301 1298 1304 1305
4764 3 1301 1298 1304 1306
4765 3 1301 1298 1304 1307
4766 3 1302 1298 1304 1305
4767 3 1302 1298 1304 1306
4768 3 1302 1298 1304 1307
4769 2 1303 1310 1317 1324
4770 4 1304 1305 1311 1312
4771 3 1304 1305 1311 1313
4772 3 1304 1305 1311 1314
4773 3 1305 1311 1312 1315
4774 3 1305 1311 1312 1316
4775 4 1305 1311 1312 1318
4776 3 1306 1304 1305 1311
4777 3 1307 1304 1305 1311
4778 3 1308 1305 1311 1312
4779 3 1308 1305 1311 1313
4780 3 1308 1305 1311 1314
4781 3 1309 1305 1311 1312
4782 3 1309 1305 1311 1313
4783 3 1309 1305 1311 1314
4784 2 1310 1317 1324 1331
4785 4 1311 1312 1318 1319
4786 3 1311 1312 1318 1320
4787 3 1311 1312 1318 1321
4788 3 1312 1318 1319 1322
4789 3 1312 1318 1319 1323
4790 4 1312 1318 1319 1325
4791 3 1313 1311 1312 1318
4792 3 1314 1311 1312 1318
4793 3 1315 1312 1318 1319
4794 3 1315 1312 1318 1320
4795 3 1315 1312 1318 1321
4796 3 1316 1312 1318 1319
4797 3 1316 1312 1318 1320
4798 3 1316 1312 1318 1321
4799 2 1317 1324 1331 1338
4800 4 1318 1319 1325 1326
4801 3 1318 1319 1325 1327
4802 3 1318 1319 1325 1328
4803 3 1319 1325 1326 1329
4804 3 1319 1325 1326 1330
4805 4 1319 1325 1326 1332
4806 3 1320 1318 1319 1325
4807 3 1321 1318 1319 1325
4808 3 1322 1319 1325 1326
4809 3 1322 1319 1325 1327
4810 3 1322 1319 1325 1328
4811 3 1323 1319 1325 1326
4812 3 1323 1319 1325 1327
4813 3 1323 1319 1325 1328
4814 2 1324 1331 1338 1345
4815 4 1325 1326 1332 1333
4816 3 1325 1326 1332 1334
4817 3 1325 1326 1332 1335
4818 3 1326 1332 1333 1336
4819 3 1326 1332 1333 1337
4820 4 1326 1332 1333 1339
4821 3 1327 1325 1326 1332
4822 3 1328 1325 1326 1332
4823 3 1329 1326 1332 1333
4824 3 1329 1326 1332 1334
4825 3 1329 1326 1332 1335
4826 3 1330 1326 1332 1333
4827 3 1330 1326 1332 1334
4828 3 1330 1326 1332 1335
4829 2 1331 1338 1345 1352
4830 4 1332 1333 1339 1340
4831 3 1332 1333 1339 1341
4832 3 1332 1333 1339 1342
4833 3 1333 1339 1340 1343
4834 3 1333 1339 1340 1344
4835 4 1333 1339 1340 1346
4836 3 1334 1332 1333 1339
4837 3 1335 1332 1333 1339
4838 3 1336 1333 1339 1340
4839 3 1336 1333 1339 1341
4840 3 1336 1333 1339 1342
4841 3 1337 1333 1339 1340
4842 3 1337 1333 1339 1341
4843 3 1337 1333 1339 1342
4844 2 1338 1345 1352 1359
4845 4 1339 1340 1346 1347
4846 3 1339 1340 1346 1348
4847 3 1339 1340 1346 1349
4848 3 1340 1346 1347 1350
4849 3 1340 1346 1347 1351
4850 4 1340 1346 1347 1353
4851 3 1341 1339 1340 1346
4852 3 1342 1339 1340 1346
4853 3 1343 1340 1346 1347
4854 3 1343 1340 1346 1348
4855 3 1343 1340 1346 1349
4856 3 1344 1340 1346 1347
4857 3 1344 1340 1346 1348
4858 3 1344 1340 1346 1349
4859 2 1345 1352 1359 1366
4860 4 1346 1347 1353 1354
4861 3 1346 1347 1353 1355
4862 3 1346 1347 1353 1356
4863 3 1347 1353 1354 1357
4864 3 1347 1353 1354 1358
4865 4 1347 1353 1354 1360
4866 3 1348 1346 1347 1353
4867 3 1349 1346 1347 1353
4868 3 1350 1347 1353 1354
4869 3 1350 1347 1353 1355
4870 3 1350 1347 1353 1356
4871 3 1351 1347 1353 1354
4872 3 1351 1347 1353 1355
4873 3 1351 1347 1353 1356
4874 2 1352 1359 1366 1373
4875 4 1353 1354 1360 1361
4876 3 1353 1354 1360 1362
4877 3 1353 1354 1360 1363
4878 3 1354 1360 1361 1364
4879 3 1354 1360 1361 1365
4880 4 1354 1360 1361 1367
4881 3 1355 1353 1354 1360
4882 3 1356 1353 1354 1360
4883 3 1357 1354 1360 1361
4884 3 1357 1354 1360 1362
4885 3 1357 1354 1360 1363
4886 3 1358 1354 1360 1361
4887 3 1358 1354 1360 1362
4888 3 1358 1354 1360 1363
4889 2 1359 1366 1373 1380
4890 4 1360 1361 1367 1368
4891 3 1360 1361 1367 1369
4892 3 1360 1361 1367 1370
4893 3 1361 1367 1368 1371
4894 3 1361 1367 1368 1372
4895 4 1361 1367 1368 1374
4896 3 1362 1360 1361 1367
4897 3 1363 1360 1361 1367
4898 3 1364 1361 1367 1368
4899 3 1364 1361 1367 1369
4900 3 1364 1361 1367 1370
4901 3 1365 1361 1367 1368
4902 3 1365 1361 1367 1369
4903 3 1365 1361 1367 1370
4904 2 1366 1373 1380 1387
4905 4 1367 1368 1374 1375
4906 3 1367 1368 1374 1376
4907 3 1367 1368 1374 1377
4908 3 1368 1374 1375 1378
4909 3 1368 1374 1375 1379
4910 4 1368 1374 1375 1381
4911 3 1369 1367 1368 1374
4912 3 1370 1367 1368 1374
4913 3 1371 1368 1374 1375
4914 3 1371 1368 1374 1376
4915 3 1371 1368 1374 1377
4916 3 1372 1368 1374 1375
4917 3 1372 1368 1374 1376
4918 3 1372 1368 1374 1377
4919 2 1373 1380 1387 1394
4920 4 1374 1375 1381 1382
4921 3 1374 1375 1381 1383
4922 3 1374 1375 1381 1384
4923 3 1375 1381 1382 1385
4924 3 1375 1381 1382 1386
4925 4 1375 1381 1382 1388
4926 3 1376 1374 1375 1381
4927 3 1377 1374 1375 1381
4928 3 1378 1375 1381 1382
4929 3 1378 1375 1381 1383
4930 3 1378 1375 1381 1384
4931 3 1379 1375 1381 1382
4932 3 1379 1375 1381 1383
4933 3 1379 1375 1381 1384
4934 2 1380 1387 1394 1401
4935 4 1381 1382 1388 1389
4936 3 1381 1382 1388 1390
4937 3 1381 1382 1388 1391
4938 3 1382 1388 1389 1392
4939 3 1382 1388 1389 1393
4940 4 1382 1388 1389 1395
4941 3 1383 1381 1382 1388
4942 3 1384 1381 1382 1388
4943 3 1385 1382 1388 1389
4944 3 1385 1382 1388 1390
4945 3 1385 1382 1388 1391
4946 3 1386 1382 1388 1389
4947 3 1386 1382 1388 1390
4948 3 1386 1382 1388 1391
4949 4 1388 1389 1395 1396
4950 3 1388 1389 1395 1397
4951 3 1388 1389 1395 1398
4952 3 1389 1395 1396 1399
4953 3 1389 1395 1396 1400
4954 4 1389 1395 1396 1402
4955 3 1390 1388 1389 1395
4956 3 1391 1388 1389 1395
4957 3 1392 1389 1395 1396
4958 3 1392 1389 1395 1397
4959 3 1392 1389 1395 1398
4960 3 1393 1389 1395 1396
4961 3 1393 1389 1395 1397
4962 3 1393 1389 1395 1398
4963 4 1395 1396 1402 1403
4964 3 1395 1396 1402 1404
4965 3 1395 1396 1402 1405
4966 3 1396 1402 1403 1406
4967 3 1396 1402 1403 1407
4968 3 1396 1402 1403 1408
4969 3 1397 1395 1396 1402
4970 3 1398 1395 1396 1402
4971 3 1399 1396 1402 1403
4972 3 1399 1396 1402 1404
4973 3 1399 1396 1402 1405
4974 3 1400 1396 1402 1403
4975 3 1400 1396 1402 1404
4976 3 1400 1396 1402 1405
4977 2 1409 1417 1424 1431
4978 3 1410 1418 1419 1422
4979 3 1410 1418 1419 1423
4980 4 1410 1418 1419 1425
4981 4 1411 1410 1418 1419
4982 3 1411 1410 1418 1420
4983 3 1411 1410 1418 1421
4984 3 1412 1410 1418 1419
4985 3 1412 1410 1418 1420
4986 3 1412 1410 1418 1421
4987 3 1413 1410 1418 1419
4988 3 1413 1410 1418 1420
4989 3 1413 1410 1418 1421
4990 2 1417 1424 1431 1438
4991 3 1418 1410 1411 1414
4992 3 1418 1410 1411 1415
4993 3 1418 1410 1411 1416
4994 4 1418 1419 1425 1426
4995 3 1418 1419 1425 1427
4996 3 1418 1419 1425 1428
4997 3 1419 1425 1426 1429
4998 3 1419 1425 1426 1430
4999 4 1419 1425 1426 1432
5000 3 1420 1418 1419 1425
5001 3 1421 1418 1419 1425
5002 3 1422 1419 1425 1426
5003 3 1422 1419 1425 1427
5004 3 1422 1419 1425 1428
5005 3 1423 1419 1425 1426
5006 3 1423 1419 1425 1427
5007 3 1423 1419 1425 1428
5008 2 1424 1431 1438 1445
5009 4 1425 1426 1432 1433
5010 3 1425 1426 1432 1434
5011 3 1425 1426 1432 1435
5012 3 1426 1432 1433 1436
5013 3 1426 1432 1433 1437
5014 4 1426 1432 1433 1439
5015 3 1427 1425 1426 1432
5016 3 1428 1425 1426 1432
5017 3 1429 1426 1432 1433
5018 3 1429 1426 1432 1434
5019 3 1429 1426 1432 1435
5020 3 1430 1426 1432 1433
5021 3 1430 1426 1432 1434
5022 3 1430 1426 1432 1435
5023 2 1431 1438 1445 1452
5024 4 1432 1433 1439 1440
5025 3 1432 1433 1439 1441
5026 3 1432 1433 1439 1442
5027 3 1433 1439 1440 1443
5028 3 1433 1439 1440 1444
5029 4 1433 1439 1440 1446
5030 3 1434 1432 1433 1439
5031 3 1435 1432 1433 1439
5032 3 1436 1433 1439 1440
5033 3 1436 1433 1439 1441
5034 3 1436 1433 1439 1442
5035 3 1437 1433 1439 1440
5036 3 1437 1433 1439 1441
5037 3 1437 1433 1439 1442
5038 2 1438 1445 1452 1459
5039 4 1439 1440 1446 1447
5040 3 1439 1440 1446 1448
5041 3 1439 1440 1446 1449
5042 3 1440 1446 1447 1450
5043 3 1440 1446 1447 1451
5044 4 1440 1446 1447 1453
5045 3 1441 1439 1440 1446
5046 3 1442 1439 1440 1446
5047 3 1443 1440 1446 1447
5048 3 1443 1440 1446 1448
5049 3 1443 1440 1446 1449
5050 3 1444 1440 1446 1447
5051 3 1444 1440 1446 1448
5052 3 1444 1440 1446 1449
5053 2 1445 1452 1459 1466
5054 4 1446 1447 1453 1454
5055 3 1446 1447 1453 1455
5056 3 1446 1447 1453 1456
5057 3 1447 1453 1454 1457
5058 3 1447 1453 1454 1458
5059 4 1447 1453 1454 1460
5060 3 1448 1446 1447 1453
5061 3 1449 1446 1447 1453
5062 3 1450 1447 1453 1454
5063 3 1450 1447 1453 1455
5064 3 1450 1447 1453 1456
5065 3 1451 1447 1453 1454
5066 3 1451 1447 1453 1455
5067 3 1451 1447 1453 1456
5068 2 1452 1459 1466 1473
5069 4 1453 1454 1460 1461
5070 3 1453 1454 1460 1462
5071 3 1453 1454 1460 1463
5072 3 1454 1460 1461 1464
5073 3 1454 1460 1461 1465
5074 4 1454 1460 1461 1467
5075 3 1455 1453 1454 1460
5076 3 1456 1453 1454 1460
5077 3 1457 1454 1460 1461
5078 3 1457 1454 1460 1462
5079 3 1457 1454 1460 1463
5080 3 1458 1454 1460 1461
5081 3 1458 1454 1460 1462
5082 3 1458 1454 1460 1463
5083 2 1459 1466 1473 1480
5084 4 1460 1461 1467 1468
5085 3 1460 1461 1467 1469
5086 3 1460 1461 1467 1470
5087 3 1461 1467 1468 1471
5088 3 1461 1467 1468 1472
5089 4 1461 1467 1468 1474
5090 3 1462 1460 1461 1467
5091 3 1463 1460 1461 1467
5092 3 1464 1461 1467 1468
5093 3 1464 1461 1467 1469
5094 3 1464 1461 1467 1470
5095 3 1465 1461 1467 1468
5096 3 1465 1461 1467 1469
5097 3 1465 1461 1467 1470
5098 2 1466 1473 1480 1487
5099 4 1467 1468 1474 1475
5100 3 1467 1468 1474 1476
5101 3 1467 1468 1474 1477
5102 3 1468 1474 1475 1478
5103 3 1468 1474 1475 1479
5104 4 1468 1474 1475 1481
5105 3 1469 1467 1468 1474
5106 3 1470 1467 1468 1474
5107 3 1471 1468 1474 1475
5108 3 1471 1468 1474 1476
5109 3 1471 1468 1474 1477
5110 3 1472 1468 1474 1475
5111 3 1472 1468 1474 1476
5112 3 1472 1468 1474 1477
5113 2 1473 1480 1487 1494
5114 4 1474 1475 1481 1482
5115 3 1474 1475 1481 1483
5116 3 1474 1475 1481 1484
5117 3 1475 1481 1482 1485
5118 3 1475 1481 1482 1486
5119 4 1475 1481 1482 1488
5120 3 1476 1474 1475 1481
5121 3 1477 1474 1475 1481
5122 3 1478 1475 1481 1482
5123 3 1478 1475 1481 1483
5124 3 1478 1475 1481 1484
5125 3 1479 1475 1481 1482
5126 3 1479 1475 1481 1483
5127 3 1479 1475 1481 1484
5128 2 1480 1487 1494 1501
5129 4 1481 1482 1488 1489
5130 3 1481 1482 1488 1490
5131 3 1481 1482 1488 1491
5132 3 1482 1488 1489 1492
5133 3 1482 1488 1489 1493
5134 4 1482 1488 1489 1495
5135 3 1483 1481 1482 1488
5136 3 1484 1481 1482 1488
5137 3 1485 1482 1488 1489
5138 3 1485 1482 1488 1490
5139 3 1485 1482 1488 1491
5140 3 1486 1482 1488 1489
5141 3 1486 1482 1488 1490
5142 3 1486 1482 1488 1491
5143 2 1487 1494 1501 1508
5144 4 1488 1489 1495 1496
5145 3 1488 1489 1495 1497
5146 3 1488 1489 1495 1498
5147 3 1489 1495 1496 1499
5148 3 1489 1495 1496 1500
5149 4 1489 1495 1496 1502
5150 3 1490 1488 1489 1495
5151 3 1491 1488 1489 1495
5152 3 1492 1489 1495 1496
5153 3 1492 1489 1495 1497
5154 3 1492 1489 1495 1498
5155 3 1493 1489 1495 1496
5156 3 1493 1489 1495 1497
5157 3 1493 1489 1495 1498
5158 2 1494 1501 1508 1515
5159 4 1495 1496 1502 1503
5160 3 1495 1496 1502 1504
5161 3 1495 1496 1502 1505
5162 3 1496 1502 1503 1506
5163 3 1496 1502 1503 1507
5164 4 1496 1502 1503 1509
5165 3 1497 1495 1496 1502
5166 3 1498 1495 1496 1502
5167 3 1499 1496 1502 1503
5168 3 1499 1496 1502 1504
5169 3 1499 1496 1502 1505
5170 3 1500 1496 1502 1503
5171 3 1500 1496 1502 1504
5172 3 1500 1496 1502 1505
5173 2 1501 1508 1515 1522
5174 4 1502 1503 1509 1510
5175 3 1502 1503 1509 1511
5176 3 1502 1503 1509 1512
5177 3 1503 1509 1510 1513
5178 3 1503 1509 1510 1514
5179 4 1503 1509 1510 1516
5180 3 1504 1502 1503 1509
5181 3 1505 1502 1503 1509
5182 3 1506 1503 1509 1510
5183 3 1506 1503 1509 1511
5184 3 1506 1503 1509 1512
5185 3 1507 1503 1509 1510
5186 3 1507 1503 1509 1511
5187 3 1507 1503 1509 1512
5188 2 1508 1515 1522 1529
5189 4 1509 1510 1516 1517
5190 3 1509 1510 1516 1518
5191 3 1509 1510 1516 1519
5192 3 1510 1516 1517 1520
5193 3 1510 1516 1517 1521
5194 4 1510 1516 1517 1523
5195 3 1511 1509 1510 1516
5196 3 1512 1509 1510 1516
5197 3 1513 1510 1516 1517
5198 3 1513 1510 1516 1518
5199 3 1513 1510 1516 1519
5200 3 1514 1510 1516 1517
5201 3 1514 1510 1516 1518
5202 3 1514 1510 1516 1519
5203 2 1515 1522 1529 1536
5204 4 1516 1517 1523 1524
5205 3 1516 1517 1523 1525
5206 3 1516 1517 1523 1526
5207 3 1517 1523 1524 1527
5208 3 1517 1523 1524 1528
5209 4 1517 1523 1524 1530
5210 3 1518 1516 1517 1523
5211 3 1519 1516 1517 1523
5212 3 1520 1517 1523 1524
5213 3 1520 1517 1523 1525
5214 3 1520 1517 1523 1526
5215 3 1521 1517 1523 1524
5216 3 1521 1517 1523 1525
5217 3 1521 1517 1523 1526
5218 2 1522 1529 1536 1543
5219 4 1523 1524 1530 1531
5220 3 1523 1524 1530 1532
5221 3 1523 1524 1530 1533
5222 3 1524 1530 1531 1534
5223 3 1524 1530 1531 1535
5224 4 1524 1530 1531 1537
5225 3 1525 1523 1524 1530
5226 3 1526 1523 1524 1530
5227 3 1527 1524 1530 1531
5228 3 1527 1524 1530 1532
5229 3 1527 1524 1530 1533
5230 3 1528 1524 1530 1531
5231 3 1528 1524 1530 1532
5232 3 1528 1524 1530 1533
5233 2 1529 1536 1543 1550
5234 4 1530 1531 1537 1538
5235 3 1530 1531 1537 1539
5236 3 1530 1531 1537 1540
5237 3 1531 1537 1538 1541
5238 3 1531 1537 1538 1542
5239 4 1531 1537 1538 1544
5240 3 1532 1530 1531 1537
5241 3 1533 1530 1531 1537
5242 3 1534 1531 1537 1538
5243 3 1534 1531 1537 1539
5244 3 1534 1531 1537 1540
5245 3 1535 1531 1537 1538
5246 3 1535 1531 1537 1539
5247 3 1535 1531 1537 1540
5248 2 1536 1543 1550 1557
5249 4 1537 1538 1544 1545
5250 3 1537 1538 1544 1546
5251 3 1537 1538 1544 1547
5252 3 1538 1544 1545 1548
5253 3 1538 1544 1545 1549
5254 4 1538 1544 1545 1551
5255 3 1539 1537 1538 1544
5256 3 1540 1537 1538 1544
5257 3 1541 1538 1544 1545
5258 3 1541 1538 1544 1546
5259 3 1541 1538 1544 1547
5260 3 1542 1538 1544 1545
5261 3 1542 1538 1544 1546
5262 3 1542 1538 1544 1547
5263 2 1543 1550 1557 1564
5264 4 1544 1545 1551 1552
5265 3 1544 1545 1551 1553
5266 3 1544 1545 1551 1554
5267 3 1545 1551 1552 1555
5268 3 1545 1551 1552 1556
5269 4 1545 1551 1552 1558
5270 3 1546 1544 1545 1551
5271 3 1547 1544 1545 1551
5272 3 1548 1545 1551 1552
5273 3 1548 1545 1551 1553
5274 3 1548 1545 1551 1554
5275 3 1549 1545 1551 1552
5276 3 1549 1545 1551 1553
5277 3 1549 1545 1551 1554
5278 2 1550 1557 1564 1571
5279 4 1551 1552 1558 1559
5280 3 1551 1552 1558 1560
5281 3 1551 1552 1558 1561
5282 3 1552 1558 1559 1562
5283 3 1552 1558 1559 1563
5284 4 1552 1558 1559 1565
5285 3 1553 1551 1552 1558
5286 3 1554 1551 1552 1558
5287 3 1555 1552 1558 1559
5288 3 1555 1552 1558 1560
5289 3 1555 1552 1558 1561
5290 3 1556 1552 1558 1559
5291 3 1556 1552 1558 1560
5292 3 1556 1552 1558 1561
5293 2 1557 1564 1571 1578
5294 4 1558 1559 1565 1566
5295 3 1558 1559 1565 1567
5296 3 1558 1559 1565 1568
5297 3 1559 1565 1566 1569
5298 3 1559 1565 1566 1570
5299 4 1559 1565 1566 1572
5300 3 1560 1558 1559 1565
5301 3 1561 1558 1559 1565
5302 3 1562 1559 1565 1566
5303 3 1562 1559 1565 1567
5304 3 1562 1559 1565 1568
5305 3 1563 1559 1565 1566
5306 3 1563 1559 1565 1567
5307 3 1563 1559 1565 1568
5308 2 1564 1571 1578 1585
5309 4 1565 1566 1572 1573
5310 3 1565 1566 1572 1574
5311 3 1565 1566 1572 1575
5312 3 1566 1572 1573 1576
5313 3 1566 1572 1573 1577
5314 4 1566 1572 1573 1579
5315 3 1567 1565 1566 1572
5316 3 1568 1565 1566 1572
5317 3 1569 1566 1572 1573
5318 3 1569 1566 1572 1574
5319 3 1569 1566 1572 1575
5320 3 1570 1566 1572 1573
5321 3 1570 1566 1572 1574
5322 3 1570 1566 1572 1575
5323 2 1571 1578 1585 1592
5324 4 1572 1573 1579 1580
5325 3 1572 1573 1579 1581
5326 3 1572 1573 1579 1582
5327 3 1573 1579 1580 1583
5328 3 1573 1579 1580 1584
5329 4 1573 1579 1580 1586
5330 3 1574 1572 1573 1579
5331 3 1575 1572 1573 1579
5332 3 1576 1573 1579 1580
5333 3 1576 1573 1579 1581
5334 3 1576 1573 1579 1582
5335 3 1577 1573 1579 1580
5336 3 1577 1573 1579 1581
5337 3 1577 1573 1579 1582
5338 2 1578 1585 1592 1599
5339 4 1579 1580 1586 1587
5340 3 1579 1580 1586 1588
5341 3 1579 1580 1586 1589
5342 3 1580 1586 1587 1590
5343 3 1580 1586 1587 1591
5344 4 1580 1586 1587 1593
5345 3 1581 1579 1580 1586
5346 3 1582 1579 1580 1586
5347 3 1583 1580 1586 1587
5348 3 1583 1580 1586 1588
5349 3 1583 1580 1586 1589
5350 3 1584 1580 1586 1587
5351 3 1584 1580 1586 1588
5352 3 1584 1580 1586 1589
5353 2 1585 1592 1599 1606
5354 4 1586 1587 1593 1594
5355 3 1586 1587 1593 1595
5356 3 1586 1587 1593 1596
5357 3 1587 1593 1594 1597
5358 3 1587 1593 1594 1598
5359 4 1587 1593 1594 1600
5360 3 1588 1586 1587 1593
5361 3 1589 1586 1587 1593
5362 3 1590 1587 1593 1594
5363 3 1590 1587 1593 1595
5364 3 1590 1587 1593 1596
5365 3 1591 1587 1593 1594
5366 3 1591 1587 1593 1595
5367 3 1591 1587 1593 1596
5368 2 1592 1599 1606 1613
5369 4 1593 1594 1600 1601
5370 3 1593 1594 1600 1602
5371 3 1593 1594 1600 1603
5372 3 1594 1600 1601 1604
5373 3 1594 1600 1601 1605
5374 4 1594 1600 1601 1607
5375 3 1595 1593 1594 1600
5376 3 1596 1593 1594 1600
5377 3 1597 1594 1600 1601
5378 3 1597 1594 1600 1602
5379 3 1597 1594 1600 1603
5380 3 1598 1594 1600 1601
5381 3 1598 1594 1600 1602
5382 3 1598 1594 1600 1603
5383 2 1599 1606 1613 1620
5384 4 1600 1601 1607 1608
5385 3 1600 1601 1607 1609
5386 3 1600 1601 1607 1610
5387 3 1601 1607 1608 1611
5388 3 1601 1607 1608 1612
5389 4 1601 1607 1608 1614
5390 3 1602 1600 1601 1607
5391 3 1603 1600 1601 1607
5392 3 1604 1601 1607 1608
5393 3 1604 1601 1607 1609
5394 3 1604 1601 1607 1610
5395 3 1605 1601 1607 1608
5396 3 1605 1601 1607 1609
5397 3 1605 1601 1607 1610
5398 2 1606 1613 1620 1627
5399 4 1607 1608 1614 1615
5400 3 1607 1608 1614 1616
5401 3 1607 1608 1614 1617
5402 3 1608 1614 1615 1618
5403 3 1608 1614 1615 1619
5404 4 1608 1614 1615 1621
5405 3 1609 1607 1608 1614
5406 3 1610 1607 1608 1614
5407 3 1611 1608 1614 1615
5408 3 1611 1608 1614 1616
5409 3 1611 1608 1614 1617
5410 3 1612 1608 1614 1615
5411 3 1612 1608 1614 1616
5412 3 1612 1608 1614 1617
5413 2 1613 1620 1627 1634
5414 4 1614 1615 1621 1622
5415 3 1614 1615 1621 1623
5416 3 1614 1615 1621 1624
5417 3 1615 1621 1622 1625
5418 3 1615 1621 1622 1626
5419 4 1615 1621 1622 1628
5420 3 1616 1614 1615 1621
5421 3 1617 1614 1615 1621
5422 3 1618 1615 1621 1622
5423 3 1618 1615 1621 1623
5424 3 1618 1615 1621 1624
5425 3 1619 1615 1621 1622
5426 3 1619 1615 1621 1623
5427 3 1619 1615 1621 1624
5428 2 1620 1627 1634 1641
5429 4 1621 1622 1628 1629
5430 3 1621 1622 1628 1630
5431 3 1621 1622 1628 1631
5432 3 1622 1628 1629 1632
5433 3 1622 1628 1629 1633
5434 4 1622 1628 1629 1635
5435 3 1623 1621 1622 1628
5436 3 1624 1621 1622 1628
5437 3 1625 1622 1628 1629
5438 3 1625 1622 1628 1630
5439 3 1625 1622 1628 1631
5440 3 1626 1622 1628 1629
5441 3 1626 1622 1628 1630
5442 3 1626 1622 1628 1631
5443 2 1627 1634 1641 1648
5444 4 1628 1629 1635 1636
5445 3 1628 1629 1635 1637
5446 3 1628 1629 1635 1638
5447 3 1629 1635 1636 1639
5448 3 1629 1635 1636 1640
5449 4 1629 1635 1636 1642
5450 3 1630 1628 1629 1635
5451 3 1631 1628 1629 1635
5452 3 1632 1629 1635 1636
5453 3 1632 1629 1635 1637
5454 3 1632 1629 1635 1638
5455 3 1633 1629 1635 1636
5456 3 1633 1629 1635 1637
5457 3 1633 1629 1635 1638
5458 2 1634 1641 1648 1655
5459 4 1635 1636 1642 1643
5460 3 1635 1636 1642 1644
5461 3 1635 1636 1642 1645
5462 3 1636 1642 1643 1646
5463 3 1636 1642 1643 1647
5464 4 1636 1642 1643 1649
5465 3 1637 1635 1636 1642
5466 3 1638 1635 1636 1642
5467 3 1639 1636 1642 1643
5468 3 1639 1636 1642 1644
5469 3 1639 1636 1642 1645
5470 3 1640 1636 1642 1643
5471 3 1640 1636 1642 1644
5472 3 1640 1636 1642 1645
5473 2 1641 1648 1655 1662
5474 4 1642 1643 1649 1650
5475 3 1642 1643 1649 1651
5476 3 1642 1643 1649 1652
5477 3 1643 1649 1650 1653
5478 3 1643 1649 1650 1654
5479 4 1643 1649 1650 1656
5480 3 1644 1642 1643 1649
5481 3 1645 1642 1643 1649
5482 3 1646 1643 1649 1650
5483 3 1646 1643 1649 1651
5484 3 1646 1643 1649 1652
5485 3 1647 1643 1649 1650
5486 3 1647 1643 1649 1651
5487 3 1647 1643 1649 1652
5488 2 1648 1655 1662 1669
5489 4 1649 1650 1656 1657
5490 3 1649 1650 1656 1658
5491 3 1649 1650 1656 1659
5492 3 1650 1656 1657 1660
5493 3 1650 1656 1657 1661
5494 4 1650 1656 1657 1663
5495 3 1651 1649 1650 1656
5496 3 1652 1649 1650 1656
5497 3 1653 1650 1656 1657
5498 3 1653 1650 1656 1658
5499 3 1653 1650 1656 1659
5500 3 1654 1650 1656 1657
5501 3 1654 1650 1656 1658
5502 3 1654 1650 1656 1659
5503 2 1655 1662 1669 1676
5504 4 1656 1657 1663 1664
5505 3 1656 1657 1663 1665
5506 3 1656 1657 1663 1666
5507 3 1657 1663 1664 1667
5508 3 1657 1663 1664 1668
5509 4 1657 1663 1664 1670
5510 3 1658 1656 1657 1663
5511 3 1659 1656 1657 1663
5512 3 1660 1657 1663 1664
5513 3 1660 1657 1663 1665
5514 3 1660 1657 1663 1666
5515 3 1661 1657 1663 1664
5516 3 1661 1657 1663 1665
5517 3 1661 1657 1663 1666
5518 2 1662 1669 1676 1683
5519 4 1663 1664 1670 1671
5520 3 1663 1664 1670 1672
5521 3 1663 1664 1670 1673
5522 3 1664 1670 1671 1674
5523 3 1664 1670 1671 1675
5524 4 1664 1670 1671 1677
5525 3 1665 1663 1664 1670
5526 3 1666 1663 1664 1670
5527 3 1667 1664 1670 1671
5528 3 1667 1664 1670 1672
5529 3 1667 1664 1670 1673
5530 3 1668 1664 1670 1671
5531 3 1668 1664 1670 1672
5532 3 1668 1664 1670 1673
5533 2 1669 1676 1683 1690
5534 4 1670 1671 1677 1678
5535 3 1670 1671 1677 1679
5536 3 1670 1671 1677 1680
5537 3 1671 1677 1678 1681
5538 3 1671 1677 1678 1682
5539 4 1671 1677 1678 1684
5540 3 1672 1670 1671 1677
5541 3 1673 1670 1671 1677
5542 3 1674 1671 1677 1678
5543 3 1674 1671 1677 1679
5544 3 1674 1671 1677 1680
5545 3 1675 1671 1677 1678
5546 3 1675 1671 1677 1679
5547 3 1675 1671 1677 1680
5548 2 1676 1683 1690 1697
5549 4 1677 1678 1684 1685
5550 3 1677 1678 1684 1686
5551 3 1677 1678 1684 1687
5552 3 1678 1684 1685 1688
5553 3 1678 1684 1685 1689
5554 4 1678 1684 1685 1691
5555 3 1679 1677 1678 1684
5556 3 1680 1677 1678 1684
5557 3 1681 1678 1684 1685
5558 3 1681 1678 1684 1686
5559 3 1681 1678 1684 1687
5560 3 1682 1678 1684 1685
5561 3 1682 1678 1684 1686
5562 3 1682 1678 1684 1687
5563 2 1683 1690 1697 1704
5564 4 1684 1685 1691 1692
5565 3 1684 1685 1691 1693
5566 3 1684 1685 1691 1694
5567 3 1685 1691 1692 1695
5568 3 1685 1691 1692 1696
5569 4 1685 1691 1692 1698
5570 3 1686 1684 1685 1691
5571 3 1687 1684 1685 1691
5572 3 1688 1685 1691 1692
5573 3 1688 1685 1691 1693
5574 3 1688 1685 1691 1694
5575 3 1689 1685 1691 1692
5576 3 1689 1685 1691 1693
5577 3 1689 1685 1691 1694
5578 2 1690 1697 1704 1711
5579 4 1691 1692 1698 1699
5580 3 1691 1692 1698 1700
5581 3 1691 1692 1698 1701
5582 3 1692 1698 1699 1702
5583 3 1692 1698 1699 1703
5584 4 1692 1698 1699 1705
5585 3 1693 1691 1692 1698
5586 3 1694 1691 1692 1698
5587 3 1695 1692 1698 1699
5588 3 1695 1692 1698 1700
5589 3 1695 1692 1698 1701
5590 3 1696 1692 1698 1699
5591 3 1696 1692 1698 1700
5592 3 1696 1692 1698 1701
5593 2 1697 1704 1711 1718
5594 4 1698 1699 1705 1706
5595 3 1698 1699 1705 1707
5596 3 1698 1699 1705 1708
5597 3 1699 1705 1706 1709
5598 3 1699 1705 1706 1710
5599 4 1699 1705 1706 1712
5600 3 1700 1698 1699 1705
5601 3 1701 1698 1699 1705
5602 3 1702 1699 1705 1706
5603 3 1702 1699 1705 1707
5604 3 1702 1699 1705 1708
5605 3 1703 1699 1705 1706
5606 3 1703 1699 1705 1707
5607 3 1703 1699 1705 1708
5608 2 1704 1711 1718 1725
5609 4 1705 1706 1712 1713
5610 3 1705 1706 1712 1714
5611 3 1705 1706 1712 1715
5612 3 1706 1712 1713 1716
5613 3 1706 1712 1713 1717
5614 4 1706 1712 1713 1719
5615 3 1707 1705 1706 1712
5616 3 1708 1705 1706 1712
5617 3 1709 1706 1712 1713
5618 3 1709 1706 1712 1714
5619 3 1709 1706 1712 1715
5620 3 1710 1706 1712 1713
5621 3 1710 1706 1712 1714
5622 3 1710 1706 1712 1715
5623 2 1711 1718 1725 1732
5624 4 1712 1713 1719 1720
5625 3 1712 1713 1719 1721
5626 3 1712 1713 1719 1722
5627 3 1713 1719 1720 1723
5628 3 1713 1719 1720 1724
5629 4 1713 1719 1720 1726
5630 3 1714 1712 1713 1719
5631 3 1715 1712 1713 1719
5632 3 1716 1713 1719 1720
5633 3 1716 1713 1719 1721
5634 3 1716 1713 1719 1722
5635 3 1717 1713 1719 1720
5636 3 1717 1713 1719 1721
5637 3 1717 1713 1719 1722
5638 2 1718 1725 1732 1739
5639 4 1719 1720 1726 1727
5640 3 1719 1720 1726 1728
5641 3 1719 1720 1726 1729
5642 3 1720 1726 1727 1730
5643 3 1720 1726 1727 1731
5644 4 1720 1726 1727 1733
5645 3 1721 1719 1720 1726
5646 3 1722 1719 1720 1726
5647 3 1723 1720 1726 1727
5648 3 1723 1720 1726 1728
5649 3 1723 1720 1726 1729
5650 3 1724 1720 1726 1727
5651 3 1724 1720 1726 1728
5652 3 1724 1720 1726 1729
5653 2 1725 1732 1739 1746
5654 4 1726 1727 1733 1734
5655 3 1726 1727 1733 1735
5656 3 1726 1727 1733 1736
5657 3 1727 1733 1734 1737
5658 3 1727 1733 1734 1738
5659 4 1727 1733 1734 1740
5660 3 1728 1726 1727 1733
5661 3 1729 1726 1727 1733
5662 3 1730 1727 1733 1734
5663 3 1730 1727 1733 1735
5664 3 1730 1727 1733 1736
5665 3 1731 1727 1733 1734
5666 3 1731 1727 1733 1735
5667 3 1731 1727 1733 1736
5668 2 1732 1739 1746 1753
5669 4 1733 1734 1740 1741
5670 3 1733 1734 1740 1742
5671 3 1733 1734 1740 1743
5672 3 1734 1740 1741 1744
5673 3 1734 1740 1741 1745
5674 4 1734 1740 1741 1747
5675 3 1735 1733 1734 1740
5676 3 1736 1733 1734 1740
5677 3 1737 1734 1740 1741
5678 3 1737 1734 1740 1742
5679 3 1737 1734 1740 1743
5680 3 1738 1734 1740 1741
5681 3 1738 1734 1740 1742
5682 3 1738 1734 1740 1743
5683 4 1740 1741 1747 1748
5684 3 1740 1741 1747 1749
5685 3 1740 1741 1747 1750
5686 3 1741 1747 1748 1751
5687 3 1741 1747 1748 1752
5688 4 1741 1747 1748 1754
5689 3 1742 1740 1741 1747
5690 3 1743 1740 1741 1747
5691 3 1744 1741 1747 1748
5692 3 1744 1741 1747 1749
5693 3 1744 1741 1747 1750
5694 3 1745 1741 1747 1748
5695 3 1745 1741 1747 1749
5696 3 1745 1741 1747 1750
5697 4 1747 1748 1754 1755
5698 3 1747 1748 1754 1756
5699 3 1747 1748 1754 1757
5700 3 1748 1754 1755 1758
5701 3 1748 1754 1755 1759
5702 3 1748 1754 1755 1760
5703 3 1749 1747 1748 1754
5704 3 1750 1747 1748 1754
5705 3 1751 1748 1754 1755
5706 3 1751 1748 1754 1756
5707 3 1751 1748 1754 1757
5708 3 1752 1748 1754 1755
5709 3 1752 1748 1754 1756
5710 3 1752 1748 1754 1757
5711 2 1761 1769 1776 1783
5712 3 1762 1770 1771 1774
5713 3 1762 1770 1771 1775
5714 4 1762 1770 1771 1777
5715 4 1763 1762 1770 1771
5716 3 1763 1762 1770 1772
5717 3 1763 1762 1770 1773
5718 3 1764 1762 1770 1771
5719 3 1764 1762 1770 1772
5720 3 1764 1762 1770 1773
5721 3 1765 1762 1770 1771
5722 3 1765 1762 1770 1772
5723 3 1765 1762 1770 1773
5724 2 1769 1776 1783 1790
5725 3 1770 1762 1763 1766
5726 3 1770 1762 1763 1767
5727 3 1770 1762 1763 1768
5728 4 1770 1771 1777 1778
5729 3 1770 1771 1777 1779
5730 3 1770 1771 1777 1780
5731 3 1771 1777 1778 1781
5732 3 1771 1777 1778 1782
5733 4 1771 1777 1778 1784
5734 3 1772 1770 1771 1777
5735 3 1773 1770 1771 1777
5736 3 1774 1771 1777 1778
5737 3 1774 1771 1777 1779
5738 3 1774 1771 1777 1780
5739 3 1775 1771 1777 1778
5740 3 1775 1771 1777 1779
5741 3 1775 1771 1777 1780
5742 2 1776 1783 1790 1797
5743 4 1777 1778 1784 1785
5744 3 1777 1778 1784 1786
5745 3 1777 1778 1784 1787
5746 3 1778 1784 1785 1788
5747 3 1778 1784 1785 1789
5748 4 1778 1784 1785 1791
5749 3 1779 1777 1778 1784
5750 3 1780 1777 1778 1784
5751 3 1781 1778 1784 1785
5752 3 1781 1778 1784 1786
5753 3 1781 1778 1784 1787
5754 3 1782 1778 1784 1785
5755 3 1782 1778 1784 1786
5756 3 1782 1778 1784 1787
5757 2 1783 1790 1797 1804
5758 4 1784 1785 1791 1792
5759 3 1784 1785 1791 1793
5760 3 1784 1785 1791 1794
5761 3 1785 1791 1792 1795
5762 3 1785 1791 1792 1796
5763 4 1785 1791 1792 1798
5764 3 1786 1784 1785 1791
5765 3 1787 1784 1785 1791
5766 3 1788 1785 1791 1792
5767 3 1788 1785 1791 1793
5768 3 1788 1785 1791 1794
5769 3 1789 1785 1791 1792
5770 3 1789 1785 1791 1793
5771 3 1789 1785 1791 1794
5772 2 1790 1797 1804 1811
5773 4 1791 1792 1798 1799
5774 3 1791 1792 1798 1800
5775 3 1791 1792 1798 1801
5776 3 1792 1798 1799 1802
5777 3 1792 1798 1799 1803
5778 4 1792 1798 1799 1805
5779 3 1793 1791 1792 1798
5780 3 1794 1791 1792 1798
5781 3 1795 1792 1798 1799
5782 3 1795 1792 1798 1800
5783 3 1795 1792 1798 1801
5784 3 1796 1792 1798 1799
5785 3 1796 1792 1798 1800
5786 3 1796 1792 1798 1801
5787 2 1797 1804 1811 1818
5788 4 1798 1799 1805 1806
5789 3 1798 1799 1805 1807
5790 3 1798 1799 1805 1808
5791 3 1799 1805 1806 1809
5792 3 1799 1805 1806 1810
5793 4 1799 1805 1806 1812
5794 3 1800 1798 1799 1805
5795 3 1801 1798 1799 1805
5796 3 1802 1799 1805 1806
5797 3 1802 1799 1805 1807
5798 3 1802 1799 1805 1808
5799 3 1803 1799 1805 1806
5800 3 1803 1799 1805 1807
5801 3 1803 1799 1805 1808
5802 2 1804 1811 1818 1825
5803 4 1805 1806 1812 1813
5804 3 1805 1806 1812 1814
5805 3 1805 1806 1812 1815
5806 3 1806 1812 1813 1816
5807 3 1806 1812 1813 1817
5808 4 1806 1812 1813 1819
5809 3 1807 1805 1806 1812
5810 3 1808 1805 1806 1812
5811 3 1809 1806 1812 1813
5812 3 1809 1806 1812 1814
5813 3 1809 1806 1812 1815
5814 3 1810 1806 1812 1813
5815 3 1810 1806 1812 1814
5816 3 1810 1806 1812 1815
5817 2 1811 1818 1825 1832
5818 4 1812 1813 1819 1820
5819 3 1812 1813 1819 1821
5820 3 1812 1813 1819 1822
5821 3 1813 1819 1820 1823
5822 3 1813 1819 1820 1824
5823 4 1813 1819 1820 1826
5824 3 1814 1812 1813 1819
5825 3 1815 1812 1813 1819
5826 3 1816 1813 1819 1820
5827 3 1816 1813 1819 1821
5828 3 1816 1813 1819 1822
5829 3 1817 1813 1819 1820
5830 3 1817 1813 1819 1821
5831 3 1817 1813 1819 1822
5832 2 1818 1825 1832 1839
5833 4 1819 1820 1826 1827
5834 3 1819 1820 1826 1828
5835 3 1819 1820 1826 1829
5836 3 1820 1826 1827 1830
5837 3 1820 1826 1827 1831
5838 4 1820 1826 1827 1833
5839 3 1821 1819 1820 1826
5840 3 1822 1819 1820 1826
5841 3 1823 1820 1826 1827
5842 3 1823 1820 1826 1828
5843 3 1823 1820 1826 1829
5844 3 1824 1820 1826 1827
5845 3 1824 1820 1826 1828
5846 3 1824 1820 1826 1829
5847 2 1825 1832 1839 1846
5848 4 1826 1827 1833 1834
5849 3 1826 1827 1833 1835
5850 3 1826 1827 1833 1836
5851 3 1827 1833 1834 1837
5852 3 1827 1833 1834 1838
5853 4 1827 1833 1834 1840
5854 3 1828 1826 1827 1833
5855 3 1829 1826 1827 1833
5856 3 1830 1827 1833 1834
5857 3 1830 1827 1833 1835
5858 3 1830 1827 1833 1836
5859 3 1831 1827 1833 1834
5860 3 1831 1827 1833 1835
5861 3 1831 1827 1833 1836
5862 2 1832 1839 1846 1853
5863 4 1833 1834 1840 1841
5864 3 1833 1834 1840 1842
5865 3 1833 1834 1840 1843
5866 3 1834 1840 1841 1844
5867 3 1834 1840 1841 1845
5868 4 1834 1840 1841 1847
5869 3 1835 1833 1834 1840
5870 3 1836 1833 1834 1840
5871 3 1837 1834 1840 1841
5872 3 1837 1834 1840 1842
5873 3 1837 1834 1840 1843
5874 3 1838 1834 1840 1841
5875 3 1838 1834 1840 1842
5876 3 1838 1834 1840 1843
5877 2 1839 1846 1853 1860
5878 4 1840 1841 1847 1848
5879 3 1840 1841 1847 1849
5880 3 1840 1841 1847 1850
5881 3 1841 1847 1848 1851
5882 3 1841 1847 1848 1852
5883 4 1841 1847 1848 1854
5884 3 1842 1840 1841 1847
5885 3 1843 1840 1841 1847
5886 3 1844 1841 1847 1848
5887 3 1844 1841 1847 1849
5888 3 1844 1841 1847 1850
5889 3 1845 1841 1847 1848
5890 3 1845 1841 1847 1849
5891 3 1845 1841 1847 1850
5892 2 1846 1853 1860 1867
5893 4 1847 1848 1854 1855
5894 3 1847 1848 1854 1856
5895 3 1847 1848 1854 1857
5896 3 1848 1854 1855 1858
5897 3 1848 1854 1855 1859
5898 4 1848 1854 1855 1861
5899 3 1849 1847 1848 1854
5900 3 1850 1847 1848 1854
5901 3 1851 1848 1854 1855
5902 3 1851 1848 1854 1856
5903 3 1851 1848 1854 1857
5904 3 1852 1848 1854 1855
5905 3 1852 1848 1854 1856
5906 3 1852 1848 1854 1857
5907 2 1853 1860 1867 1874
5908 4 1854 1855 1861 1862
5909 3 1854 1855 1861 1863
5910 3 1854 1855 1861 1864
5911 3 1855 1861 1862 1865
5912 3 1855 1861 1862 1866
5913 4 1855 1861 1862 1868
5914 3 1856 1854 1855 1861
5915 3 1857 1854 1855 1861
5916 3 1858 1855 1861 1862
5917 3 1858 1855 1861 1863
5918 3 1858 1855 1861 1864
5919 3 1859 1855 1861 1862
5920 3 1859 1855 1861 1863
5921 3 1859 1855 1861 1864
5922 2 1860 1867 1874 1881
5923 4 1861 1862 1868 1869
5924 3 1861 1862 1868 1870
5925 3 1861 1862 1868 1871
5926 3 1862 1868 1869 1872
5927 3 1862 1868 1869 1873
5928 4 1862 1868 1869 1875
5929 3 1863 1861 1862 1868
5930 3 1864 1861 1862 1868
5931 3 1865 1862 1868 1869
5932 3 1865 1862 1868 1870
5933 3 1865 1862 1868 1871
5934 3 1866 1862 1868 1869
5935 3 1866 1862 1868 1870
5936 3 1866 1862 1868 1871
5937 2 1867 1874 1881 1888
5938 4 1868 1869 1875 1876
5939 3 1868 1869 1875 1877
5940 3 1868 1869 1875 1878
5941 3 1869 1875 1876 1879
5942 3 1869 1875 1876 1880
5943 4 1869 1875 1876 1882
5944 3 1870 1868 1869 1875
5945 3 1871 1868 1869 1875
5946 3 1872 1869 1875 1876
5947 3 1872 1869 1875 1877
5948 3 1872 1869 1875 1878
5949 3 1873 1869 1875 1876
5950 3 1873 1869 1875 1877
5951 3 1873 1869 1875 1878
5952 2 1874 1881 1888 1895
5953 4 1875 1876 1882 1883
5954 3 1875 1876 1882 1884
5955 3 1875 1876 1882 1885
5956 3 1876 1882 1883 1886
5957 3 1876 1882 1883 1887
5958 4 1876 1882 1883 1889
5959 3 1877 1875 1876 1882
5960 3 1878 1875 1876 1882
5961 3 1879 1876 1882 1883
5962 3 1879 1876 1882 1884
5963 3 1879 1876 1882 1885
5964 3 1880 1876 1882 1883
5965 3 1880 1876 1882 1884
5966 3 1880 1876 1882 1885
5967 2 1881 1888 1895 1902
5968 4 1882 1883 1889 1890
5969 3 1882 1883 1889 1891
5970 3 1882 1883 1889 1892
5971 3 1883 1889 1890 1893
5972 3 1883 1889 1890 1894
5973 4 1883 1889 1890 1896
5974 3 1884 1882 1883 1889
5975 3 1885 1882 1883 1889
5976 3 1886 1883 1889 1890
5977 3 1886 1883 1889 1891
5978 3 1886 1883 1889 1892
5979 3 1887 1883 1889 1890
5980 3 1887 1883 1889 1891
5981 3 1887 1883 1889 1892
5982 2 1888 1895 1902 1909
5983 4 1889 1890 1896 1897
5984 3 1889 1890 1896 1898
5985 3 1889 1890 1896 1899
5986 3 1890 1896 1897 1900
5987 3 1890 1896 1897 1901
5988 4 1890 1896 1897 1903
5989 3 1891 1889 1890 1896
5990 3 1892 1889 1890 1896
5991 3 1893 1890 1896 1897
5992 3 1893 1890 1896 1898
5993 3 1893 1890 1896 1899
5994 3 1894 1890 1896 1897
5995 3 1894 1890 1896 1898
5996 3 1894 1890 1896 1899
5997 2 1895 1902 1909 1916
5998 4 1896 1897 1903 1904
5999 3 1896 1897 1903 1905
6000 3 1896 1897 1903 1906
6001 3 1897 1903 1904 1907
6002 3 1897 1903 1904 1908
6003 4 1897 1903 1904 1910
6004 3 1898 1896 1897 1903
6005 3 1899 1896 1897 1903
6006 3 1900 1897 1903 1904
6007 3 1900 1897 1903 1905
6008 3 1900 1897 1903 1906
6009 3 1901 1897 1903 1904
6010 3 1901 1897 1903 1905
6011 3 1901 1897 1903 1906
6012 2 1902 1909 1916 1923
6013 4 1903 1904 1910 1911
6014 3 1903 1904 1910 1912
6015 3 1903 1904 1910 1913
6016 3 1904 1910 1911 1914
6017 3 1904 1910 1911 1915
6018 4 1904 1910 1911 1917
6019 3 1905 1903 1904 1910
6020 3 1906 1903 1904 1910
6021 3 1907 1904 1910 1911
6022 3 1907 1904 1910 1912
6023 3 1907 1904 1910 1913
6024 3 1908 1904 1910 1911
6025 3 1908 1904 1910 1912
6026 3 1908 1904 1910 1913
6027 2 1909 1916 1923 1930
6028 4 1910 1911 1917 1918
6029 3 1910 1911 1917 1919
6030 3 1910 1911 1917 1920
6031 3 1911 1917 1918 1921
6032 3 1911 1917 1918 1922
6033 4 1911 1917 1918 1924
6034 3 1912 1910 1911 1917
6035 3 1913 1910 1911 1917
6036 3 1914 1911 1917 1918
6037 3 1914 1911 1917 1919
6038 3 1914 1911 1917 1920
6039 3 1915 1911 1917 1918
6040 3 1915 1911 1917 1919
6041 3 1915 1911 1917 1920
6042 2 1916 1923 1930 1937
6043 4 1917 1918 1924 1925
6044 3 1917 1918 1924 1926
6045 3 1917 1918 1924 1927
6046 3 1918 1924 1925 1928
6047 3 1918 1924 1925 1929
6048 4 1918 1924 1925 1931
6049 3 1919 1917 1918 1924
6050 3 1920 1917 1918 1924
6051 3 1921 1918 1924 1925
6052 3 1921 1918 1924 1926
6053 3 1921 1918 1924 1927
6054 3 1922 1918 1924 1925
6055 3 1922 1918 1924 1926
6056 3 1922 1918 1924 1927
6057 2 1923 1930 1937 1944
6058 4 1924 1925 1931 1932
6059 3 1924 1925 1931 1933
6060 3 1924 1925 1931 1934
6061 3 1925 1931 1932 1935
6062 3 1925 1931 1932 1936
6063 4 1925 1931 1932 1938
6064 3 1926 1924 1925 1931
6065 3 1927 1924 1925 1931
6066 3 1928 1925 1931 1932
6067 3 1928 1925 1931 1933
6068 3 1928 1925 1931 1934
6069 3 1929 1925 1931 1932
6070 3 1929 1925 1931 1933
6071 3 1929 1925 1931 1934
6072 2 1930 1937 1944 1951
6073 4 1931 1932 1938 1939
6074 3 1931 1932 1938 1940
6075 3 1931 1932 1938 1941
6076 3 1932 1938 1939 1942
6077 3 1932 1938 1939 1943
6078 4 1932 1938 1939 1945
6079 3 1933 1931 1932 1938
6080 3 1934 1931 1932 1938
6081 3 1935 1932 1938 1939
6082 3 1935 1932 1938 1940
6083 3 1935 1932 1938 1941
6084 3 1936 1932 1938 1939
6085 3 1936 1932 1938 1940
6086 3 1936 1932 1938 1941
6087 2 1937 1944 1951 1958
6088 4 1938 1939 1945 1946
6089 3 1938 1939 1945 1947
6090 3 1938 1939 1945 1948
6091 3 1939 1945 1946 1949
6092 3 1939 1945 1946 1950
6093 4 1939 1945 1946 1952
6094 3 1940 1938 1939 1945
6095 3 1941 1938 1939 1945
6096 3 1942 1939 1945 1946
6097 3 1942 1939 1945 1947
6098 3 1942 1939 1945 1948
6099 3 1943 1939 1945 1946
6100 3 1943 1939 1945 1947
6101 3 1943 1939 1945 1948
6102 2 1944 1951 1958 1965
6103 4 1945 1946 1952 1953
6104 3 1945 1946 1952 1954
6105 3 1945 1946 1952 1955
6106 3 1946 1952 1953 1956
6107 3 1946 1952 1953 1957
6108 4 1946 1952 1953 1959
6109 3 1947 1945 1946 1952
6110 3 1948 1945 1946 1952
6111 3 1949 1946 1952 1953
6112 3 1949 1946 1952 1954
6113 3 1949 1946 1952 1955
6114 3 1950 1946 1952 1953
6115 3 1950 1946 1952 1954
6116 3 1950 1946 1952 1955
6117 2 1951 1958 1965 1972
6118 4 1952 1953 1959 1960
6119 3 1952 1953 1959 1961
6120 3 1952 1953 1959 1962
6121 3 1953 1959 1960 1963
6122 3 1953 1959 1960 1964
6123 4 1953 1959 1960 1966
6124 3 1954 1952 1953 1959
6125 3 1955 1952 1953 1959
6126 3 1956 1953 1959 1960
6127 3 1956 1953 1959 1961
6128 3 1956 1953 1959 1962
6129 3 1957 1953 1959 1960
6130 3 1957 1953 1959 1961
6131 3 1957 1953 1959 1962
6132 2 1958 1965 1972 1979
6133 4 1959 1960 1966 1967
6134 3 1959 1960 1966 1968
6135 3 1959 1960 1966 1969
6136 3 1960 1966 1967 1970
6137 3 1960 1966 1967 1971
6138 4 1960 1966 1967 1973
6139 3 1961 1959 1960 1966
6140 3 1962 1959 1960 1966
6141 3 1963 1960 1966 1967
6142 3 1963 1960 1966 1968
6143 3 1963 1960 1966 1969
6144 3 1964 1960 1966 1967
6145 3 1964 1960 1966 1968
6146 3 1964 1960 1966 1969
6147 2 1965 1972 1979 1986
6148 4 1966 1967 1973 1974
6149 3 1966 1967 1973 1975
6150 3 1966 1967 1973 1976
6151 3 1967 1973 1974 1977
6152 3 1967 1973 1974 1978
6153 4 1967 1973 1974 1980
6154 3 1968 1966 1967 1973
6155 3 1969 1966 1967 1973
6156 3 1970 1967 1973 1974
6157 3 1970 1967 1973 1975
6158 3 1970 1967 1973 1976
6159 3 1971 1967 1973 1974
6160 3 1971 1967 1973 1975
6161 3 1971 1967 1973 1976
6162 2 1972 1979 1986 1993
6163 4 1973 1974 1980 1981
6164 3 1973 1974 1980 1982
6165 3 1973 1974 1980 1983
6166 3 1974 1980 1981 1984
6167 3 1974 1980 1981 1985
6168 4 1974 1980 1981 1987
6169 3 1975 1973 1974 1980
6170 3 1976 1973 1974 1980
6171 3 1977 1974 1980 1981
6172 3 1977 1974 1980 1982
6173 3 1977 1974 1980 1983
6174 3 1978 1974 1980 1981
6175 3 1978 1974 1980 1982
6176 3 1978 1974 1980 1983
6177 2 1979 1986 1993 2000
6178 4 1980 1981 1987 1988
6179 3 1980 1981 1987 1989
6180 3 1980 1981 1987 1990
6181 3 1981 1987 1988 1991
6182 3 1981 1987 1988 1992
6183 4 1981 1987 1988 1994
6184 3 1982 1980 1981 1987
6185 3 1983 1980 1981 1987
6186 3 1984 1981 1987 1988
6187 3 1984 1981 1987 1989
6188 3 1984 1981 1987 1990
6189 3 1985 1981 1987 1988
6190 3 1985 1981 1987 1989
6191 3 1985 1981 1987 1990
6192 2 1986 1993 2000 2007
6193 4 1987 1988 1994 1995
6194 3 1987 1988 1994 1996
6195 3 1987 1988 1994 1997
6196 3 1988 1994 1995 1998
6197 3 1988 1994 1995 1999
6198 4 1988 1994 1995 2001
6199 3 1989 1987 1988 1994
6200 3 1990 1987 1988 1994
6201 3 1991 1988 1994 1995
6202 3 1991 1988 1994 1996
6203 3 1991 1988 1994 1997
6204 3 1992 1988 1994 1995
6205 3 1992 1988 1994 1996
6206 3 1992 1988 1994 1997
6207 2 1993 2000 2007 2014
6208 4 1994 1995 2001 2002
6209 3 1994 1995 2001 2003
6210 3 1994 1995 2001 2004
6211 3 1995 2001 2002 2005
6212 3 1995 2001 2002 2006
6213 4 1995 2001 2002 2008
6214 3 1996 1994 1995 2001
6215 3 1997 1994 1995 2001
6216 3 1998 1995 2001 2002
6217 3 1998 1995 2001 2003
6218 3 1998 1995 2001 2004
6219 3 1999 1995 2001 2002
6220 3 1999 1995 2001 2003
6221 3 1999 1995 2001 2004
6222 2 2000 2007 2014 2021
6223 4 2001 2002 2008 2009
6224 3 2001 2002 2008 2010
6225 3 2001 2002 2008 2011
6226 3 2002 2008 2009 2012
6227 3 2002 2008 2009 2013
6228 4 2002 2008 2009 2015
6229 3 2003 2001 2002 2008
6230 3 2004 2001 2002 2008
6231 3 2005 2002 2008 2009
6232 3 2005 2002 2008 2010
6233 3 2005 2002 2008 2011
6234 3 2006 2002 2008 2009
6235 3 2006 2002 2008 2010
6236 3 2006 2002 2008 2011
6237 2 2007 2014 2021 2028
6238 4 2008 2009 2015 2016
6239 3 2008 2009 2015 2017
6240 3 2008 2009 2015 2018
6241 3 2009 2015 2016 2019
6242 3 2009 2015 2016 2020
6243 4 2009 2015 2016 2022
6244 3 2010 2008 2009 2015
6245 3 2011 2008 2009 2015
6246 3 2012 2009 2015 2016
6247 3 2012 2009 2015 2017
6248 3 2012 2009 2015 2018
6249 3 2013 2009 2015 2016
6250 3 2013 2009 2015 2017
6251 3 2013 2009 2015 2018
6252 2 2014 2021 2028 2035
6253 4 2015 2016 2022 2023
6254 3 2015 2016 2022 2024
6255 3 2015 2016 2022 2025
6256 3 2016 2022 2023 2026
6257 3 2016 2022 2023 2027
6258 4 2016 2022 2023 2029
6259 3 2017 2015 2016 2022
6260 3 2018 2015 2016 2022
6261 3 2019 2016 2022 2023
6262 3 2019 2016 2022 2024
6263 3 2019 2016 2022 2025
6264 3 2020 2016 2022 2023
6265 3 2020 2016 2022 2024
6266 3 2020 2016 2022 2025
6267 2 2021 2028 2035 2042
6268 4 2022 2023 2029 2030
6269 3 2022 2023 2029 2031
6270 3 2022 2023 2029 2032
6271 3 2023 2029 2030 2033
6272 3 2023 2029 2030 2034
6273 4 2023 2029 2030 2036
6274 3 2024 2022 2023 2029
6275 3 2025 2022 2023 2029
6276 3 2026 2023 2029 2030
6277 3 2026 2023 2029 2031
6278 3 2026 2023 2029 2032
6279 3 2027 2023 2029 2030
6280 3 2027 2023 2029 2031
6281 3 2027 2023 2029 2032
6282 2 2028 2035 2042 2049
6283 4 2029 2030 2036 2037
6284 3 2029 2030 2036 2038
6285 3 2029 2030 2036 2039
6286 3 2030 2036 2037 2040
6287 3 2030 2036 2037 2041
6288 4 2030 2036 2037 2043
6289 3 2031 2029 2030 2036
6290 3 2032 2029 2030 2036
6291 3 2033 2030 2036 2037
6292 3 2033 2030 2036 2038
6293 3 2033 2030 2036 2039
6294 3 2034 2030 2036 2037
6295 3 2034 2030 2036 2038
6296 3 2034 2030 2036 2039
6297 2 2035 2042 2049 2056
6298 4 2036 2037 2043 2044
6299 3 2036 2037 2043 2045
6300 3 2036 2037 2043 2046
6301 3 2037 2043 2044 2047
6302 3 2037 2043 2044 2048
6303 4 2037 2043 2044 2050
6304 3 2038 2036 2037 2043
6305 3 2039 2036 2037 2043
6306 3 2040 2037 2043 2044
6307 3 2040 2037 2043 2045
6308 3 2040 2037 2043 2046
6309 3 2041 2037 2043 2044
6310 3 2041 2037 2043 2045
6311 3 2041 2037 2043 2046
6312 2 2042 2049 2056 2063
6313 4 2043 2044 2050 2051
6314 3 2043 2044 2050 2052
6315 3 2043 2044 2050 2053
6316 3 2044 2050 2051 2054
6317 3 2044 2050 2051 2055
6318 4 2044 2050 2051 2057
6319 3 2045 2043 2044 2050
6320 3 2046 2043 2044 2050
6321 3 2047 2044 2050 2051
6322 3 2047 2044 2050 2052
6323 3 2047 2044 2050 2053
6324 3 2048 2044 2050 2051
6325 3 2048 2044 2050 2052
6326 3 2048 2044 2050 2053
6327 2 2049 2056 2063 2070
6328 4 2050 2051 2057 2058
6329 3 2050 2051 2057 2059
6330 3 2050 2051 2057 2060
6331 3 2051 2057 2058 2061
6332 3 2051 2057 2058 2062
6333 4 2051 2057 2058 2064
6334 3 2052 2050 2051 2057
6335 3 2053 2050 2051 2057
6336 3 2054 2051 2057 2058
6337 3 2054 2051 2057 2059
6338 3 2054 2051 2057 2060
6339 3 2055 2051 2057 2058
6340 3 2055 2051 2057 2059
6341 3 2055 2051 2057 2060
6342 2 2056 2063 2070 2077
6343 4 2057 2058 2064 2065
6344 3 2057 2058 2064 2066
6345 3 2057 2058 2064 2067
6346 3 2058 2064 2065 2068
6347 3 2058 2064 2065 2069
6348 4 2058 2064 2065 2071
6349 3 2059 2057 2058 2064
6350 3 2060 2057 2058 2064
6351 3 2061 2058 2064 2065
6352 3 2061 2058 2064 2066
6353 3 2061 2058 2064 2067
6354 3 2062 2058 2064 2065
6355 3 2062 2058 2064 2066
6356 3 2062 2058 2064 2067
6357 2 2063 2070 2077 2084
6358 4 2064 2065 2071 2072
6359 3 2064 2065 2071 2073
6360 3 2064 2065 2071 2074
6361 3 2065 2071 2072 2075
6362 3 2065 2071 2072 2076
6363 4 2065 2071 2072 2078
6364 3 2066 2064 2065 2071
6365 3 2067 2064 2065 2071
6366 3 2068 2065 2071 2072
6367 3 2068 2065 2071 2073
6368 3 2068 2065 2071 2074
6369 3 2069 2065 2071 2072
6370 3 2069 2065 2071 2073
6371 3 2069 2065 2071 2074
6372 2 2070 2077 2084 2091
6373 4 2071 2072 2078 2079
6374 3 2071 2072 2078 2080
6375 3 2071 2072 2078 2081
6376 3 2072 2078 2079 2082
6377 3 2072 2078 2079 2083
6378 4 2072 2078 2079 2085
6379 3 2073 2071 2072 2078
6380 3 2074 2071 2072 2078
6381 3 2075 2072 2078 2079
6382 3 2075 2072 2078 2080
6383 3 2075 2072 2078 2081
6384 3 2076 2072 2078 2079
6385 3 2076 2072 2078 2080
6386 3 2076 2072 2078 2081
6387 2 2077 2084 2091 2098
6388 4 2078 2079 2085 2086
6389 3 2078 2079 2085 2087
6390 3 2078 2079 2085 2088
6391 3 2079 2085 2086 2089
6392 3 2079 2085 2086 2090
6393 4 2079 2085 2086 2092
6394 3 2080 2078 2079 2085
6395 3 2081 2078 2079 2085
6396 3 2082 2079 2085 2086
6397 3 2082 2079 2085 2087
6398 3 2082 2079 2085 2088
6399 3 2083 2079 2085 2086
6400 3 2083 2079 2085 2087
6401 3 2083 2079 2085 2088
6402 2 2084 2091 2098 2105
6403 4 2085 2086 2092 2093
6404 3 2085 2086 2092 2094
6405 3 2085 2086 2092 2095
6406 3 2086 2092 2093 2096
6407 3 2086 2092 2093 2097
6408 4 2086 2092 2093 2099
6409 3 2087 2085 2086 2092
6410 3 2088 2085 2086 2092
6411 3 2089 2086 2092 2093
6412 3 2089 2086 2092 2094
6413 3 2089 2086 2092 2095
6414 3 2090 2086 2092 2093
6415 3 2090 2086 2092 2094
6416 3 2090 2086 2092 2095
6417 4 2092 2093 2099 2100
6418 3 2092 2093 2099 2101
6419 3 2092 2093 2099 2102
6420 3 2093 2099 2100 2103
6421 3 2093 2099 2100 2104
6422 4 2093 2099 2100 2106
6423 3 2094 2092 2093 2099
6424 3 2095 2092 2093 2099
6425 3 2096 2093 2099 2100
6426 3 2096 2093 2099 2101
6427 3 2096 2093 2099 2102
6428 3 2097 2093 2099 2100
6429 3 2097 2093 2099 2101
6430 3 2097 2093 2099 2102
6431 4 2099 2100 2106 2107
6432 3 2099 2100 2106 2108
6433 3 2099 2100 2106 2109
6434 3 2100 2106 2107 2110
6435 3 2100 2106 2107 2111
6436 3 2100 2106 2107 2112
6437 3 2101 2099 2100 2106
6438 3 2102 2099 2100 2106
6439 3 2103 2100 2106 2107
6440 3 2103 2100 2106 2108
6441 3 2103 2100 2106 2109
6442 3 2104 2100 2106 2107
6443 3 2104 2100 2106 2108
6444 3 2104 2100 2106 2109
6445 2 2113 2121 2128 2135
6446 3 2114 2122 2123 2126
6447 3 2114 2122 2123 2127
6448 4 2114 2122 2123 2129
6449 4 2115 2114 2122 2123
6450 3 2115 2114 2122 2124
6451 3 2115 2114 2122 2125
6452 3 2116 2114 2122 2123
6453 3 2116 2114 2122 2124
6454 3 2116 2114 2122 2125
6455 3 2117 2114 2122 2123
6456 3 2117 2114 2122 2124
6457 3 2117 2114 2122 2125
6458 2 2121 2128 2135 2142
6459 3 2122 2114 2115 2118
6460 3 2122 2114 2115 2119
6461 3 2122 2114 2115 2120
6462 4 2122 2123 2129 2130
6463 3 2122 2123 2129 2131
6464 3 2122 2123 2129 2132
6465 3 2123 2129 2130 2133
6466 3 2123 2129 2130 2134
6467 4 2123 2129 2130 2136
6468 3 2124 2122 2123 2129
6469 3 2125 2122 2123 2129
6470 3 2126 2123 2129 2130
6471 3 2126 2123 2129 2131
6472 3 2126 2123 2129 2132
6473 3 2127 2123 2129 2130
6474 3 2127 2123 2129 2131
6475 3 2127 2123 2129 2132
6476 2 2128 2135 2142 2149
6477 4 2129 2130 2136 2137
6478 3 2129 2130 2136 2138
6479 3 2129 2130 2136 2139
6480 3 2130 2136 2137 2140
6481 3 2130 2136 2137 2141
6482 4 2130 2136 2137 2143
6483 3 2131 2129 2130 2136
6484 3 2132 2129 2130 2136
6485 3 2133 2130 2136 2137
6486 3 2133 2130 2136 2138
6487 3 2133 2130 2136 2139
6488 3 2134 2130 2136 2137
6489 3 2134 2130 2136 2138
6490 3 2134 2130 2136 2139
6491 2 2135 2142 2149 2156
6492 4 2136 2137 2143 2144
6493 3 2136 2137 2143 2145
6494 3 2136 2137 2143 2146
6495 3 2137 2143 2144 2147
6496 3 2137 2143 2144 2148
6497 4 2137 2143 2144 2150
6498 3 2138 2136 2137 2143
6499 3 2139 2136 2137 2143
6500 3 2140 2137 2143 2144
6501 3 2140 2137 2143 2145
6502 3 2140 2137 2143 2146
6503 3 2141 2137 2143 2144
6504 3 2141 2137 2143 2145
6505 3 2141 2137 2143 2146
6506 2 2142 2149 2156 2163
6507 4 2143 2144 2150 2151
6508 3 2143 2144 2150 2152
6509 3 2143 2144 2150 2153
6510 3 2144 2150 2151 2154
6511 3 2144 2150 2151 2155
6512 4 2144 2150 2151 2157
6513 3 2145 2143 2144 2150
6514 3 2146 2143 2144 2150
6515 3 2147 2144 2150 2151
6516 3 2147 2144 2150 2152
6517 3 2147 2144 2150 2153
6518 3 2148 2144 2150 2151
6519 3 2148 2144 2150 2152
6520 3 2148 2144 2150 2153
6521 2 2149 2156 2163 2170
6522 4 2150 2151 2157 2158
6523 3 2150 2151 2157 2159
6524 3 2150 2151 2157 2160
6525 3 2151 2157 2158 2161
6526 3 2151 2157 2158 2162
6527 4 2151 2157 2158 2164
6528 3 2152 2150 2151 2157
6529 3 2153 2150 2151 2157
6530 3 2154 2151 2157 2158
6531 3 2154 2151 2157 2159
6532 3 2154 2151 2157 2160
6533 3 2155 2151 2157 2158
6534 3 2155 2151 2157 2159
6535 3 2155 2151 2157 2160
6536 2 2156 2163 2170 2177
6537 4 2157 2158 2164 2165
6538 3 2157 2158 2164 2166
6539 3 2157 2158 2164 2167
6540 3 2158 2164 2165 2168
6541 3 2158 2164 2165 2169
6542 4 2158 2164 2165 2171
6543 3 2159 2157 2158 2164
6544 3 2160 2157 2158 2164
6545 3 2161 2158 2164 2165
6546 3 2161 2158 2164 2166
6547 3 2161 2158 2164 2167
6548 3 2162 2158 2164 2165
6549 3 2162 2158 2164 2166
6550 3 2162 2158 2164 2167
6551 2 2163 2170 2177 2184
6552 4 2164 2165 2171 2172
6553 3 2164 2165 2171 2173
6554 3 2164 2165 2171 2174
6555 3 2165 2171 2172 2175
6556 3 2165 2171 2172 2176
6557 4 2165 2171 2172 2178
6558 3 2166 2164 2165 2171
6559 3 2167 2164 2165 2171
6560 3 2168 2165 2171 2172
6561 3 2168 2165 2171 2173
6562 3 2168 2165 2171 2174
6563 3 2169 2165 2171 2172
6564 3 2169 2165 2171 2173
6565 3 2169 2165 2171 2174
6566 2 2170 2177 2184 2191
6567 4 2171 2172 2178 2179
6568 3 2171 2172 2178 2180
6569 3 2171 2172 2178 2181
6570 3 2172 2178 2179 2182
6571 3 2172 2178 2179 2183
6572 4 2172 2178 2179 2185
6573 3 2173 2171 2172 2178
6574 3 2174 2171 2172 2178
6575 3 2175 2172 2178 2179
6576 3 2175 2172 2178 2180
6577 3 2175 2172 2178 2181
6578 3 2176 2172 2178 2179
6579 3 2176 2172 2178 2180
6580 3 2176 2172 2178 2181
6581 2 2177 2184 2191 2198
6582 4 2178 2179 2185 2186
6583 3 2178 2179 2185 2187
6584 3 2178 2179 2185 2188
6585 3 2179 2185 2186 2189
6586 3 2179 2185 2186 2190
6587 4 2179 2185 2186 2192
6588 3 2180 2178 2179 2185
6589 3 2181 2178 2179 2185
6590 3 2182 2179 2185 2186
6591 3 2182 2179 2185 2187
6592 3 2182 2179 2185 2188
6593 3 2183 2179 2185 2186
6594 3 2183 2179 2185 2187
6595 3 2183 2179 2185 2188
6596 2 2184 2191 2198 2205
6597 4 2185 2186 2192 2193
6598 3 2185 2186 2192 2194
6599 3 2185 2186 2192 2195
6600 3 2186 2192 2193 2196
6601 3 2186 2192 2193 2197
6602 4 2186 2192 2193 2199
6603 3 2187 2185 2186 2192
6604 3 2188 2185 2186 2192
6605 3 2189 2186 2192 2193
6606 3 2189 2186 2192 2194
6607 3 2189 2186 2192 2195
6608 3 2190 2186 2192 2193
6609 3 2190 2186 2192 2194
6610 3 2190 2186 2192 2195
6611 2 2191 2198 2205 2212
6612 4 2192 2193 2199 2200
6613 3 2192 2193 2199 2201
6614 3 2192 2193 2199 2202
6615 3 2193 2199 2200 2203
6616 3 2193 2199 2200 2204
6617 4 2193 2199 2200 2206
6618 3 2194 2192 2193 2199
6619 3 2195 2192 2193 2199
6620 3 2196 2193 2199 2200
6621 3 2196 2193 2199 2201
6622 3 2196 2193 2199 2202
6623 3 2197 2193 2199 2200
6624 3 2197 2193 2199 2201
6625 3 2197 2193 2199 2202
6626 2 2198 2205 2212 2219
6627 4 2199 2200 2206 2207
6628 3 2199 2200 2206 2208
6629 3 2199 2200 2206 2209
6630 3 2200 2206 2207 2210
6631 3 2200 2206 2207 2211
6632 4 2200 2206 2207 2213
6633 3 2201 2199 2200 2206
6634 3 2202 2199 2200 2206
6635 3 2203 2200 2206 2207
6636 3 2203 2200 2206 2208
6637 3 2203 2200 2206 2209
6638 3 2204 2200 2206 2207
6639 3 2204 2200 2206 2208
6640 3 2204 2200 2206 2209
6641 2 2205 2212 2219 2226
6642 4 2206 2207 2213 2214
6643 3 2206 2207 2213 2215
6644 3 2206 2207 2213 2216
6645 3 2207 2213 2214 2217
6646 3 2207 2213 2214 2218
6647 4 2207 2213 2214 2220
6648 3 2208 2206 2207 2213
6649 3 2209 2206 2207 2213
6650 3 2210 2207 2213 2214
6651 3 2210 2207 2213 2215
6652 3 2210 2207 2213 2216
6653 3 2211 2207 2213 2214
6654 3 2211 2207 2213 2215
6655 3 2211 2207 2213 2216
6656 2 2212 2219 2226 2233
6657 4 2213 2214 2220 2221
6658 3 2213 2214 2220 2222
6659 3 2213 2214 2220 2223
6660 3 2214 2220 2221 2224
6661 3 2214 2220 2221 2225
6662 4 2214 2220 2221 2227
6663 3 2215 2213 2214 2220
6664 3 2216 2213 2214 2220
6665 3 2217 2214 2220 2221
6666 3 2217 2214 2220 2222
6667 3 2217 2214 2220 2223
6668 3 2218 2214 2220 2221
6669 3 2218 2214 2220 2222
6670 3 2218 2214 2220 2223
6671 2 2219 2226 2233 2240
6672 4 2220 2221 2227 2228
6673 3 2220 2221 2227 2229
6674 3 2220 2221 2227 2230
6675 3 2221 2227 2228 2231
6676 3 2221 2227 2228 2232
6677 4 2221 2227 2228 2234
6678 3 2222 2220 2221 2227
6679 3 2223 2220 2221 2227
6680 3 2224 2221 2227 2228
6681 3 2224 2221 2227 2229
6682 3 2224 2221 2227 2230
6683 3 2225 2221 2227 2228
6684 3 2225 2221 2227 2229
6685 3 2225 2221 2227 2230
6686 2 2226 2233 2240 2247
6687 4 2227 2228 2234 2235
6688 3 2227 2228 2234 2236
6689 3 2227 2228 2234 2237
6690 3 2228 2234 2235 2238
6691 3 2228 2234 2235 2239
6692 4 2228 2234 2235 2241
6693 3 2229 2227 2228 2234
6694 3 2230 2227 2228 2234
6695 3 2231 2228 2234 2235
6696 3 2231 2228 2234 2236
6697 3 2231 2228 2234 2237
6698 3 2232 2228 2234 2235
6699 3 2232 2228 2234 2236
6700 3 2232 2228 2234 2237
6701 2 2233 2240 2247 2254
6702 4 2234 2235 2241 2242
6703 3 2234 2235 2241 2243
6704 3 2234 2235 2241 2244
6705 3 2235 2241 2242 2245
6706 3 2235 2241 2242 2246
6707 4 2235 2241 2242 2248
6708 3 2236 2234 2235 2241
6709 3 2237 2234 2235 2241
6710 3 2238 2235 2241 2242
6711 3 2238 2235 2241 2243
6712 3 2238 2235 2241 2244
6713 3 2239 2235 2241 2242
6714 3 2239 2235 2241 2243
6715 3 2239 2235 2241 2244
6716 2 2240 2247 2254 2261
6717 4 2241 2242 2248 2249
6718 3 2241 2242 2248 2250
6719 3 2241 2242 2248 2251
6720 3 2242 2248 2249 2252
6721 3 2242 2248 2249 2253
6722 4 2242 2248 2249 2255
6723 3 2243 2241 2242 2248
6724 3 2244 2241 2242 2248
6725 3 2245 2242 2248 2249
6726 3 2245 2242 2248 2250
6727 3 2245 2242 2248 2251
6728 3 2246 2242 2248 2249
6729 3 2246 2242 2248 2250
6730 3 2246 2242 2248 2251
6731 2 2247 2254 2261 2268
6732 4 2248 2249 2255 2256
6733 3 2248 2249 2255 2257
6734 3 2248 2249 2255 2258
6735 3 2249 2255 2256 2259
6736 3 2249 2255 2256 2260
6737 4 2249 2255 2256 2262
6738 3 2250 2248 2249 2255
6739 3 2251 2248 2249 2255
6740 3 2252 2249 2255 2256
6741 3 2252 2249 2255 2257
6742 3 2252 2249 2255 2258
6743 3 2253 2249 2255 2256
6744 3 2253 2249 2255 2257
6745 3 2253 2249 2255 2258
6746 2 2254 2261 2268 2275
6747 4 2255 2256 2262 2263
6748 3 2255 2256 2262 2264
6749 3 2255 2256 2262 2265
6750 3 2256 2262 2263 2266
6751 3 2256 2262 2263 2267
6752 4 2256 2262 2263 2269
6753 3 2257 2255 2256 2262
6754 3 2258 2255 2256 2262
6755 3 2259 2256 2262 2263
6756 3 2259 2256 2262 2264
6757 3 2259 2256 2262 2265
6758 3 2260 2256 2262 2263
6759 3 2260 2256 2262 2264
6760 3 2260 2256 2262 2265
6761 2 2261 2268 2275 2282
6762 4 2262 2263 2269 2270
6763 3 2262 2263 2269 2271
6764 3 2262 2263 2269 2272
6765 3 2263 2269 2270 2273
6766 3 2263 2269 2270 2274
6767 4 2263 2269 2270 2276
6768 3 2264 2262 2263 2269
6769 3 2265 2262 2263 2269
6770 3 2266 2263 2269 2270
6771 3 2266 2263 2269 2271
6772 3 2266 2263 2269 2272
6773 3 2267 2263 2269 2270
6774 3 2267 2263 2269 2271
6775 3 2267 2263 2269 2272
6776 2 2268 2275 2282 2289
6777 4 2269 2270 2276 2277
6778 3 2269 2270 2276 2278
6779 3 2269 2270 2276 2279
6780 3 2270 2276 2277 2280
6781 3 2270 2276 2277 2281
6782 4 2270 2276 2277 2283
6783 3 2271 2269 2270 2276
6784 3 2272 2269 2270 2276
6785 3 2273 2270 2276 2277
6786 3 2273 2270 2276 2278
6787 3 2273 2270 2276 2279
6788 3 2274 2270 2276 2277
6789 3 2274 2270 2276 2278
6790 3 2274 2270 2276 2279
6791 2 2275 2282 2289 2296
6792 4 2276 2277 2283 2284
6793 3 2276 2277 2283 2285
6794 3 2276 2277 2283 2286
6795 3 2277 2283 2284 2287
6796 3 2277 2283 2284 2288
6797 4 2277 2283 2284 2290
6798 3 2278 2276 2277 2283
6799 3 2279 2276 2277 2283
6800 3 2280 2277 2283 2284
6801 3 2280 2277 2283 2285
6802 3 2280 2277 2283 2286
6803 3 2281 2277 2283 2284
6804 3 2281 2277 2283 2285
6805 3 2281 2277 2283 2286
6806 2 2282 2289 2296 2303
6807 4 2283 2284 2290 2291
6808 3 2283 2284 2290 2292
6809 3 2283 2284 2290 2293
6810 3 2284 2290 2291 2294
6811 3 2284 2290 2291 2295
6812 4 2284 2290 2291 2297
6813 3 2285 2283 2284 2290
6814 3 2286 2283 2284 2290
6815 3 2287 2284 2290 2291
6816 3 2287 2284 2290 2292
6817 3 2287 2284 2290 2293
6818 3 2288 2284 2290 2291
6819 3 2288 2284 2290 2292
6820 3 2288 2284 2290 2293
6821 2 2289 2296 2303 2310
6822 4 2290 2291 2297 2298
6823 3 2290 2291 2297 2299
6824 3 2290 2291 2297 2300
6825 3 2291 2297 2298 2301
6826 3 2291 2297 2298 2302
6827 4 2291 2297 2298 2304
6828 3 2292 2290 2291 2297
6829 3 2293 2290 2291 2297
6830 3 2294 2291 2297 2298
6831 3 2294 2291 2297 2299
6832 3 2294 2291 2297 2300
6833 3 2295 2291 2297 2298
6834 3 2295 2291 2297 2299
6835 3 2295 2291 2297 2300
6836 2 2296 2303 2310 2317
6837 4 2297 2298 2304 2305
6838 3 2297 2298 2304 2306
6839 3 2297 2298 2304 2307
6840 3 2298 2304 2305 2308
6841 3 2298 2304 2305 2309
6842 4 2298 2304 2305 2311
6843 3 2299 2297 2298 2304
6844 3 2300 2297 2298 2304
6845 3 2301 2298 2304 2305
6846 3 2301 2298 2304 2306
6847 3 2301 2298 2304 2307
6848 3 2302 2298 2304 2305
6849 3 2302 2298 2304 2306
6850 3 2302 2298 2304 2307
6851 2 2303 2310 2317 2324
6852 4 2304 2305 2311 2312
6853 3 2304 2305 2311 2313
6854 3 2304 2305 2311 2314
6855 3 2305 2311 2312 2315
6856 3 2305 2311 2312 2316
6857 4 2305 2311 2312 2318
6858 3 2306 2304 2305 2311
6859 3 2307 2304 2305 2311
6860 3 2308 2305 2311 2312
6861 3 2308 2305 2311 2313
6862 3 2308 2305 2311 2314
6863 3 2309 2305 2311 2312
6864 3 2309 2305 2311 2313
6865 3 2309 2305 2311 2314
6866 2 2310 2317 2324 2331
6867 4 2311 2312 2318 2319
6868 3 2311 2312 2318 2320
6869 3 2311 2312 2318 2321
6870 3 2312 2318 2319 2322
6871 3 2312 2318 2319 2323
6872 4 2312 2318 2319 2325
6873 3 2313 2311 2312 2318
6874 3 2314 2311 2312 2318
6875 3 2315 2312 2318 2319
6876 3 2315 2312 2318 2320
6877 3 2315 2312 2318 2321
6878 3 2316 2312 2318 2319
6879 3 2316 2312 2318 2320
6880 3 2316 2312 2318 2321
6881 2 2317 2324 2331 2338
6882 4 2318 2319 2325 2326
6883 3 2318 2319 2325 2327
6884 3 2318 2319 2325 2328
6885 3 2319 2325 2326 2329
6886 3 2319 2325 2326 2330
6887 4 2319 2325 2326 2332
6888 3 2320 2318 2319 2325
6889 3 2321 2318 2319 2325
6890 3 2322 2319 2325 2326
6891 3 2322 2319 2325 2327
6892 3 2322 2319 2325 2328
6893 3 2323 2319 2325 2326
6894 3 2323 2319 2325 2327
6895 3 2323 2319 2325 2328
6896 2 2324 2331 2338 2345
6897 4 2325 2326 2332 2333
6898 3 2325 2326 2332 2334
6899 3 2325 2326 2332 2335
6900 3 2326 2332 2333 2336
6901 3 2326 2332 2333 2337
6902 4 2326 2332 2333 2339
6903 3 2327 2325 2326 2332
6904 3 2328 2325 2326 2332
6905 3 2329 2326 2332 2333
6906 3 2329 2326 2332 2334
6907 3 2329 2326 2332 2335
6908 3 2330 2326 2332 2333
6909 3 2330 2326 2332 2334
6910 3 2330 2326 2332 2335
6911 2 2331 2338 2345 2352
6912 4 2332 2333 2339 2340
6913 3 2332 2333 2339 2341
6914 3 2332 2333 2339 2342
6915 3 2333 2339 2340 2343
6916 3 2333 2339 2340 2344
6917 4 2333 2339 2340 2346
6918 3 2334 2332 2333 2339
6919 3 2335 2332 2333 2339
6920 3 2336 2333 2339 2340
6921 3 2336 2333 2339 2341
6922 3 2336 2333 2339 2342
6923 3 2337 2333 2339 2340
6924 3 2337 2333 2339 2341
6925 3 2337 2333 2339 2342
6926 2 2338 2345 2352 2359
6927 4 2339 2340 2346 2347
6928 3 2339 2340 2346 2348
6929 3 2339 2340 2346 2349
6930 3 2340 2346 2347 2350
6931 3 2340 2346 2347 2351
6932 4 2340 2346 2347 2353
6933 3 2341 2339 2340 2346
6934 3 2342 2339 2340 2346
6935 3 2343 2340 2346 2347
6936 3 2343 2340 2346 2348
6937 3 2343 2340 2346 2349
6938 3 2344 2340 2346 2347
6939 3 2344 2340 2346 2348
6940 3 2344 2340 2346 2349
6941 2 2345 2352 2359 2366
6942 4 2346 2347 2353 2354
6943 3 2346 2347 2353 2355
6944 3 2346 2347 2353 2356
6945 3 2347 2353 2354 2357
6946 3 2347 2353 2354 2358
6947 4 2347 2353 2354 2360
6948 3 2348 2346 2347 2353
6949 3 2349 2346 2347 2353
6950 3 2350 2347 2353 2354
6951 3 2350 2347 2353 2355
6952 3 2350 2347 2353 2356
6953 3 2351 2347 2353 2354
6954 3 2351 2347 2353 2355
6955 3 2351 2347 2353 2356
6956 2 2352 2359 2366 2373
6957 4 2353 2354 2360 2361
6958 3 2353 2354 2360 2362
6959 3 2353 2354 2360 2363
6960 3 2354 2360 2361 2364
6961 3 2354 2360 2361 2365
6962 4 2354 2360 2361 2367
6963 3 2355 2353 2354 2360
6964 3 2356 2353 2354 2360
6965 3 2357 2354 2360 2361
6966 3 2357 2354 2360 2362
6967 3 2357 2354 2360 2363
6968 3 2358 2354 2360 2361
6969 3 2358 2354 2360 2362
6970 3 2358 2354 2360 2363
6971 2 2359 2366 2373 2380
6972 4 2360 2361 2367 2368
6973 3 2360 2361 2367 2369
6974 3 2360 2361 2367 2370
6975 3 2361 2367 2368 2371
6976 3 2361 2367 2368 2372
6977 4 2361 2367 2368 2374
6978 3 2362 2360 2361 2367
6979 3 2363 2360 2361 2367
6980 3 2364 2361 2367 2368
6981 3 2364 2361 2367 2369
6982 3 2364 2361 2367 2370
6983 3 2365 2361 2367 2368
6984 3 2365 2361 2367 2369
6985 3 2365 2361 2367 2370
6986 2 2366 2373 2380 2387
6987 4 2367 2368 2374 2375
6988 3 2367 2368 2374 2376
6989 3 2367 2368 2374 2377
6990 3 2368 2374 2375 2378
6991 3 2368 2374 2375 2379
6992 4 2368 2374 2375 2381
6993 3 2369 2367 2368 2374
6994 3 2370 2367 2368 2374
6995 3 2371 2368 2374 2375
6996 3 2371 2368 2374 2376
6997 3 2371 2368 2374 2377
6998 3 2372 2368 2374 2375
6999 3 2372 2368 2374 2376
7000 3 2372 2368 2374 2377
7001 2 2373 2380 2387 2394
7002 4 2374 2375 2381 2382
7003 3 2374 2375 2381 2383
7004 3 2374 2375 2381 2384
7005 3 2375 2381 2382 2385
7006 3 2375 2381 2382 2386
7007 4 2375 2381 2382 2388
7008 3 2376 2374 2375 2381
7009 3 2377 2374 2375 2381
7010 3 2378 2375 2381 2382
7011 3 2378 2375 2381 2383
7012 3 2378 2375 2381 2384
7013 3 2379 2375 2381 2382
7014 3 2379 2375 2381 2383
7015 3 2379 2375 2381 2384
7016 2 2380 2387 2394 2401
7017 4 2381 2382 2388 2389
7018 3 2381 2382 2388 2390
7019 3 2381 2382 2388 2391
7020 3 2382 2388 2389 2392
7021 3 2382 2388 2389 2393
7022 4 2382 2388 2389 2395
7023 3 2383 2381 2382 2388
7024 3 2384 2381 2382 2388
7025 3 2385 2382 2388 2389
7026 3 2385 2382 2388 2390
7027 3 2385 2382 2388 2391
7028 3 2386 2382 2388 2389
7029 3 2386 2382 2388 2390
7030 3 2386 2382 2388 2391
7031 2 2387 2394 2401 2408
7032 4 2388 2389 2395 2396
7033 3 2388 2389 2395 2397
7034 3 2388 2389 2395 2398
7035 3 2389 2395 2396 2399
7036 3 2389 2395 2396 2400
7037 4 2389 2395 2396 2402
7038 3 2390 2388 2389 2395
7039 3 2391 2388 2389 2395
7040 3 2392 2389 2395 2396
7041 3 2392 2389 2395 2397
7042 3 2392 2389 2395 2398
7043 3 2393 2389 2395 2396
7044 3 2393 2389 2395 2397
7045 3 2393 2389 2395 2398
7046 2 2394 2401 2408 2415
7047 4 2395 2396 2402 2403
7048 3 2395 2396 2402 2404
7049 3 2395 2396 2402 2405
7050 3 2396 2402 2403 2406
7051 3 2396 2402 2403 2407
7052 4 2396 2402 2403 2409
7053 3 2397 2395 2396 2402
7054 3 2398 2395 2396 2402
7055 3 2399 2396 2402 2403
7056 3 2399 2396 2402 2404
7057 3 2399 2396 2402 2405
7058 3 2400 2396 2402 2403
7059 3 2400 2396 2402 2404
7060 3 2400 2396 2402 2405
7061 2 2401 2408 2415 2422
7062 4 2402 2403 2409 2410
7063 3 2402 2403 2409 2411
7064 3 2402 2403 2409 2412
7065 3 2403 2409 2410 2413
7066 3 2403 2409 2410 2414
7067 4 2403 2409 2410 2416
7068 3 2404 2402 2403 2409
7069 3 2405 2402 2403 2409
7070 3 2406 2403 2409 2410
7071 3 2406 2403 2409 2411
7072 3 2406 2403 2409 2412
7073 3 2407 2403 2409 2410
7074 3 2407 2403 2409 2411
7075 3 2407 2403 2409 2412
7076 2 2408 2415 2422 2429
7077 4 2409 2410 2416 2417
7078 3 2409 2410 2416 2418
7079 3 2409 2410 2416 2419
7080 3 2410 2416 2417 2420
7081 3 2410 2416 2417 2421
7082 4 2410 2416 2417 2423
7083 3 2411 2409 2410 2416
7084 3 2412 2409 2410 2416
7085 3 2413 2410 2416 2417
7086 3 2413 2410 2416 2418
7087 3 2413 2410 2416 2419
7088 3 2414 2410 2416 2417
7089 3 2414 2410 2416 2418
7090 3 2414 2410 2416 2419
7091 2 2415 2422 2429 2436
7092 4 2416 2417 2423 2424
7093 3 2416 2417 2423 2425
7094 3 2416 2417 2423 2426
7095 3 2417 2423 2424 2427
7096 3 2417 2423 2424 2428
7097 4 2417 2423 2424 2430
7098 3 2418 2416 2417 2423
7099 3 2419 2416 2417 2423
7100 3 2420 2417 2423 2424
7101 3 2420 2417 2423 2425
7102 3 2420 2417 2423 2426
7103 3 2421 2417 2423 2424
7104 3 2421 2417 2423 2425
7105 3 2421 2417 2423 2426
7106 2 2422 2429 2436 2443
7107 4 2423 2424 2430 2431
7108 3 2423 2424 2430 2432
7109 3 2423 2424 2430 2433
7110 3 2424 2430 2431 2434
7111 3 2424 2430 2431 2435
7112 4 2424 2430 2431 2437
7113 3 2425 2423 2424 2430
7114 3 2426 2423 2424 2430
7115 3 2427 2424 2430 2431
7116 3 2427 2424 2430 2432
7117 3 2427 2424 2430 2433
7118 3 2428 2424 2430 2431
7119 3 2428 2424 2430 2432
7120 3 2428 2424 2430 2433
7121 2 2429 2436 2443 2450
7122 4 2430 2431 2437 2438
7123 3 2430 2431 2437 2439
7124 3 2430 2431 2437 2440
7125 3 2431 2437 2438 2441
7126 3 2431 2437 2438 2442
7127 4 2431 2437 2438 2444
7128 3 2432 2430 2431 2437
7129 3 2433 2430 2431 2437
7130 3 2434 2431 2437 2438
7131 3 2434 2431 2437 2439
7132 3 2434 2431 2437 2440
7133 3 2435 2431 2437 2438
7134 3 2435 2431 2437 2439
7135 3 2435 2431 2437 2440
7136 2 2436 2443 2450 2457
7137 4 2437 2438 2444 2445
7138 3 2437 2438 2444 2446
7139 3 2437 2438 2444 2447
7140 3 2438 2444 2445 2448
7141 3 2438 2444 2445 2449
7142 4 2438 2444 2445 2451
7143 3 2439 2437 2438 2444
7144 3 2440 2437 2438 2444
7145 3 2441 2438 2444 2445
7146 3 2441 2438 2444 2446
7147 3 2441 2438 2444 2447
7148 3 2442 2438 2444 2445
7149 3 2442 2438 2444 2446
7150 3 2442 2438 2444 2447
7151 4 2444 2445 2451 2452
7152 3 2444 2445 2451 2453
7153 3 2444 2445 2451 2454
7154 3 2445 2451 2452 2455
7155 3 2445 2451 2452 2456
7156 4 2445 2451 2452 2458
7157 3 2446 2444 2445 2451
7158 3 2447 2444 2445 2451
7159 3 2448 2445 2451 2452
7160 3 2448 2445 2451 2453
7161 3 2448 2445 2451 2454
7162 3 2449 2445 2451 2452
7163 3 2449 2445 2451 2453
7164 3 2449 2445 2451 2454
7165 4 2451 2452 2458 2459
7166 3 2451 2452 2458 2460
7167 3 2451 2452 2458 2461
7168 3 2452 2458 2459 2462
7169 3 2452 2458 2459 2463
7170 3 2452 2458 2459 2464
7171 3 2453 2451 2452 2458
7172 3 2454 2451 2452 2458
7173 3 2455 2452 2458 2459
7174 3 2455 2452 2458 2460
7175 3 2455 2452 2458 2461
7176 3 2456 2452 2458 2459
7177 3 2456 2452 2458 2460
7178 3 2456 2452 2458 2461
7179 2 2465 2473 2480 2487
7180 3 2466 2474 2475 2478
7181 3 2466 2474 2475 2479
7182 4 2466 2474 2475 2481
7183 4 2467 2466 2474 2475
7184 3 2467 2466 2474 2476
7185 3 2467 2466 2474 2477
7186 3 2468 2466 2474 2475
7187 3 2468 2466 2474 2476
7188 3 2468 2466 2474 2477
7189 3 2469 2466 2474 2475
7190 3 2469 2466 2474 2476
7191 3 2469 2466 2474 2477
7192 2 2473 2480 2487 2494
7193 3 2474 2466 2467 2470
7194 3 2474 2466 2467 2471
7195 3 2474 2466 2467 2472
7196 4 2474 2475 2481 2482
7197 3 2474 2475 2481 2483
7198 3 2474 2475 2481 2484
7199 3 2475 2481 2482 2485
7200 3 2475 2481 2482 2486
7201 4 2475 2481 2482 2488
7202 3 2476 2474 2475 2481
7203 3 2477 2474 2475 2481
7204 3 2478 2475 2481 2482
7205 3 2478 2475 2481 2483
7206 3 2478 2475 2481 2484
7207 3 2479 2475 2481 2482
7208 3 2479 2475 2481 2483
7209 3 2479 2475 2481 2484
7210 2 2480 2487 2494 2501
7211 4 2481 2482 2488 2489
7212 3 2481 2482 2488 2490
7213 3 2481 2482 2488 2491
7214 3 2482 2488 2489 2492
7215 3 2482 2488 2489 2493
7216 4 2482 2488 2489 2495
7217 3 2483 2481 2482 2488
7218 3 2484 2481 2482 2488
7219 3 2485 2482 2488 2489
7220 3 2485 2482 2488 2490
7221 3 2485 2482 2488 2491
7222 3 2486 2482 2488 2489
7223 3 2486 2482 2488 2490
7224 3 2486 2482 2488 2491
7225 2 2487 2494 2501 2508
7226 4 2488 2489 2495 2496
7227 3 2488 2489 2495 2497
7228 3 2488 2489 2495 2498
7229 3 2489 2495 2496 2499
7230 3 2489 2495 2496 2500
7231 4 2489 2495 2496 2502
7232 3 2490 2488 2489 2495
7233 3 2491 2488 2489 2495
7234 3 2492 2489 2495 2496
7235 3 2492 2489 2495 2497
7236 3 2492 2489 2495 2498
7237 3 2493 2489 2495 2496
7238 3 2493 2489 2495 2497
7239 3 2493 2489 2495 2498
7240 2 2494 2501 2508 2515
7241 4 2495 2496 2502 2503
7242 3 2495 2496 2502 2504
7243 3 2495 2496 2502 2505
7244 3 2496 2502 2503 2506
7245 3 2496 2502 2503 2507
7246 4 2496 2502 2503 2509
7247 3 2497 2495 2496 2502
7248 3 2498 2495 2496 2502
7249 3 2499 2496 2502 2503
7250 3 2499 2496 2502 2504
7251 3 2499 2496 2502 2505
7252 3 2500 2496 2502 2503
7253 3 2500 2496 2502 2504
7254 3 2500 2496 2502 2505
7255 2 2501 2508 2515 2522
7256 4 2502 2503 2509 2510
7257 3 2502 2503 2509 2511
7258 3 2502 2503 2509 2512
7259 3 2503 2509 2510 2513
7260 3 2503 2509 2510 2514
7261 4 2503 2509 2510 2516
7262 3 2504 2502 2503 2509
7263 3 2505 2502 2503 2509
7264 3 2506 2503 2509 2510
7265 3 2506 2503 2509 2511
7266 3 2506 2503 2509 2512
7267 3 2507 2503 2509 2510
7268 3 2507 2503 2509 2511
7269 3 2507 2503 2509 2512
7270 2 2508 2515 2522 2529
7271 4 2509 2510 2516 2517
7272 3 2509 2510 2516 2518
7273 3 2509 2510 2516 2519
7274 3 2510 2516 2517 2520
7275 3 2510 2516 2517 2521
7276 4 2510 2516 2517 2523
7277 3 2511 2509 2510 2516
7278 3 2512 2509 2510 2516
7279 3 2513 2510 2516 2517
7280 3 2513 2510 2516 2518
7281 3 2513 2510 2516 2519
7282 3 2514 2510 2516 2517
7283 3 2514 2510 2516 2518
7284 3 2514 2510 2516 2519
7285 2 2515 2522 2529 2536
7286 4 2516 2517 2523 2524
7287 3 2516 2517 2523 2525
7288 3 2516 2517 2523 2526
7289 3 2517 2523 2524 2527
7290 3 2517 2523 2524 2528
7291 4 2517 2523 2524 2530
7292 3 2518 2516 2517 2523
7293 3 2519 2516 2517 2523
7294 3 2520 2517 2523 2524
7295 3 2520 2517 2523 2525
7296 3 2520 2517 2523 2526
7297 3 2521 2517 2523 2524
7298 3 2521 2517 2523 2525
7299 3 2521 2517 2523 2526
7300 2 2522 2529 2536 2543
7301 4 2523 2524 2530 2531
7302 3 2523 2524 2530 2532
7303 3 2523 2524 2530 2533
7304 3 2524 2530 2531 2534
7305 3 2524 2530 2531 2535
7306 4 2524 2530 2531 2537
7307 3 2525 2523 2524 2530
7308 3 2526 2523 2524 2530
7309 3 2527 2524 2530 2531
7310 3 2527 2524 2530 2532
7311 3 2527 2524 2530 2533
7312 3 2528 2524 2530 2531
7313 3 2528 2524 2530 2532
7314 3 2528 2524 2530 2533
7315 2 2529 2536 2543 2550
7316 4 2530 2531 2537 2538
7317 3 2530 2531 2537 2539
7318 3 2530 2531 2537 2540
7319 3 2531 2537 2538 2541
7320 3 2531 2537 2538 2542
7321 4 2531 2537 2538 2544
7322 3 2532 2530 2531 2537
7323 3 2533 2530 2531 2537
7324 3 2534 2531 2537 2538
7325 3 2534 2531 2537 2539
7326 3 2534 2531 2537 2540
7327 3 2535 2531 2537 2538
7328 3 2535 2531 2537 2539
7329 3 2535 2531 2537 2540
7330 2 2536 2543 2550 2557
7331 4 2537 2538 2544 2545
7332 3 2537 2538 2544 2546
7333 3 2537 2538 2544 2547
7334 3 2538 2544 2545 2548
7335 3 2538 2544 2545 2549
7336 4 2538 2544 2545 2551
7337 3 2539 2537 2538 2544
7338 3 2540 2537 2538 2544
7339 3 2541 2538 2544 2545
7340 3 2541 2538 2544 2546
7341 3 2541 2538 2544 2547
7342 3 2542 2538 2544 2545
7343 3 2542 2538 2544 2546
7344 3 2542 2538 2544 2547
7345 2 2543 2550 2557 2564
7346 4 2544 2545 2551 2552
7347 3 2544 2545 2551 2553
7348 3 2544 2545 2551 2554
7349 3 2545 2551 2552 2555
7350 3 2545 2551 2552 2556
7351 4 2545 2551 2552 2558
7352 3 2546 2544 2545 2551
7353 3 2547 2544 2545 2551
7354 3 2548 2545 2551 2552
7355 3 2548 2545 2551 2553
7356 3 2548 2545 2551 2554
7357 3 2549 2545 2551 2552
7358 3 2549 2545 2551 2553
7359 3 2549 2545 2551 2554
7360 2 2550 2557 2564 2571
7361 4 2551 2552 2558 2559
7362 3 2551 2552 2558 2560
7363 3 2551 2552 2558 2561
7364 3 2552 2558 2559 2562
7365 3 2552 2558 2559 2563
7366 4 2552 2558 2559 2565
7367 3 2553 2551 2552 2558
7368 3 2554 2551 2552 2558
7369 3 2555 2552 2558 2559
7370 3 2555 2552 2558 2560
7371 3 2555 2552 2558 2561
7372 3 2556 2552 2558 2559
7373 3 2556 2552 2558 2560
7374 3 2556 2552 2558 2561
7375 2 2557 2564 2571 2578
7376 4 2558 2559 2565 2566
7377 3 2558 2559 2565 2567
7378 3 2558 2559 2565 2568
7379 3 2559 2565 2566 2569
7380 3 2559 2565 2566 2570
7381 4 2559 2565 2566 2572
7382 3 2560 2558 2559 2565
7383 3 2561 2558 2559 2565
7384 3 2562 2559 2565 2566
7385 3 2562 2559 2565 2567
7386 3 2562 2559 2565 2568
7387 3 2563 2559 2565 2566
7388 3 2563 2559 2565 2567
7389 3 2563 2559 2565 2568
7390 2 2564 2571 2578 2585
7391 4 2565 2566 2572 2573
7392 3 2565 2566 2572 2574
7393 3 2565 2566 2572 2575
7394 3 2566 2572 2573 2576
7395 3 2566 2572 2573 2577
7396 4 2566 2572 2573 2579
7397 3 2567 2565 2566 2572
7398 3 2568 2565 2566 2572
7399 3 2569 2566 2572 2573
7400 3 2569 2566 2572 2574
7401 3 2569 2566 2572 2575
7402 3 2570 2566 2572 2573
7403 3 2570 2566 2572 2574
7404 3 2570 2566 2572 2575
7405 2 2571 2578 2585 2592
7406 4 2572 2573 2579 2580
7407 3 2572 2573 2579 2581
7408 3 2572 2573 2579 2582
7409 3 2573 2579 2580 2583
7410 3 2573 2579 2580 2584
7411 4 2573 2579 2580 2586
7412 3 2574 2572 2573 2579
7413 3 2575 2572 2573 2579
7414 3 2576 2573 2579 2580
7415 3 2576 2573 2579 2581
7416 3 2576 2573 2579 2582
7417 3 2577 2573 2579 2580
7418 3 2577 2573 2579 2581
7419 3 2577 2573 2579 2582
7420 2 2578 2585 2592 2599
7421 4 2579 2580 2586 2587
7422 3 2579 2580 2586 2588
7423 3 2579 2580 2586 2589
7424 3 2580 2586 2587 2590
7425 3 2580 2586 2587 2591
7426 4 2580 2586 2587 2593
7427 3 2581 2579 2580 2586
7428 3 2582 2579 2580 2586
7429 3 2583 2580 2586 2587
7430 3 2583 2580 2586 2588
7431 3 2583 2580 2586 2589
7432 3 2584 2580 2586 2587
7433 3 2584 2580 2586 2588
7434 3 2584 2580 2586 2589
7435 2 2585 2592 2599 2606
7436 4 2586 2587 2593 2594
7437 3 2586 2587 2593 2595
7438 3 2586 2587 2593 2596
7439 3 2587 2593 2594 2597
7440 3 2587 2593 2594 2598
7441 4 2587 2593 2594 2600
7442 3 2588 2586 2587 2593
7443 3 2589 2586 2587 2593
7444 3 2590 2587 2593 2594
7445 3 2590 2587 2593 2595
7446 3 2590 2587 2593 2596
7447 3 2591 2587 2593 2594
7448 3 2591 2587 2593 2595
7449 3 2591 2587 2593 2596
7450 2 2592 2599 2606 2613
7451 4 2593 2594 2600 2601
7452 3 2593 2594 2600 2602
7453 3 2593 2594 2600 2603
7454 3 2594 2600 2601 2604
7455 3 2594 2600 2601 2605
7456 4 2594 2600 2601 2607
7457 3 2595 2593 2594 2600
7458 3 2596 2593 2594 2600
7459 3 2597 2594 2600 2601
7460 3 2597 2594 2600 2602
7461 3 2597 2594 2600 2603
7462 3 2598 2594 2600 2601
7463 3 2598 2594 2600 2602
7464 3 2598 2594 2600 2603
7465 2 2599 2606 2613 2620
7466 4 2600 2601 2607 2608
7467 3 2600 2601 2607 2609
7468 3 2600 2601 2607 2610
7469 3 2601 2607 2608 2611
7470 3 2601 2607 2608 2612
7471 4 2601 2607 2608 2614
7472 3 2602 2600 2601 2607
7473 3 2603 2600 2601 2607
7474 3 2604 2601 2607 2608
7475 3 2604 2601 2607 2609
7476 3 2604 2601 2607 2610
7477 3 2605 2601 2607 2608
7478 3 2605 2601 2607 2609
7479 3 2605 2601 2607 2610
7480 2 2606 2613 2620 2627
7481 4 2607 2608 2614 2615
7482 3 2607 2608 2614 2616
7483 3 2607 2608 2614 2617
7484 3 2608 2614 2615 2618
7485 3 2608 2614 2615 2619
7486 4 2608 2614 2615 2621
7487 3 2609 2607 2608 2614
7488 3 2610 2607 2608 2614
7489 3 2611 2608 2614 2615
7490 3 2611 2608 2614 2616
7491 3 2611 2608 2614 2617
7492 3 2612 2608 2614 2615
7493 3 2612 2608 2614 2616
7494 3 2612 2608 2614 2617
7495 2 2613 2620 2627 2634
7496 4 2614 2615 2621 2622
7497 3 2614 2615 2621 2623
7498 3 2614 2615 2621 2624
7499 3 2615 2621 2622 2625
7500 3 2615 2621 2622 2626
7501 4 2615 2621 2622 2628
7502 3 2616 2614 2615 2621
7503 3 2617 2614 2615 2621
7504 3 2618 2615 2621 2622
7505 3 2618 2615 2621 2623
7506 3 2618 2615 2621 2624
7507 3 2619 2615 2621 2622
7508 3 2619 2615 2621 2623
7509 3 2619 2615 2621 2624
7510 2 2620 2627 2634 2641
7511 4 2621 2622 2628 2629
7512 3 2621 2622 2628 2630
7513 3 2621 2622 2628 2631
7514 3 2622 2628 2629 2632
7515 3 2622 2628 2629 2633
7516 4 2622 2628 2629 2635
7517 3 2623 2621 2622 2628
7518 3 2624 2621 2622 2628
7519 3 2625 2622 2628 2629
7520 3 2625 2622 2628 2630
7521 3 2625 2622 2628 2631
7522 3 2626 2622 2628 2629
7523 3 2626 2622 2628 2630
7524 3 2626 2622 2628 2631
7525 2 2627 2634 2641 2648
7526 4 2628 2629 2635 2636
7527 3 2628 2629 2635 2637
7528 3 2628 2629 2635 2638
7529 3 2629 2635 2636 2639
7530 3 2629 2635 2636 2640
7531 4 2629 2635 2636 2642
7532 3 2630 2628 2629 2635
7533 3 2631 2628 2629 2635
7534 3 2632 2629 2635 2636
7535 3 2632 2629 2635 2637
7536 3 2632 2629 2635 2638
7537 3 2633 2629 2635 2636
7538 3 2633 2629 2635 2637
7539 3 2633 2629 2635 2638
7540 2 2634 2641 2648 2655
7541 4 2635 2636 2642 2643
7542 3 2635 2636 2642 2644
7543 3 2635 2636 2642 2645
7544 3 2636 2642 2643 2646
7545 3 2636 2642 2643 2647
7546 4 2636 2642 2643 2649
7547 3 2637 2635 2636 2642
7548 3 2638 2635 2636 2642
7549 3 2639 2636 2642 2643
7550 3 2639 2636 2642 2644
7551 3 2639 2636 2642 2645
7552 3 2640 2636 2642 2643
7553 3 2640 2636 2642 2644
7554 3 2640 2636 2642 2645
7555 2 2641 2648 2655 2662
7556 4 2642 2643 2649 2650
7557 3 2642 2643 2649 2651
7558 3 2642 2643 2649 2652
7559 3 2643 2649 2650 2653
7560 3 2643 2649 2650 2654
7561 4 2643 2649 2650 2656
7562 3 2644 2642 2643 2649
7563 3 2645 2642 2643 2649
7564 3 2646 2643 2649 2650
7565 3 2646 2643 2649 2651
7566 3 2646 2643 2649 2652
7567 3 2647 2643 2649 2650
7568 3 2647 2643 2649 2651
7569 3 2647 2643 2649 2652
7570 2 2648 2655 2662 2669
7571 4 2649 2650 2656 2657
7572 3 2649 2650 2656 2658
7573 3 2649 2650 2656 2659
7574 3 2650 2656 2657 2660
7575 3 2650 2656 2657 2661
7576 4 2650 2656 2657 2663
7577 3 2651 2649 2650 2656
7578 3 2652 2649 2650 2656
7579 3 2653 2650 2656 2657
7580 3 2653 2650 2656 2658
7581 3 2653 2650 2656 2659
7582 3 2654 2650 2656 2657
7583 3 2654 2650 2656 2658
7584 3 2654 2650 2656 2659
7585 2 2655 2662 2669 2676
7586 4 2656 2657 2663 2664
7587 3 2656 2657 2663 2665
7588 3 2656 2657 2663 2666
7589 3 2657 2663 2664 2667
7590 3 2657 2663 2664 2668
7591 4 2657 2663 2664 2670
7592 3 2658 2656 2657 2663
7593 3 2659 2656 2657 2663
7594 3 2660 2657 2663 2664
7595 3 2660 2657 2663 2665
7596 3 2660 2657 2663 2666
7597 3 2661 2657 2663 2664
7598 3 2661 2657 2663 2665
7599 3 2661 2657 2663 2666
7600 2 2662 2669 2676 2683
7601 4 2663 2664 2670 2671
7602 3 2663 2664 2670 2672
7603 3 2663 2664 2670 2673
7604 3 2664 2670 2671 2674
7605 3 2664 2670 2671 2675
7606 4 2664 2670 2671 2677
7607 3 2665 2663 2664 2670
7608 3 2666 2663 2664 2670
7609 3 2667 2664 2670 2671
7610 3 2667 2664 2670 2672
7611 3 2667 2664 2670 2673
7612 3 2668 2664 2670 2671
7613 3 2668 2664 2670 2672
7614 3 2668 2664 2670 2673
7615 2 2669 2676 2683 2690
7616 4 2670 2671 2677 2678
7617 3 2670 2671 2677 2679
7618 3 2670 2671 2677 2680
7619 3 2671 2677 2678 2681
7620 3 2671 2677 2678 2682
7621 4 2671 2677 2678 2684
7622 3 2672 2670 2671 2677
7623 3 2673 2670 2671 2677
7624 3 2674 2671 2677 2678
7625 3 2674 2671 2677 2679
7626 3 2674 2671 2677 2680
7627 3 2675 2671 2677 2678
7628 3 2675 2671 2677 2679
7629 3 2675 2671 2677 2680
7630 2 2676 2683 2690 2697
7631 4 2677 2678 2684 2685
7632 3 2677 2678 2684 2686
7633 3 2677 2678 2684 2687
7634 3 2678 2684 2685 2688
7635 3 2678 2684 2685 2689
7636 4 2678 2684 2685 2691
7637 3 2679 2677 2678 2684
7638 3 2680 2677 2678 2684
7639 3 2681 2678 2684 2685
7640 3 2681 2678 2684 2686
7641 3 2681 2678 2684 2687
7642 3 2682 2678 2684 2685
7643 3 2682 2678 2684 2686
7644 3 2682 2678 2684 2687
7645 2 2683 2690 2697 2704
7646 4 2684 2685 2691 2692
7647 3 2684 2685 2691 2693
7648 3 2684 2685 2691 2694
7649 3 2685 2691 2692 2695
7650 3 2685 2691 2692 2696
7651 4 2685 2691 2692 2698
7652 3 2686 2684 2685 2691
7653 3 2687 2684 2685 2691
7654 3 2688 2685 2691 2692
7655 3 2688 2685 2691 2693
7656 3 2688 2685 2691 2694
7657 3 2689 2685 2691 2692
7658 3 2689 2685 2691 2693
7659 3 2689 2685 2691 2694
7660 2 2690 2697 2704 2711
7661 4 2691 2692 2698 2699
7662 3 2691 2692 2698 2700
7663 3 2691 2692 2698 2701
7664 3 2692 2698 2699 2702
7665 3 2692 2698 2699 2703
7666 4 2692 2698 2699 2705
7667 3 2693 2691 2692 2698
7668 3 2694 2691 2692 2698
7669 3 2695 2692 2698 2699
7670 3 2695 2692 2698 2700
7671 3 2695 2692 2698 2701
7672 3 2696 2692 2698 2699
7673 3 2696 2692 2698 2700
7674 3 2696 2692 2698 2701
7675 2 2697 2704 2711 2718
7676 4 2698 2699 2705 2706
7677 3 2698 2699 2705 2707
7678 3 2698 2699 2705 2708
7679 3 2699 2705 2706 2709
7680 3 2699 2705 2706 2710
7681 4 2699 2705 2706 2712
7682 3 2700 2698 2699 2705
7683 3 2701 2698 2699 2705
7684 3 2702 2699 2705 2706
7685 3 2702 2699 2705 2707
7686 3 2702 2699 2705 2708
7687 3 2703 2699 2705 2706
7688 3 2703 2699 2705 2707
7689 3 2703 2699 2705 2708
7690 2 2704 2711 2718 2725
7691 4 2705 2706 2712 2713
7692 3 2705 2706 2712 2714
7693 3 2705 2706 2712 2715
7694 3 2706 2712 2713 2716
7695 3 2706 2712 2713 2717
7696 4 2706 2712 2713 2719
7697 3 2707 2705 2706 2712
7698 3 2708 2705 2706 2712
7699 3 2709 2706 2712 2713
7700 3 2709 2706 2712 2714
7701 3 2709 2706 2712 2715
7702 3 2710 2706 2712 2713
7703 3 2710 2706 2712 2714
7704 3 2710 2706 2712 2715
7705 2 2711 2718 2725 2732
7706 4 2712 2713 2719 2720
7707 3 2712 2713 2719 2721
7708 3 2712 2713 2719 2722
7709 3 2713 2719 2720 2723
7710 3 2713 2719 2720 2724
7711 4 2713 2719 2720 2726
7712 3 2714 2712 2713 2719
7713 3 2715 2712 2713 2719
7714 3 2716 2713 2719 2720
7715 3 2716 2713 2719 2721
7716 3 2716 2713 2719 2722
7717 3 2717 2713 2719 2720
7718 3 2717 2713 2719 2721
7719 3 2717 2713 2719 2722
7720 2 2718 2725 2732 2739
7721 4 2719 2720 2726 2727
7722 3 2719 2720 2726 2728
7723 3 2719 2720 2726 2729
7724 3 2720 2726 2727 2730
7725 3 2720 2726 2727 2731
7726 4 2720 2726 2727 2733
7727 3 2721 2719 2720 2726
7728 3 2722 2719 2720 2726
7729 3 2723 2720 2726 2727
7730 3 2723 2720 2726 2728
7731 3 2723 2720 2726 2729
7732 3 2724 2720 2726 2727
7733 3 2724 2720 2726 2728
7734 3 2724 2720 2726 2729
7735 2 2725 2732 2739 2746
7736 4 2726 2727 2733 2734
7737 3 2726 2727 2733 2735
7738 3 2726 2727 2733 2736
7739 3 2727 2733 2734 2737
7740 3 2727 2733 2734 2738
7741 4 2727 2733 2734 2740
7742 3 2728 2726 2727 2733
7743 3 2729 2726 2727 2733
7744 3 2730 2727 2733 2734
7745 3 2730 2727 2733 2735
7746 3 2730 2727 2733 2736
7747 3 2731 2727 2733 2734
7748 3 2731 2727 2733 2735
7749 3 2731 2727 2733 2736
7750 2 2732 2739 2746 2753
7751 4 2733 2734 2740 2741
7752 3 2733 2734 2740 2742
7753 3 2733 2734 2740 2743
7754 3 2734 2740 2741 2744
7755 3 2734 2740 2741 2745
7756 4 2734 2740 2741 2747
7757 3 2735 2733 2734 2740
7758 3 2736 2733 2734 2740
7759 3 2737 2734 2740 2741
7760 3 2737 2734 2740 2742
7761 3 2737 2734 2740 2743
7762 3 2738 2734 2740 2741
7763 3 2738 2734 2740 2742
7764 3 2738 2734 2740 2743
7765 2 2739 2746 2753 2760
7766 4 2740 2741 2747 2748
7767 3 2740 2741 2747 2749
7768 3 2740 2741 2747 2750
7769 3 2741 2747 2748 2751
7770 3 2741 2747 2748 2752
7771 4 2741 2747 2748 2754
7772 3 2742 2740 2741 2747
7773 3 2743 2740 2741 2747
7774 3 2744 2741 2747 2748
7775 3 2744 2741 2747 2749
7776 3 2744 2741 2747 2750
7777 3 2745 2741 2747 2748
7778 3 2745 2741 2747 2749
7779 3 2745 2741 2747 2750
7780 2 2746 2753 2760 2767
7781 4 2747 2748 2754 2755
7782 3 2747 2748 2754 2756
7783 3 2747 2748 2754 2757
7784 3 2748 2754 2755 2758
7785 3 2748 2754 2755 2759
7786 4 2748 2754 2755 2761
7787 3 2749 2747 2748 2754
7788 3 2750 2747 2748 2754
7789 3 2751 2748 2754 2755
7790 3 2751 2748 2754 2756
7791 3 2751 2748 2754 2757
7792 3 2752 2748 2754 2755
7793 3 2752 2748 2754 2756
7794 3 2752 2748 2754 2757
7795 2 2753 2760 2767 2774
7796 4 2754 2755 2761 2762
7797 3 2754 2755 2761 2763
7798 3 2754 2755 2761 2764
7799 3 2755 2761 2762 2765
7800 3 2755 2761 2762 2766
7801 4 2755 2761 2762 2768
7802 3 2756 2754 2755 2761
7803 3 2757 2754 2755 2761
7804 3 2758 2755 2761 2762
7805 3 2758 2755 2761 2763
7806 3 2758 2755 2761 2764
7807 3 2759 2755 2761 2762
7808 3 2759 2755 2761 2763
7809 3 2759 2755 2761 2764
7810 2 2760 2767 2774 2781
7811 4 2761 2762 2768 2769
7812 3 2761 2762 2768 2770
7813 3 2761 2762 2768 2771
7814 3 2762 2768 2769 2772
7815 3 2762 2768 2769 2773
7816 4 2762 2768 2769 2775
7817 3 2763 2761 2762 2768
7818 3 2764 2761 2762 2768
7819 3 2765 2762 2768 2769
7820 3 2765 2762 2768 2770
7821 3 2765 2762 2768 2771
7822 3 2766 2762 2768 2769
7823 3 2766 2762 2768 2770
7824 3 2766 2762 2768 2771
7825 2 2767 2774 2781 2788
7826 4 2768 2769 2775 2776
7827 3 2768 2769 2775 2777
7828 3 2768 2769 2775 2778
7829 3 2769 2775 2776 2779
7830 3 2769 2775 2776 2780
7831 4 2769 2775 2776 2782
7832 3 2770 2768 2769 2775
7833 3 2771 2768 2769 2775
7834 3 2772 2769 2775 2776
7835 3 2772 2769 2775 2777
7836 3 2772 2769 2775 2778
7837 3 2773 2769 2775 2776
7838 3 2773 2769 2775 2777
7839 3 2773 2769 2775 2778
7840 2 2774 2781 2788 2795
7841 4 2775 2776 2782 2783
7842 3 2775 2776 2782 2784
7843 3 2775 2776 2782 2785
7844 3 2776 2782 2783 2786
7845 3 2776 2782 2783 2787
7846 4 2776 2782 2783 2789
7847 3 2777 2775 2776 2782
7848 3 2778 2775 2776 2782
7849 3 2779 2776 2782 2783
7850 3 2779 2776 2782 2784
7851 3 2779 2776 2782 2785
7852 3 2780 2776 2782 2783
7853 3 2780 2776 2782 2784
7854 3 2780 2776 2782 2785
7855 2 2781 2788 2795 2802
7856 4 2782 2783 2789 2790
7857 3 2782 2783 2789 2791
7858 3 2782 2783 2789 2792
7859 3 2783 2789 2790 2793
7860 3 2783 2789 2790 2794
7861 4 2783 2789 2790 2796
7862 3 2784 2782 2783 2789
7863 3 2785 2782 2783 2789
7864 3 2786 2783 2789 2790
7865 3 2786 2783 2789 2791
7866 3 2786 2783 2789 2792
7867 3 2787 2783 2789 2790
7868 3 2787 2783 2789 2791
7869 3 2787 2783 2789 2792
7870 2 2788 2795 2802 2809
7871 4 2789 2790 2796 2797
7872 3 2789 2790 2796 2798
7873 3 2789 2790 2796 2799
7874 3 2790 2796 2797 2800
7875 3 2790 2796 2797 2801
7876 4 2790 2796 2797 2803
7877 3 2791 2789 2790 2796
7878 3 2792 2789 2790 2796
7879 3 2793 2790 2796 2797
7880 3 2793 2790 2796 2798
7881 3 2793 2790 2796 2799
7882 3 2794 2790 2796 2797
7883 3 2794 2790 2796 2798
7884 3 2794 2790 2796 2799
7885 4 2796 2797 2803 2804
7886 3 2796 2797 2803 2805
7887 3 2796 2797 2803 2806
7888 3 2797 2803 2804 2807
7889 3 2797 2803 2804 2808
7890 4 2797 2803 2804 2810
7891 3 2798 2796 2797 2803
7892 3 2799 2796 2797 2803
7893 3 2800 2797 2803 2804
7894 3 2800 2797 2803 2805
7895 3 2800 2797 2803 2806
7896 3 2801 2797 2803 2804
7897 3 2801 2797 2803 2805
7898 3 2801 2797 2803 2806
7899 4 2803 2804 2810 2811
7900 3 2803 2804 2810 2812
7901 3 2803 2804 2810 2813
7902 3 2804 2810 2811 2814
7903 3 2804 2810 2811 2815
7904 3 2804 2810 2811 2816
7905 3 2805 2803 2804 2810
7906 3 2806 2803 2804 2810
7907 3 2807 2804 2810 2811
7908 3 2807 2804 2810 2812
7909 3 2807 2804 2810 2813
7910 3 2808 2804 2810 2811
7911 3 2808 2804 2810 2812
7912 3 2808 2804 2810 2813
7913 2 2817 2825 2832 2839
7914 3 2818 2826 2827 2830
7915 3 2818 2826 2827 2831
7916 4 2818 2826 2827 2833
7917 4 2819 2818 2826 2827
7918 3 2819 2818 2826 2828
7919 3 2819 2818 2826 2829
7920 3 2820 2818 2826 2827
7921 3 2820 2818 2826 2828
7922 3 2820 2818 2826 2829
7923 3 2821 2818 2826 2827
7924 3 2821 2818 2826 2828
7925 3 2821 2818 2826 2829
7926 2 2825 2832 2839 2846
7927 3 2826 2818 2819 2822
7928 3 2826 2818 2819 2823
7929 3 2826 2818 2819 2824
7930 4 2826 2827 2833 2834
7931 3 2826 2827 2833 2835
7932 3 2826 2827 2833 2836
7933 3 2827 2833 2834 2837
7934 3 2827 2833 2834 2838
7935 4 2827 2833 2834 2840
7936 3 2828 2826 2827 2833
7937 3 2829 2826 2827 2833
7938 3 2830 2827 2833 2834
7939 3 2830 2827 2833 2835
7940 3 2830 2827 2833 2836
7941 3 2831 2827 2833 2834
7942 3 2831 2827 2833 2835
7943 3 2831 2827 2833 2836
7944 2 2832 2839 2846 2853
7945 4 2833 2834 2840 2841
7946 3 2833 2834 2840 2842
7947 3 2833 2834 2840 2843
7948 3 2834 2840 2841 2844
7949 3 2834 2840 2841 2845
7950 4 2834 2840 2841 2847
7951 3 2835 2833 2834 2840
7952 3 2836 2833 2834 2840
7953 3 2837 2834 2840 2841
7954 3 2837 2834 2840 2842
7955 3 2837 2834 2840 2843
7956 3 2838 2834 2840 2841
7957 3 2838 2834 2840 2842
7958 3 2838 2834 2840 2843
7959 2 2839 2846 2853 2860
7960 4 2840 2841 2847 2848
7961 3 2840 2841 2847 2849
7962 3 2840 2841 2847 2850
7963 3 2841 2847 2848 2851
7964 3 2841 2847 2848 2852
7965 4 2841 2847 2848 2854
7966 3 2842 2840 2841 2847
7967 3 2843 2840 2841 2847
7968 3 2844 2841 2847 2848
7969 3 2844 2841 2847 2849
7970 3 2844 2841 2847 2850
7971 3 2845 2841 2847 2848
7972 3 2845 2841 2847 2849
7973 3 2845 2841 2847 2850
7974 2 2846 2853 2860 2867
7975 4 2847 2848 2854 2855
7976 3 2847 2848 2854 2856
7977 3 2847 2848 2854 2857
7978 3 2848 2854 2855 2858
7979 3 2848 2854 2855 2859
7980 4 2848 2854 2855 2861
7981 3 2849 2847 2848 2854
7982 3 2850 2847 2848 2854
7983 3 2851 2848 2854 2855
7984 3 2851 2848 2854 2856
7985 3 2851 2848 2854 2857
7986 3 2852 2848 2854 2855
7987 3 2852 2848 2854 2856
7988 3 2852 2848 2854 2857
7989 2 2853 2860 2867 2874
7990 4 2854 2855 2861 2862
7991 3 2854 2855 2861 2863
7992 3 2854 2855 2861 2864
7993 3 2855 2861 2862 2865
7994 3 2855 2861 2862 2866
7995 4 2855 2861 2862 2868
7996 3 2856 2854 2855 2861
7997 3 2857 2854 2855 2861
7998 3 2858 2855 2861 2862
7999 3 2858 2855 2861 2863
8000 3 2858 2855 2861 2864
8001 3 2859 2855 2861 2862
8002 3 2859 2855 2861 2863
8003 3 2859 2855 2861 2864
8004 2 2860 2867 2874 2881
8005 4 2861 2862 2868 2869
8006 3 2861 2862 2868 2870
8007 3 2861 2862 2868 2871
8008 3 2862 2868 2869 2872
8009 3 2862 2868 2869 2873
8010 4 2862 2868 2869 2875
8011 3 2863 2861 2862 2868
8012 3 2864 2861 2862 2868
8013 3 2865 2862 2868 2869
8014 3 2865 2862 2868 2870
8015 3 2865 2862 2868 2871
8016 3 2866 2862 2868 2869
8017 3 2866 2862 2868 2870
8018 3 2866 2862 2868 2871
8019 2 2867 2874 2881 2888
8020 4 2868 2869 2875 2876
8021 3 2868 2869 2875 2877
8022 3 2868 2869 2875 2878
8023 3 2869 2875 2876 2879
8024 3 2869 2875 2876 2880
8025 4 2869 2875 2876 2882
8026 3 2870 2868 2869 2875
8027 3 2871 2868 2869 2875
8028 3 2872 2869 2875 2876
8029 3 2872 2869 2875 2877
8030 3 2872 2869 2875 2878
8031 3 2873 2869 2875 2876
8032 3 2873 2869 2875 2877
8033 3 2873 2869 2875 2878
8034 2 2874 2881 2888 2895
8035 4 2875 2876 2882 2883
8036 3 2875 2876 2882 2884
8037 3 2875 2876 2882 2885
8038 3 2876 2882 2883 2886
8039 3 2876 2882 2883 2887
8040 4 2876 2882 2883 2889
8041 3 2877 2875 2876 2882
8042 3 2878 2875 2876 2882
8043 3 2879 2876 2882 2883
8044 3 2879 2876 2882 2884
8045 3 2879 2876 2882 2885
8046 3 2880 2876 2882 2883
8047 3 2880 2876 2882 2884
8048 3 2880 2876 2882 2885
8049 2 2881 2888 2895 2902
8050 4 2882 2883 2889 2890
8051 3 2882 2883 2889 2891
8052 3 2882 2883 2889 2892
8053 3 2883 2889 2890 2893
8054 3 2883 2889 2890 2894
8055 4 2883 2889 2890 2896
8056 3 2884 2882 2883 2889
8057 3 2885 2882 2883 2889
8058 3 2886 2883 2889 2890
8059 3 2886 2883 2889 2891
8060 3 2886 2883 2889 2892
8061 3 2887 2883 2889 2890
8062 3 2887 2883 2889 2891
8063 3 2887 2883 2889 2892
8064 2 2888 2895 2902 2909
8065 4 2889 2890 2896 2897
8066 3 2889 2890 2896 2898
8067 3 2889 2890 2896 2899
8068 3 2890 2896 2897 2900
8069 3 2890 2896 2897 2901
8070 4 2890 2896 2897 2903
8071 3 2891 2889 2890 2896
8072 3 2892 2889 2890 2896
8073 3 2893 2890 2896 2897
8074 3 2893 2890 2896 2898
8075 3 2893 2890 2896 2899
8076 3 2894 2890 2896 2897
8077 3 2894 2890 2896 2898
8078 3 2894 2890 2896 2899
8079 2 2895 2902 2909 2916
8080 4 2896 2897 2903 2904
8081 3 2896 2897 2903 2905
8082 3 2896 2897 2903 2906
8083 3 2897 2903 2904 2907
8084 3 2897 2903 2904 2908
8085 4 2897 2903 2904 2910
8086 3 2898 2896 2897 2903
8087 3 2899 2896 2897 2903
8088 3 2900 2897 2903 2904
8089 3 2900 2897 2903 2905
8090 3 2900 2897 2903 2906
8091 3 2901 2897 2903 2904
8092 3 2901 2897 2903 2905
8093 3 2901 2897 2903 2906
8094 2 2902 2909 2916 2923
8095 4 2903 2904 2910 2911
8096 3 2903 2904 2910 2912
8097 3 2903 2904 2910 2913
8098 3 2904 2910 2911 2914
8099 3 2904 2910 2911 2915
8100 4 2904 2910 2911 2917
8101 3 2905 2903 2904 2910
8102 3 2906 2903 2904 2910
8103 3 2907 2904 2910 2911
8104 3 2907 2904 2910 2912
8105 3 2907 2904 2910 2913
8106 3 2908 2904 2910 2911
8107 3 2908 2904 2910 2912
8108 3 2908 2904 2910 2913
8109 2 2909 2916 2923 2930
8110 4 2910 2911 2917 2918
8111 3 2910 2911 2917 2919
8112 3 2910 2911 2917 2920
8113 3 2911 2917 2918 2921
8114 3 2911 2917 2918 2922
8115 4 2911 2917 2918 2924
8116 3 2912 2910 2911 2917
8117 3 2913 2910 2911 2917
8118 3 2914 2911 2917 2918
8119 3 2914 2911 2917 2919
8120 3 2914 2911 2917 2920
8121 3 2915 2911 2917 2918
8122 3 2915 2911 2917 2919
8123 3 2915 2911 2917 2920
8124 2 2916 2923 2930 2937
8125 4 2917 2918 2924 2925
8126 3 2917 2918 2924 2926
8127 3 2917 2918 2924 2927
8128 3 2918 2924 2925 2928
8129 3 2918 2924 2925 2929
8130 4 2918 2924 2925 2931
8131 3 2919 2917 2918 2924
8132 3 2920 2917 2918 2924
8133 3 2921 2918 2924 2925
8134 3 2921 2918 2924 2926
8135 3 2921 2918 2924 2927
8136 3 2922 2918 2924 2925
8137 3 2922 2918 2924 2926
8138 3 2922 2918 2924 2927
8139 2 2923 2930 2937 2944
8140 4 2924 2925 2931 2932
8141 3 2924 2925 2931 2933
8142 3 2924 2925 2931 2934
8143 3 2925 2931 2932 2935
8144 3 2925 2931 2932 2936
8145 4 2925 2931 2932 2938
8146 3 2926 2924 2925 2931
8147 3 2927 2924 2925 2931
8148 3 2928 2925 2931 2932
8149 3 2928 2925 2931 2933
8150 3 2928 2925 2931 2934
8151 3 2929 2925 2931 2932
8152 3 2929 2925 2931 2933
8153 3 2929 2925 2931 2934
8154 2 2930 2937 2944 2951
8155 4 2931 2932 2938 2939
8156 3 2931 2932 2938 2940
8157 3 2931 2932 2938 2941
8158 3 2932 2938 2939 2942
8159 3 2932 2938 2939 2943
8160 4 2932 2938 2939 2945
8161 3 2933 2931 2932 2938
8162 3 2934 2931 2932 2938
8163 3 2935 2932 2938 2939
8164 3 2935 2932 2938 2940
8165 3 2935 2932 2938 2941
8166 3 2936 2932 2938 2939
8167 3 2936 2932 2938 2940
8168 3 2936 2932 2938 2941
8169 2 2937 2944 2951 2958
8170 4 2938 2939 2945 2946
8171 3 2938 2939 2945 2947
8172 3 2938 2939 2945 2948
8173 3 2939 2945 2946 2949
8174 3 2939 2945 2946 2950
8175 4 2939 2945 2946 2952
8176 3 2940 2938 2939 2945
8177 3 2941 2938 2939 2945
8178 3 2942 2939 2945 2946
8179 3 2942 2939 2945 2947
8180 3 2942 2939 2945 2948
8181 3 2943 2939 2945 2946
8182 3 2943 2939 2945 2947
8183 3 2943 2939 2945 2948
8184 2 2944 2951 2958 2965
8185 4 2945 2946 2952 2953
8186 3 2945 2946 2952 2954
8187 3 2945 2946 2952 2955
8188 3 2946 2952 2953 2956
8189 3 2946 2952 2953 2957
8190 4 2946 2952 2953 2959
8191 3 2947 2945 2946 2952
8192 3 2948 2945 2946 2952
8193 3 2949 2946 2952 2953
8194 3 2949 2946 2952 2954
8195 3 2949 2946 2952 2955
8196 3 2950 2946 2952 2953
8197 3 2950 2946 2952 2954
8198 3 2950 2946 2952 2955
8199 2 2951 2958 2965 2972
8200 4 2952 2953 2959 2960
8201 3 2952 2953 2959 2961
8202 3 2952 2953 2959 2962
8203 3 2953 2959 2960 2963
8204 3 2953 2959 2960 2964
8205 4 2953 2959 2960 2966
8206 3 2954 2952 2953 2959
8207 3 2955 2952 2953 2959
8208 3 2956 2953 2959 2960
8209 3 2956 2953 2959 2961
8210 3 2956 2953 2959 2962
8211 3 2957 2953 2959 2960
8212 3 2957 2953 2959 2961
8213 3 2957 2953 2959 2962
8214 2 2958 2965 2972 2979
8215 4 2959 2960 2966 2967
8216 3 2959 2960 2966 2968
8217 3 2959 2960 2966 2969
8218 3 2960 2966 2967 2970
8219 3 2960 2966 2967 2971
8220 4 2960 2966 2967 2973
8221 3 2961 2959 2960 2966
8222 3 2962 2959 2960 2966
8223 3 2963 2960 2966 2967
8224 3 2963 2960 2966 2968
8225 3 2963 2960 2966 2969
8226 3 2964 2960 2966 2967
8227 3 2964 2960 2966 2968
8228 3 2964 2960 2966 2969
8229 2 2965 2972 2979 2986
8230 4 2966 2967 2973 2974
8231 3 2966 2967 2973 2975
8232 3 2966 2967 2973 2976
8233 3 2967 2973 2974 2977
8234 3 2967 2973 2974 2978
8235 4 2967 2973 2974 2980
8236 3 2968 2966 2967 2973
8237 3 2969 2966 2967 2973
8238 3 2970 2967 2973 2974
8239 3 2970 2967 2973 2975
8240 3 2970 2967 2973 2976
8241 3 2971 2967 2973 2974
8242 3 2971 2967 2973 2975
8243 3 2971 2967 2973 2976
8244 2 2972 2979 2986 2993
8245 4 2973 2974 2980 2981
8246 3 2973 2974 2980 2982
8247 3 2973 2974 2980 2983
8248 3 2974 2980 2981 2984
8249 3 2974 2980 2981 2985
8250 4 2974 2980 2981 2987
8251 3 2975 2973 2974 2980
8252 3 2976 2973 2974 2980
8253 3 2977 2974 2980 2981
8254 3 2977 2974 2980 2982
8255 3 2977 2974 2980 2983
8256 3 2978 2974 2980 2981
8257 3 2978 2974 2980 2982
8258 3 2978 2974 2980 2983
8259 2 2979 2986 2993 3000
8260 4 2980 2981 2987 2988
8261 3 2980 2981 2987 2989
8262 3 2980 2981 2987 2990
8263 3 2981 2987 2988 2991
8264 3 2981 2987 2988 2992
8265 4 2981 2987 2988 2994
8266 3 2982 2980 2981 2987
8267 3 2983 2980 2981 2987
8268 3 2984 2981 2987 2988
8269 3 2984 2981 2987 2989
8270 3 2984 2981 2987 2990
8271 3 2985 2981 2987 2988
8272 3 2985 2981 2987 2989
8273 3 2985 2981 2987 2990
8274 2 2986 2993 3000 3007
8275 4 2987 2988 2994 2995
8276 3 2987 2988 2994 2996
8277 3 2987 2988 2994 2997
8278 3 2988 2994 2995 2998
8279 3 2988 2994 2995 2999
8280 4 2988 2994 2995 3001
8281 3 2989 2987 2988 2994
8282 3 2990 2987 2988 2994
8283 3 2991 2988 2994 2995
8284 3 2991 2988 2994 2996
8285 3 2991 2988 2994 2997
8286 3 2992 2988 2994 2995
8287 3 2992 2988 2994 2996
8288 3 2992 2988 2994 2997
8289 2 2993 3000 3007 3014
8290 4 2994 2995 3001 3002
8291 3 2994 2995 3001 3003
8292 3 2994 2995 3001 3004
8293 3 2995 3001 3002 3005
8294 3 2995 3001 3002 3006
8295 4 2995 3001 3002 3008
8296 3 2996 2994 2995 3001
8297 3 2997 2994 2995 3001
8298 3 2998 2995 3001 3002
8299 3 2998 2995 3001 3003
8300 3 2998 2995 3001 3004
8301 3 2999 2995 3001 3002
8302 3 2999 2995 3001 3003
8303 3 2999 2995 3001 3004
8304 2 3000 3007 3014 3021
8305 4 3001 3002 3008 3009
8306 3 3001 3002 3008 3010
8307 3 3001 3002 3008 3011
8308 3 3002 3008 3009 3012
8309 3 3002 3008 3009 3013
8310 4 3002 3008 3009 3015
8311 3 3003 3001 3002 3008
8312 3 3004 3001 3002 3008
8313 3 3005 3002 3008 3009
8314 3 3005 3002 3008 3010
8315 3 3005 3002 3008 3011
8316 3 3006 3002 3008 3009
8317 3 3006 3002 3008 3010
8318 3 3006 3002 3008 3011
8319 2 3007 3014 3021 3028
8320 4 3008 3009 3015 3016
8321 3 3008 3009 3015 3017
8322 3 3008 3009 3015 3018
8323 3 3009 3015 3016 3019
8324 3 3009 3015 3016 3020
8325 4 3009 3015 3016 3022
8326 3 3010 3008 3009 3015
8327 3 3011 3008 3009 3015
8328 3 3012 3009 3015 3016
8329 3 3012 3009 3015 3017
8330 3 3012 3009 3015 3018
8331 3 3013 3009 3015 3016
8332 3 3013 3009 3015 3017
8333 3 3013 3009 3015 3018
8334 2 3014 3021 3028 3035
8335 4 3015 3016 3022 3023
8336 3 3015 3016 3022 3024
8337 3 3015 3016 3022 3025
8338 3 3016 3022 3023 3026
8339 3 3016 3022 3023 3027
8340 4 3016 3022 3023 3029
8341 3 3017 3015 3016 3022
8342 3 3018 3015 3016 3022
8343 3 3019 3016 3022 3023
8344 3 3019 3016 3022 3024
8345 3 3019 3016 3022 3025
8346 3 3020 3016 3022 3023
8347 3 3020 3016 3022 3024
8348 3 3020 3016 3022 3025
8349 2 3021 3028 3035 3042
8350 4 3022 3023 3029 3030
8351 3 3022 3023 3029 3031
8352 3 3022 3023 3029 3032
8353 3 3023 3029 3030 3033
8354 3 3023 3029 3030 3034
8355 4 3023 3029 3030 3036
8356 3 3024 3022 3023 3029
8357 3 3025 3022 3023 3029
8358 3 3026 3023 3029 3030
8359 3 3026 3023 3029 3031
8360 3 3026 3023 3029 3032
8361 3 3027 3023 3029 3030
8362 3 3027 3023 3029 3031
8363 3 3027 3023 3029 3032
8364 2 3028 3035 3042 3049
8365 4 3029 3030 3036 3037
8366 3 3029 3030 3036 3038
8367 3 3029 3030 3036 3039
8368 3 3030 3036 3037 3040
8369 3 3030 3036 3037 3041
8370 4 3030 3036 3037 3043
8371 3 3031 3029 3030 3036
8372 3 3032 3029 3030 3036
8373 3 3033 3030 3036 3037
8374 3 3033 3030 3036 3038
8375 3 3033 3030 3036 3039
8376 3 3034 3030 3036 3037
8377 3 3034 3030 3036 3038
8378 3 3034 3030 3036 3039
8379 2 3035 3042 3049 3056
8380 4 3036 3037 3043 3044
8381 3 3036 3037 3043 3045
8382 3 3036 3037 3043 3046
8383 3 3037 3043 3044 3047
8384 3 3037 3043 3044 3048
8385 4 3037 3043 3044 3050
8386 3 3038 3036 3037 3043
8387 3 3039 3036 3037 3043
8388 3 3040 3037 3043 3044
8389 3 3040 3037 3043 3045
8390 3 3040 3037 3043 3046
8391 3 3041 3037 3043 3044
8392 3 3041 3037 3043 3045
8393 3 3041 3037 3043 3046
8394 2 3042 3049 3056 3063
8395 4 3043 3044 3050 3051
8396 3 3043 3044 3050 3052
8397 3 3043 3044 3050 3053
8398 3 3044 3050 3051 3054
8399 3 3044 3050 3051 3055
8400 4 3044 3050 3051 3057
8401 3 3045 3043 3044 3050
8402 3 3046 3043 3044 3050
8403 3 3047 3044 3050 3051
8404 3 3047 3044 3050 3052
8405 3 3047 3044 3050 3053
8406 3 3048 3044 3050 3051
8407 3 3048 3044 3050 3052
8408 3 3048 3044 3050 3053
8409 2 3049 3056 3063 3070
8410 4 3050 3051 3057 3058
8411 3 3050 3051 3057 3059
8412 3 3050 3051 3057 3060
8413 3 3051 3057 3058 3061
8414 3 3051 3057 3058 3062
8415 4 3051 3057 3058 3064
8416 3 3052 3050 3051 3057
8417 3 3053 3050 3051 3057
8418 3 3054 3051 3057 3058
8419 3 3054 3051 3057 3059
8420 3 3054 3051 3057 3060
8421 3 3055 3051 3057 3058
8422 3 3055 3051 3057 3059
8423 3 3055 3051 3057 3060
8424 2 3056 3063 3070 3077
8425 4 3057 3058 3064 3065
8426 3 3057 3058 3064 3066
8427 3 3057 3058 3064 3067
8428 3 3058 3064 3065 3068
8429 3 3058 3064 3065 3069
8430 4 3058 3064 3065 3071
8431 3 3059 3057 3058 3064
8432 3 3060 3057 3058 3064
8433 3 3061 3058 3064 3065
8434 3 3061 3058 3064 3066
8435 3 3061 3058 3064 3067
8436 3 3062 3058 3064 3065
8437 3 3062 3058 3064 3066
8438 3 3062 3058 3064 3067
8439 2 3063 3070 3077 3084
8440 4 3064 3065 3071 3072
8441 3 3064 3065 3071 3073
8442 3 3064 3065 3071 3074
8443 3 3065 3071 3072 3075
8444 3 3065 3071 3072 3076
8445 4 3065 3071 3072 3078
8446 3 3066 3064 3065 3071
8447 3 3067 3064 3065 3071
8448 3 3068 3065 3071 3072
8449 3 3068 3065 3071 3073
8450 3 3068 3065 3071 3074
8451 3 3069 3065 3071 3072
8452 3 3069 3065 3071 3073
8453 3 3069 3065 3071 3074
8454 2 3070 3077 3084 3091
8455 4 3071 3072 3078 3079
8456 3 3071 3072 3078 3080
8457 3 3071 3072 3078 3081
8458 3 3072 3078 3079 3082
8459 3 3072 3078 3079 3083
8460 4 3072 3078 3079 3085
8461 3 3073 3071 3072 3078
8462 3 3074 3071 3072 3078
8463 3 3075 3072 3078 3079
8464 3 3075 3072 3078 3080
8465 3 3075 3072 3078 3081
8466 3 3076 3072 3078 3079
8467 3 3076 3072 3078 3080
8468 3 3076 3072 3078 3081
8469 2 3077 3084 3091 3098
8470 4 3078 3079 3085 3086
8471 3 3078 3079 3085 3087
8472 3 3078 3079 3085 3088
8473 3 3079 3085 3086 3089
8474 3 3079 3085 3086 3090
8475 4 3079 3085 3086 3092
8476 3 3080 3078 3079 3085
8477 3 3081 3078 3079 3085
8478 3 3082 3079 3085 3086
8479 3 3082 3079 3085 3087
8480 3 3082 3079 3085 3088
8481 3 3083 3079 3085 3086
8482 3 3083 3079 3085 3087
8483 3 3083 3079 3085 3088
8484 2 3084 3091 3098 3105
8485 4 3085 3086 3092 3093
8486 3 3085 3086 3092 3094
8487 3 3085 3086 3092 3095
8488 3 3086 3092 3093 3096
8489 3 3086 3092 3093 3097
8490 4 3086 3092 3093 3099
8491 3 3087 3085 3086 3092
8492 3 3088 3085 3086 3092
8493 3 3089 3086 3092 3093
8494 3 3089 3086 3092 3094
8495 3 3089 3086 3092 3095
8496 3 3090 3086 3092 3093
8497 3 3090 3086 3092 3094
8498 3 3090 3086 3092 3095
8499 2 3091 3098 3105 3112
8500 4 3092 3093 3099 3100
8501 3 3092 3093 3099 3101
8502 3 3092 3093 3099 3102
8503 3 3093 3099 3100 3103
8504 3 3093 3099 3100 3104
8505 4 3093 3099 3100 3106
8506 3 3094 3092 3093 3099
8507 3 3095 3092 3093 3099
8508 3 3096 3093 3099 3100
8509 3 3096 3093 3099 3101
8510 3 3096 3093 3099 3102
8511 3 3097 3093 3099 3100
8512 3 3097 3093 3099 3101
8513 3 3097 3093 3099 3102
8514 2 3098 3105 3112 3119
8515 4 3099 3100 3106 3107
8516 3 3099 3100 3106 3108
8517 3 3099 3100 3106 3109
8518 3 3100 3106 3107 3110
8519 3 3100 3106 3107 3111
8520 4 3100 3106 3107 3113
8521 3 3101 3099 3100 3106
8522 3 3102 3099 3100 3106
8523 3 3103 3100 3106 3107
8524 3 3103 3100 3106 3108
8525 3 3103 3100 3106 3109
8526 3 3104 3100 3106 3107
8527 3 3104 3100 3106 3108
8528 3 3104 3100 3106 3109
8529 2 3105 3112 3119 3126
8530 4 3106 3107 3113 3114
8531 3 3106 3107 3113 3115
8532 3 3106 3107 3113 3116
8533 3 3107 3113 3114 3117
8534 3 3107 3113 3114 3118
8535 4 3107 3113 3114 3120
8536 3 3108 3106 3107 3113
8537 3 3109 3106 3107 3113
8538 3 3110 3107 3113 3114
8539 3 3110 3107 3113 3115
8540 3 3110 3107 3113 3116
8541 3 3111 3107 3113 3114
8542 3 3111 3107 3113 3115
8543 3 3111 3107 3113 3116
8544 2 3112 3119 3126 3133
8545 4 3113 3114 3120 3121
8546 3 3113 3114 3120 3122
8547 3 3113 3114 3120 3123
8548 3 3114 3120 3121 3124
8549 3 3114 3120 3121 3125
8550 4 3114 3120 3121 3127
8551 3 3115 3113 3114 3120
8552 3 3116 3113 3114 3120
8553 3 3117 3114 3120 3121
8554 3 3117 3114 3120 3122
8555 3 3117 3114 3120 3123
8556 3 3118 3114 3120 3121
8557 3 3118 3114 3120 3122
8558 3 3118 3114 3120 3123
8559 2 3119 3126 3133 3140
8560 4 3120 3121 3127 3128
8561 3 3120 3121 3127 3129
8562 3 3120 3121 3127 3130
8563 3 3121 3127 3128 3131
8564 3 3121 3127 3128 3132
8565 4 3121 3127 3128 3134
8566 3 3122 3120 3121 3127
8567 3 3123 3120 3121 3127
8568 3 3124 3121 3127 3128
8569 3 3124 3121 3127 3129
8570 3 3124 3121 3127 3130
8571 3 3125 3121 3127 3128
8572 3 3125 3121 3127 3129
8573 3 3125 3121 3127 3130
8574 2 3126 3133 3140 3147
8575 4 3127 3128 3134 3135
8576 3 3127 3128 3134 3136
8577 3 3127 3128 3134 3137
8578 3 3128 3134 3135 3138
8579 3 3128 3134 3135 3139
8580 4 3128 3134 3135 3141
8581 3 3129 3127 3128 3134
8582 3 3130 3127 3128 3134
8583 3 3131 3128 3134 3135
8584 3 3131 3128 3134 3136
8585 3 3131 3128 3134 3137
8586 3 3132 3128 3134 3135
8587 3 3132 3128 3134 3136
8588 3 3132 3128 3134 3137
8589 2 3133 3140 3147 3154
8590 4 3134 3135 3141 3142
8591 3 3134 3135 3141 3143
8592 3 3134 3135 3141 3144
8593 3 3135 3141 3142 3145
8594 3 3135 3141 3142 3146
8595 4 3135 3141 3142 3148
8596 3 3136 3134 3135 3141
8597 3 3137 3134 3135 3141
8598 3 3138 3135 3141 3142
8599 3 3138 3135 3141 3143
8600 3 3138 3135 3141 3144
8601 3 3139 3135 3141 3142
8602 3 3139 3135 3141 3143
8603 3 3139 3135 3141 3144
8604 2 3140 3147 3154 3161
8605 4 3141 3142 3148 3149
8606 3 3141 3142 3148 3150
8607 3 3141 3142 3148 3151
8608 3 3142 3148 3149 3152
8609 3 3142 3148 3149 3153
8610 4 3142 3148 3149 3155
8611 3 3143 3141 3142 3148
8612 3 3144 3141 3142 3148
8613 3 3145 3142 3148 3149
8614 3 3145 3142 3148 3150
8615 3 3145 3142 3148 3151
8616 3 3146 3142 3148 3149
8617 3 3146 3142 3148 3150
8618 3 3146 3142 3148 3151
8619 4 3148 3149 3155 3156
8620 3 3148 3149 3155 3157
8621 3 3148 3149 3155 3158
8622 3 3149 3155 3156 3159
8623 3 3149 3155 3156 3160
8624 4 3149 3155 3156 3162
8625 3 3150 3148 3149 3155
8626 3 3151 3148 3149 3155
8627 3 3152 3149 3155 3156
8628 3 3152 3149 3155 3157
8629 3 3152 3149 3155 3158
8630 3 3153 3149 3155 3156
8631 3 3153 3149 3155 3157
8632 3 3153 3149 3155 3158
8633 4 3155 3156 3162 3163
8634 3 3155 3156 3162 3164
8635 3 3155 3156 3162 3165
8636 3 3156 3162 3163 3166
8637 3 3156 3162 3163 3167
8638 3 3156 3162 3163 3168
8639 3 3157 3155 3156 3162
8640 3 3158 3155 3156 3162
8641 3 3159 3156 3162 3163
8642 3 3159 3156 3162 3164
8643 3 3159 3156 3162 3165
8644 3 3160 3156 3162 3163
8645 3 3160 3156 3162 3164
8646 3 3160 3156 3162 3165
8647 2 3169 3177 3184 3191
8648 3 3170 3178 3179 3182
8649 3 3170 3178 3179 3183
8650 4 3170 3178 3179 3185
8651 4 3171 3170 3178 3179
8652 3 3171 3170 3178 3180
8653 3 3171 3170 3178 3181
8654 3 3172 3170 3178 3179
8655 3 3172 3170 3178 3180
8656 3 3172 3170 3178 3181
8657 3 3173 3170 3178 3179
8658 3 3173 3170 3178 3180
8659 3 3173 3170 3178 3181
8660 2 3177 3184 3191 3198
8661 3 3178 3170 3171 3174
8662 3 3178 3170 3171 3175
8663 3 3178 3170 3171 3176
8664 4 3178 3179 3185 3186
8665 3 3178 3179 3185 3187
8666 3 3178 3179 3185 3188
8667 3 3179 3185 3186 3189
8668 3 3179 3185 3186 3190
8669 4 3179 3185 3186 3192
8670 3 3180 3178 3179 3185
8671 3 3181 3178 3179 3185
8672 3 3182 3179 3185 3186
8673 3 3182 3179 3185 3187
8674 3 3182 3179 3185 3188
8675 3 3183 3179 3185 3186
8676 3 3183 3179 3185 3187
8677 3 3183 3179 3185 3188
8678 2 3184 3191 3198 3205
8679 4 3185 3186 3192 3193
8680 3 3185 3186 3192 3194
8681 3 3185 3186 3192 3195
8682 3 3186 3192 3193 3196
8683 3 3186 3192 3193 3197
8684 4 3186 3192 3193 3199
8685 3 3187 3185 3186 3192
8686 3 3188 3185 3186 3192
8687 3 3189 3186 3192 3193
8688 3 3189 3186 3192 3194
8689 3 3189 3186 3192 3195
8690 3 3190 3186 3192 3193
8691 3 3190 3186 3192 3194
8692 3 3190 3186 3192 3195
8693 2 3191 3198 3205 3212
8694 4 3192 3193 3199 3200
8695 3 3192 3193 3199 3201
8696 3 3192 3193 3199 3202
8697 3 3193 3199 3200 3203
8698 3 3193 3199 3200 3204
8699 4 3193 3199 3200 3206
8700 3 3194 3192 3193 3199
8701 3 3195 3192 3193 3199
8702 3 3196 3193 3199 3200
8703 3 3196 3193 3199 3201
8704 3 3196 3193 3199 3202
8705 3 3197 3193 3199 3200
8706 3 3197 3193 3199 3201
8707 3 3197 3193 3199 3202
8708 2 3198 3205 3212 3219
8709 4 3199 3200 3206 3207
8710 3 3199 3200 3206 3208
8711 3 3199 3200 3206 3209
8712 3 3200 3206 3207 3210
8713 3 3200 3206 3207 3211
8714 4 3200 3206 3207 3213
8715 3 3201 3199 3200 3206
8716 3 3202 3199 3200 3206
8717 3 3203 3200 3206 3207
8718 3 3203 3200 3206 3208
8719 3 3203 3200 3206 3209
8720 3 3204 3200 3206 3207
8721 3 3204 3200 3206 3208
8722 3 3204 3200 3206 3209
8723 2 3205 3212 3219 3226
8724 4 3206 3207 3213 3214
8725 3 3206 3207 3213 3215
8726 3 3206 3207 3213 3216
8727 3 3207 3213 3214 3217
8728 3 3207 3213 3214 3218
8729 4 3207 3213 3214 3220
8730 3 3208 3206 3207 3213
8731 3 3209 3206 3207 3213
8732 3 3210 3207 3213 3214
8733 3 3210 3207 3213 3215
8734 3 3210 3207 3213 3216
8735 3 3211 3207 3213 3214
8736 3 3211 3207 3213 3215
8737 3 3211 3207 3213 3216
8738 2 3212 3219 3226 3233
8739 4 3213 3214 3220 3221
8740 3 3213 3214 3220 3222
8741 3 3213 3214 3220 3223
8742 3 3214 3220 3221 3224
8743 3 3214 3220 3221 3225
8744 4 3214 3220 3221 3227
8745 3 3215 3213 3214 3220
8746 3 3216 3213 3214 3220
8747 3 3217 3214 3220 3221
8748 3 3217 3214 3220 3222
8749 3 3217 3214 3220 3223
8750 3 3218 3214 3220 3221
8751 3 3218 3214 3220 3222
8752 3 3218 3214 3220 3223
8753 2 3219 3226 3233 3240
8754 4 3220 3221 3227 3228
8755 3 3220 3221 3227 3229
8756 3 3220 3221 3227 3230
8757 3 3221 3227 3228 3231
8758 3 3221 3227 3228 3232
8759 4 3221 3227 3228 3234
8760 3 3222 3220 3221 3227
8761 3 3223 3220 3221 3227
8762 3 3224 3221 3227 3228
8763 3 3224 3221 3227 3229
8764 3 3224 3221 3227 3230
8765 3 3225 3221 3227 3228
8766 3 3225 3221 3227 3229
8767 3 3225 3221 3227 3230
8768 2 3226 3233 3240 3247
8769 4 3227 3228 3234 3235
8770 3 3227 3228 3234 3236
8771 3 3227 3228 3234 3237
8772 3 3228 3234 3235 3238
8773 3 3228 3234 3235 3239
8774 4 3228 3234 3235 3241
8775 3 3229 3227 3228 3234
8776 3 3230 3227 3228 3234
8777 3 3231 3228 3234 3235
8778 3 3231 3228 3234 3236
8779 3 3231 3228 3234 3237
8780 3 3232 3228 3234 3235
8781 3 3232 3228 3234 3236
8782 3 3232 3228 3234 3237
8783 2 3233 3240 3247 3254
8784 4 3234 3235 3241 3242
8785 3 3234 3235 3241 3243
8786 3 3234 3235 3241 3244
8787 3 3235 3241 3242 3245
8788 3 3235 3241 3242 3246
8789 4 3235 3241 3242 3248
8790 3 3236 3234 3235 3241
8791 3 3237 3234 3235 3241
8792 3 3238 3235 3241 3242
8793 3 3238 3235 3241 3243
8794 3 3238 3235 3241 3244
8795 3 3239 3235 3241 3242
8796 3 3239 3235 3241 3243
8797 3 3239 3235 3241 3244
8798 2 3240 3247 3254 3261
8799 4 3241 3242 3248 3249
8800 3 3241 3242 3248 3250
8801 3 3241 3242 3248 3251
8802 3 3242 3248 3249 3252
8803 3 3242 3248 3249 3253
8804 4 3242 3248 3249 3255
8805 3 3243 3241 3242 3248
8806 3 3244 3241 3242 3248
8807 3 3245 3242 3248 3249
8808 3 3245 3242 3248 3250
8809 3 3245 3242 3248 3251
8810 3 3246 3242 3248 3249
8811 3 3246 3242 3248 3250
8812 3 3246 3242 3248 3251
8813 2 3247 3254 3261 3268
8814 4 3248 3249 3255 3256
8815 3 3248 3249 3255 3257
8816 3 3248 3249 3255 3258
8817 3 3249 3255 3256 3259
8818 3 3249 3255 3256 3260
8819 4 3249 3255 3256 3262
8820 3 3250 3248 3249 3255
8821 3 3251 3248 3249 3255
8822 3 3252 3249 3255 3256
8823 3 3252 3249 3255 3257
8824 3 3252 3249 3255 3258
8825 3 3253 3249 3255 3256
8826 3 3253 3249 3255 3257
8827 3 3253 3249 3255 3258
8828 2 3254 3261 3268 3275
8829 4 3255 3256 3262 3263
8830 3 3255 3256 3262 3264
8831 3 3255 3256 3262 3265
8832 3 3256 3262 3263 3266
8833 3 3256 3262 3263 3267
8834 4 3256 3262 3263 3269
8835 3 3257 3255 3256 3262
8836 3 3258 3255 3256 3262
8837 3 3259 3256 3262 3263
8838 3 3259 3256 3262 3264
8839 3 3259 3256 3262 3265
8840 3 3260 3256 3262 3263
8841 3 3260 3256 3262 3264
8842 3 3260 3256 3262 3265
8843 2 3261 3268 3275 3282
8844 4 3262 3263 3269 3270
8845 3 3262 3263 3269 3271
8846 3 3262 3263 3269 3272
8847 3 3263 3269 3270 3273
8848 3 3263 3269 3270 3274
8849 4 3263 3269 3270 3276
8850 3 3264 3262 3263 3269
8851 3 3265 3262 3263 3269
8852 3 3266 3263 3269 3270
8853 3 3266 3263 3269 3271
8854 3 3266 3263 3269 3272
8855 3 3267 3263 3269 3270
8856 3 3267 3263 3269 3271
8857 3 3267 3263 3269 3272
8858 2 3268 3275 3282 3289
8859 4 3269 3270 3276 3277
8860 3 3269 3270 3276 3278
8861 3 3269 3270 3276 3279
8862 3 3270 3276 3277 3280
8863 3 3270 3276 3277 3281
8864 4 3270 3276 3277 3283
8865 3 3271 3269 3270 3276
8866 3 3272 3269 3270 3276
8867 3 3273 3270 3276 3277
8868 3 3273 3270 3276 3278
8869 3 3273 3270 3276 3279
8870 3 3274 3270 3276 3277
8871 3 3274 3270 3276 3278
8872 3 3274 3270 3276 3279
8873 2 3275 3282 3289 3296
8874 4 3276 3277 3283 3284
8875 3 3276 3277 3283 3285
8876 3 3276 3277 3283 3286
8877 3 3277 3283 3284 3287
8878 3 3277 3283 3284 3288
8879 4 3277 3283 3284 3290
8880 3 3278 3276 3277 3283
8881 3 3279 3276 3277 3283
8882 3 3280 3277 3283 3284
8883 3 3280 3277 3283 3285
8884 3 3280 3277 3283 3286
8885 3 3281 3277 3283 3284
8886 3 3281 3277 3283 3285
8887 3 3281 3277 3283 3286
8888 2 3282 3289 3296 3303
8889 4 3283 3284 3290 3291
8890 3 3283 3284 3290 3292
8891 3 3283 3284 3290 3293
8892 3 3284 3290 3291 3294
8893 3 3284 3290 3291 3295
8894 4 3284 3290 3291 3297
8895 3 3285 3283 3284 3290
8896 3 3286 3283 3284 3290
8897 3 3287 3284 3290 3291
8898 3 3287 3284 3290 3292
8899 3 3287 3284 3290 3293
8900 3 3288 3284 3290 3291
8901 3 3288 3284 3290 3292
8902 3 3288 3284 3290 3293
8903 2 3289 3296 3303 3310
8904 4 3290 3291 3297 3298
8905 3 3290 3291 3297 3299
8906 3 3290 3291 3297 3300
8907 3 3291 3297 3298 3301
8908 3 3291 3297 3298 3302
8909 4 3291 3297 3298 3304
8910 3 3292 3290 3291 3297
8911 3 3293 3290 3291 3297
8912 3 3294 3291 3297 3298
8913 3 3294 3291 3297 3299
8914 3 3294 3291 3297 3300
8915 3 3295 3291 3297 3298
8916 3 3295 3291 3297 3299
8917 3 3295 3291 3297 3300
8918 2 3296 3303 3310 3317
8919 4 3297 3298 3304 3305
8920 3 3297 3298 3304 3306
8921 3 3297 3298 3304 3307
8922 3 3298 3304 3305 3308
8923 3 3298 3304 3305 3309
8924 4 3298 3304 3305 3311
8925 3 3299 3297 3298 3304
8926 3 3300 3297 3298 3304
8927 3 3301 3298 3304 3305
8928 3 3301 3298 3304 3306
8929 3 3301 3298 3304 3307
8930 3 3302 3298 3304 3305
8931 3 3302 3298 3304 3306
8932 3 3302 3298 3304 3307
8933 2 3303 3310 3317 3324
8934 4 3304 3305 3311 3312
8935 3 3304 3305 3311 3313
8936 3 3304 3305 3311 3314
8937 3 3305 3311 3312 3315
8938 3 3305 3311 3312 3316
8939 4 3305 3311 3312 3318
8940 3 3306 3304 3305 3311
8941 3 3307 3304 3305 3311
8942 3 3308 3305 3311 3312
8943 3 3308 3305 3311 3313
8944 3 3308 3305 3311 3314
8945 3 3309 3305 3311 3312
8946 3 3309 3305 3311 3313
8947 3 3309 3305 3311 3314
8948 2 3310 3317 3324 3331
8949 4 3311 3312 3318 3319
8950 3 3311 3312 3318 3320
8951 3 3311 3312 3318 3321
8952 3 3312 3318 3319 3322
8953 3 3312 3318 3319 3323
8954 4 3312 3318 3319 3325
8955 3 3313 3311 3312 3318
8956 3 3314 3311 3312 3318
8957 3 3315 3312 3318 3319
8958 3 3315 3312 3318 3320
8959 3 3315 3312 3318 3321
8960 3 3316 3312 3318 3319
8961 3 3316 3312 3318 3320
8962 3 3316 3312 3318 3321
8963 2 3317 3324 3331 3338
8964 4 3318 3319 3325 3326
8965 3 3318 3319 3325 3327
8966 3 3318 3319 3325 3328
8967 3 3319 3325 3326 3329
8968 3 3319 3325 3326 3330
8969 4 3319 3325 3326 3332
8970 3 3320 3318 3319 3325
8971 3 3321 3318 3319 3325
8972 3 3322 3319 3325 3326
8973 3 3322 3319 3325 3327
8974 3 3322 3319 3325 3328
8975 3 3323 3319 3325 3326
8976 3 3323 3319 3325 3327
8977 3 3323 3319 3325 3328
8978 2 3324 3331 3338 3345
8979 4 3325 3326 3332 3333
8980 3 3325 3326 3332 3334
8981 3 3325 3326 3332 3335
8982 3 3326 3332 3333 3336
8983 3 3326 3332 3333 3337
8984 4 3326 3332 3333 3339
8985 3 3327 3325 3326 3332
8986 3 3328 3325 3326 3332
8987 3 3329 3326 3332 3333
8988 3 3329 3326 3332 3334
8989 3 3329 3326 3332 3335
8990 3 3330 3326 3332 3333
8991 3 3330 3326 3332 3334
8992 3 3330 3326 3332 3335
8993 2 3331 3338 3345 3352
8994 4 3332 3333 3339 3340
8995 3 3332 3333 3339 3341
8996 3 3332 3333 3339 3342
8997 3 3333 3339 3340 3343
8998 3 3333 3339 3340 3344
8999 4 3333 3339 3340 3346
9000 3 3334 3332 3333 3339
9001 3 3335 3332 3333 3339
9002 3 3336 3333 3339 3340
9003 3 3336 3333 3339 3341
9004 3 3336 3333 3339 3342
9005 3 3337 3333 3339 3340
9006 3 3337 3333 3339 3341
9007 3 3337 3333 3339 3342
9008 2 3338 3345 3352 3359
9009 4 3339 3340 3346 3347
9010 3 3339 3340 3346 3348
9011 3 3339 3340 3346 3349
9012 3 3340 3346 3347 3350
9013 3 3340 3346 3347 3351
9014 4 3340 3346 3347 3353
9015 3 3341 3339 3340 3346
9016 3 3342 3339 3340 3346
9017 3 3343 3340 3346 3347
9018 3 3343 3340 3346 3348
9019 3 3343 3340 3346 3349
9020 3 3344 3340 3346 3347
9021 3 3344 3340 3346 3348
9022 3 3344 3340 3346 3349
9023 2 3345 3352 3359 3366
9024 4 3346 3347 3353 3354
9025 3 3346 3347 3353 3355
9026 3 3346 3347 3353 3356
9027 3 3347 3353 3354 3357
9028 3 3347 3353 3354 3358
9029 4 3347 3353 3354 3360
9030 3 3348 3346 3347 3353
9031 3 3349 3346 3347 3353
9032 3 3350 3347 3353 3354
9033 3 3350 3347 3353 3355
9034 3 3350 3347 3353 3356
9035 3 3351 3347 3353 3354
9036 3 3351 3347 3353 3355
9037 3 3351 3347 3353 3356
9038 2 3352 3359 3366 3373
9039 4 3353 3354 3360 3361
9040 3 3353 3354 3360 3362
9041 3 3353 3354 3360 3363
9042 3 3354 3360 3361 3364
9043 3 3354 3360 3361 3365
9044 4 3354 3360 3361 3367
9045 3 3355 3353 3354 3360
9046 3 3356 3353 3354 3360
9047 3 3357 3354 3360 3361
9048 3 3357 3354 3360 3362
9049 3 3357 3354 3360 3363
9050 3 3358 3354 3360 3361
9051 3 3358 3354 3360 3362
9052 3 3358 3354 3360 3363
9053 2 3359 3366 3373 3380
9054 4 3360 3361 3367 3368
9055 3 3360 3361 3367 3369
9056 3 3360 3361 3367 3370
9057 3 3361 3367 3368 3371
9058 3 3361 3367 3368 3372
9059 4 3361 3367 3368 3374
9060 3 3362 3360 3361 3367
9061 3 3363 3360 3361 3367
9062 3 3364 3361 3367 3368
9063 3 3364 3361 3367 3369
9064 3 3364 3361 3367 3370
9065 3 3365 3361 3367 3368
9066 3 3365 3361 3367 3369
9067 3 3365 3361 3367 3370
9068 2 3366 3373 3380 3387
9069 4 3367 3368 3374 3375
9070 3 3367 3368 3374 3376
9071 3 3367 3368 3374 3377
9072 3 3368 3374 3375 3378
9073 3 3368 3374 3375 3379
9074 4 3368 3374 3375 3381
9075 3 3369 3367 3368 3374
9076 3 3370 3367 3368 3374
9077 3 3371 3368 3374 3375
9078 3 3371 3368 3374 3376
9079 3 3371 3368 3374 3377
9080 3 3372 3368 3374 3375
9081 3 3372 3368 3374 3376
9082 3 3372 3368 3374 3377
9083 2 3373 3380 3387 3394
9084 4 3374 3375 3381 3382
9085 3 3374 3375 3381 3383
9086 3 3374 3375 3381 3384
9087 3 3375 3381 3382 3385
9088 3 3375 3381 3382 3386
9089 4 3375 3381 3382 3388
9090 3 3376 3374 3375 3381
9091 3 3377 3374 3375 3381
9092 3 3378 3375 3381 3382
9093 3 3378 3375 3381 3383
9094 3 3378 3375 3381 3384
9095 3 3379 3375 3381 3382
9096 3 3379 3375 3381 3383
9097 3 3379 3375 3381 3384
9098 2 3380 3387 3394 3401
9099 4 3381 3382 3388 3389
9100 3 3381 3382 3388 3390
9101 3 3381 3382 3388 3391
9102 3 3382 3388 3389 3392
9103 3 3382 3388 3389 3393
9104 4 3382 3388 3389 3395
9105 3 3383 3381 3382 3388
9106 3 3384 3381 3382 3388
9107 3 3385 3382 3388 3389
9108 3 3385 3382 3388 3390
9109 3 3385 3382 3388 3391
9110 3 3386 3382 3388 3389
9111 3 3386 3382 3388 3390
9112 3 3386 3382 3388 3391
9113 2 3387 3394 3401 3408
9114 4 3388 3389 3395 3396
9115 3 3388 3389 3395 3397
9116 3 3388 3389 3395 3398
9117 3 3389 3395 3396 3399
9118 3 3389 3395 3396 3400
9119 4 3389 3395 3396 3402
9120 3 3390 3388 3389 3395
9121 3 3391 3388 3389 3395
9122 3 3392 3389 3395 3396
9123 3 3392 3389 3395 3397
9124 3 3392 3389 3395 3398
9125 3 3393 3389 3395 3396
9126 3 3393 3389 3395 3397
9127 3 3393 3389 3395 3398
9128 2 3394 3401 3408 3415
9129 4 3395 3396 3402 3403
9130 3 3395 3396 3402 3404
9131 3 3395 3396 3402 3405
9132 3 3396 3402 3403 3406
9133 3 3396 3402 3403 3407
9134 4 3396 3402 3403 3409
9135 3 3397 3395 3396 3402
9136 3 3398 3395 3396 3402
9137 3 3399 3396 3402 3403
9138 3 3399 3396 3402 3404
9139 3 3399 3396 3402 3405
9140 3 3400 3396 3402 3403
9141 3 3400 3396 3402 3404
9142 3 3400 3396 3402 3405
9143 2 3401 3408 3415 3422
9144 4 3402 3403 3409 3410
9145 3 3402 3403 3409 3411
9146 3 3402 3403 3409 3412
9147 3 3403 3409 3410 3413
9148 3 3403 3409 3410 3414
9149 4 3403 3409 3410 3416
9150 3 3404 3402 3403 3409
9151 3 3405 3402 3403 3409
9152 3 3406 3403 3409 3410
9153 3 3406 3403 3409 3411
9154 3 3406 3403 3409 3412
9155 3 3407 3403 3409 3410
9156 3 3407 3403 3409 3411
9157 3 3407 3403 3409 3412
9158 2 3408 3415 3422 3429
9159 4 3409 3410 3416 3417
9160 3 3409 3410 3416 3418
9161 3 3409 3410 3416 3419
9162 3 3410 3416 3417 3420
9163 3 3410 3416 3417 3421
9164 4 3410 3416 3417 3423
9165 3 3411 3409 3410 3416
9166 3 3412 3409 3410 3416
9167 3 3413 3410 3416 3417
9168 3 3413 3410 3416 3418
9169 3 3413 3410 3416 3419
9170 3 3414 3410 3416 3417
9171 3 3414 3410 3416 3418
9172 3 3414 3410 3416 3419
9173 2 3415 3422 3429 3436
9174 4 3416 3417 3423 3424
9175 3 3416 3417 3423 3425
9176 3 3416 3417 3423 3426
9177 3 3417 3423 3424 3427
9178 3 3417 3423 3424 3428
9179 4 3417 3423 3424 3430
9180 3 3418 3416 3417 3423
9181 3 3419 3416 3417 3423
9182 3 3420 3417 3423 3424
9183 3 3420 3417 3423 3425
9184 3 3420 3417 3423 3426
9185 3 3421 3417 3423 3424
9186 3 3421 3417 3423 3425
9187 3 3421 3417 3423 3426
9188 2 3422 3429 3436 3443
9189 4 3423 3424 3430 3431
9190 3 3423 3424 3430 3432
9191 3 3423 3424 3430 3433
9192 3 3424 3430 3431 3434
9193 3 3424 3430 3431 3435
9194 4 3424 3430 3431 3437
9195 3 3425 3423 3424 3430
9196 3 3426 3423 3424 3430
9197 3 3427 3424 3430 3431
9198 3 3427 3424 3430 3432
9199 3 3427 3424 3430 3433
9200 3 3428 3424 3430 3431
9201 3 3428 3424 3430 3432
9202 3 3428 3424 3430 3433
9203 2 3429 3436 3443 3450
9204 4 3430 3431 3437 3438
9205 3 3430 3431 3437 3439
9206 3 3430 3431 3437 3440
9207 3 3431 3437 3438 3441
9208 3 3431 3437 3438 3442
9209 4 3431 3437 3438 3444
9210 3 3432 3430 3431 3437
9211 3 3433 3430 3431 3437
9212 3 3434 3431 3437 3438
9213 3 3434 3431 3437 3439
9214 3 3434 3431 3437 3440
9215 3 3435 3431 3437 3438
9216 3 3435 3431 3437 3439
9217 3 3435 3431 3437 3440
9218 2 3436 3443 3450 3457
9219 4 3437 3438 3444 3445
9220 3 3437 3438 3444 3446
9221 3 3437 3438 3444 3447
9222 3 3438 3444 3445 3448
9223 3 3438 3444 3445 3449
9224 4 3438 3444 3445 3451
9225 3 3439 3437 3438 3444
9226 3 3440 3437 3438 3444
9227 3 3441 3438 3444 3445
9228 3 3441 3438 3444 3446
9229 3 3441 3438 3444 3447
9230 3 3442 3438 3444 3445
9231 3 3442 3438 3444 3446
9232 3 3442 3438 3444 3447
9233 2 3443 3450 3457 3464
9234 4 3444 3445 3451 3452
9235 3 3444 3445 3451 3453
9236 3 3444 3445 3451 3454
9237 3 3445 3451 3452 3455
9238 3 3445 3451 3452 3456
9239 4 3445 3451 3452 3458
9240 3 3446 3444 3445 3451
9241 3 3447 3444 3445 3451
9242 3 3448 3445 3451 3452
9243 3 3448 3445 3451 3453
9244 3 3448 3445 3451 3454
9245 3 3449 3445 3451 3452
9246 3 3449 3445 3451 3453
9247 3 3449 3445 3451 3454
9248 2 3450 3457 3464 3471
9249 4 3451 3452 3458 3459
9250 3 3451 3452 3458 3460
9251 3 3451 3452 3458 3461
9252 3 3452 3458 3459 3462
9253 3 3452 3458 3459 3463
9254 4 3452 3458 3459 3465
9255 3 3453 3451 3452 3458
9256 3 3454 3451 3452 3458
9257 3 3455 3452 3458 3459
9258 3 3455 3452 3458 3460
9259 3 3455 3452 3458 3461
9260 3 3456 3452 3458 3459
9261 3 3456 3452 3458 3460
9262 3 3456 3452 3458 3461
9263 2 3457 3464 3471 3478
9264 4 3458 3459 3465 3466
9265 3 3458 3459 3465 3467
9266 3 3458 3459 3465 3468
9267 3 3459 3465 3466 3469
9268 3 3459 3465 3466 3470
9269 4 3459 3465 3466 3472
9270 3 3460 3458 3459 3465
9271 3 3461 3458 3459 3465
9272 3 3462 3459 3465 3466
9273 3 3462 3459 3465 3467
9274 3 3462 3459 3465 3468
9275 3 3463 3459 3465 3466
9276 3 3463 3459 3465 3467
9277 3 3463 3459 3465 3468
9278 2 3464 3471 3478 3485
9279 4 3465 3466 3472 3473
9280 3 3465 3466 3472 3474
9281 3 3465 3466 3472 3475
9282 3 3466 3472 3473 3476
9283 3 3466 3472 3473 3477
9284 4 3466 3472 3473 3479
9285 3 3467 3465 3466 3472
9286 3 3468 3465 3466 3472
9287 3 3469 3466 3472 3473
9288 3 3469 3466 3472 3474
9289 3 3469 3466 3472 3475
9290 3 3470 3466 3472 3473
9291 3 3470 3466 3472 3474
9292 3 3470 3466 3472 3475
9293 2 3471 3478 3485 3492
9294 4 3472 3473 3479 3480
9295 3 3472 3473 3479 3481
9296 3 3472 3473 3479 3482
9297 3 3473 3479 3480 3483
9298 3 3473 3479 3480 3484
9299 4 3473 3479 3480 3486
9300 3 3474 3472 3473 3479
9301 3 3475 3472 3473 3479
9302 3 3476 3473 3479 3480
9303 3 3476 3473 3479 3481
9304 3 3476 3473 3479 3482
9305 3 3477 3473 3479 3480
9306 3 3477 3473 3479 3481
9307 3 3477 3473 3479 3482
9308 2 3478 3485 3492 3499
9309 4 3479 3480 3486 3487
9310 3 3479 3480 3486 3488
9311 3 3479 3480 3486 3489
9312 3 3480 3486 3487 3490
9313 3 3480 3486 3487 3491
9314 4 3480 3486 3487 3493
9315 3 3481 3479 3480 3486
9316 3 3482 3479 3480 3486
9317 3 3483 3480 3486 3487
9318 3 3483 3480 3486 3488
9319 3 3483 3480 3486 3489
9320 3 3484 3480 3486 3487
9321 3 3484 3480 3486 3488
9322 3 3484 3480 3486 3489
9323 2 3485 3492 3499 3506
9324 4 3486 3487 3493 3494
9325 3 3486 3487 3493 3495
9326 3 3486 3487 3493 3496
9327 3 3487 3493 3494 3497
9328 3 3487 3493 3494 3498
9329 4 3487 3493 3494 3500
9330 3 3488 3486 3487 3493
9331 3 3489 3486 3487 3493
9332 3 3490 3487 3493 3494
9333 3 3490 3487 3493 3495
9334 3 3490 3487 3493 3496
9335 3 3491 3487 3493 3494
9336 3 3491 3487 3493 3495
9337 3 3491 3487 3493 3496
9338 2 3492 3499 3506 3513
9339 4 3493 3494 3500 3501
9340 3 3493 3494 3500 3502
9341 3 3493 3494 3500 3503
9342 3 3494 3500 3501 3504
9343 3 3494 3500 3501 3505
9344 4 3494 3500 3501 3507
9345 3 3495 3493 3494 3500
9346 3 3496 3493 3494 3500
9347 3 3497 3494 3500 3501
9348 3 3497 3494 3500 3502
9349 3 3497 3494 3500 3503
9350 3 3498 3494 3500 3501
9351 3 3498 3494 3500 3502
9352 3 3498 3494 3500 3503
9353 4 3500 3501 3507 3508
9354 3 3500 3501 3507 3509
9355 3 3500 3501 3507 3510
9356 3 3501 3507 3508 3511
9357 3 3501 3507 3508 3512
9358 4 3501 3507 3508 3514
9359 3 3502 3500 3501 3507
9360 3 3503 3500 3501 3507
9361 3 3504 3501 3507 3508
9362 3 3504 3501 3507 3509
9363 3 3504 3501 3507 3510
9364 3 3505 3501 3507 3508
9365 3 3505 3501 3507 3509
9366 3 3505 3501 3507 3510
9367 4 3507 3508 3514 3515
9368 3 3507 3508 3514 3516
9369 3 3507 3508 3514 3517
9370 3 3508 3514 3515 3518
9371 3 3508 3514 3515 3519
9372 3 3508 3514 3515 3520
9373 3 3509 3507 3508 3514
9374 3 3510 3507 3508 3514
9375 3 3511 3508 3514 3515
9376 3 3511 3508 3514 3516
9377 3 3511 3508 3514 3517
9378 3 3512 3508 3514 3515
9379 3 3512 3508 3514 3516
9380 3 3512 3508 3514 3517
