# AT-only force field for pe_aa_at.data -- generated by backmap-prep, do not edit.
# Same force field as the hybrid at lambda = 1; 1-4 terms via special_bonds.

pair_style lj/cut/coul/cut 14 9
pair_coeff 1 1 0.066 3.5
pair_coeff 1 2 0.066 3.5
pair_coeff 1 3 0.04449719092 2.958039892
pair_coeff 2 2 0.066 3.5
pair_coeff 2 3 0.04449719092 2.958039892
pair_coeff 3 3 0.03 2.5

bond_style harmonic
bond_coeff 1 268 1.529
bond_coeff 2 340 1.09

angle_style harmonic
angle_coeff 1 37.5 110.7
angle_coeff 2 33 107.8
angle_coeff 3 58.3500239 112.7

dihedral_style ryckaert
dihedral_coeff 1 0.15 -0.45 0 0.6 0 -0
dihedral_coeff 2 0.7 0.35 0.05 0.4 0 -0

special_bonds lj 0.0 0.0 0.5 coul 0.0 0.0 0.5

neigh_modify delay 0 every 1 check yes
