# AT-only force field for melamine_at.data -- generated by backmap-prep, do not edit.
# Same force field as the hybrid at lambda = 1; 1-4 terms via special_bonds.

pair_style lj/cut/coul/cut 14 9
pair_coeff 1 1 0.17 3.3
pair_coeff 1 2 0.1090871211 3.422718218
pair_coeff 1 3 0.17 3.3
pair_coeff 1 4 0.1059245014 3.398529094
pair_coeff 1 5 0.17 3.20873807
pair_coeff 1 6 0 0
pair_coeff 1 7 0.07141428429 2.872281323
pair_coeff 1 8 0 0
pair_coeff 2 2 0.07 3.55
pair_coeff 2 3 0.1090871211 3.422718218
pair_coeff 2 4 0.06797058187 3.524911346
pair_coeff 2 5 0.1090871211 3.328062499
pair_coeff 2 6 0 0
pair_coeff 2 7 0.04582575695 2.979093822
pair_coeff 2 8 0 0
pair_coeff 3 3 0.17 3.3
pair_coeff 3 4 0.1059245014 3.398529094
pair_coeff 3 5 0.17 3.20873807
pair_coeff 3 6 0 0
pair_coeff 3 7 0.07141428429 2.872281323
pair_coeff 3 8 0 0
pair_coeff 4 4 0.066 3.5
pair_coeff 4 5 0.1059245014 3.304542328
pair_coeff 4 6 0 0
pair_coeff 4 7 0.04449719092 2.958039892
pair_coeff 4 8 0 0
pair_coeff 5 5 0.17 3.12
pair_coeff 5 6 0 0
pair_coeff 5 7 0.07141428429 2.792848009
pair_coeff 5 8 0 0
pair_coeff 6 6 0 0
pair_coeff 6 7 0 0
pair_coeff 6 8 0 0
pair_coeff 7 7 0.03 2.5
pair_coeff 7 8 0 0
pair_coeff 8 8 0 0

bond_style harmonic
bond_coeff 1 481 1.35
bond_coeff 2 481 1.37
bond_coeff 3 382 1.47
bond_coeff 4 434 1.01
bond_coeff 5 320 1.43
bond_coeff 6 340 1.1
bond_coeff 7 553 0.98
bond_coeff 8 553 0.97
bond_coeff 9 481 1.36

angle_style harmonic
angle_coeff 1 80 115.974
angle_coeff 2 50 122.748
angle_coeff 3 35 117.141
angle_coeff 4 80 112.203
angle_coeff 5 35 109.799
angle_coeff 6 35 110.394
angle_coeff 7 35 116.431
angle_coeff 8 55 107.831
angle_coeff 9 35 107.812
angle_coeff 10 35 108.141
angle_coeff 11 33 108.377
angle_coeff 12 80 116.182
angle_coeff 13 50 123.014
angle_coeff 14 35 117.665
angle_coeff 15 80 112.146
angle_coeff 16 35 110.304
angle_coeff 17 35 109.909
angle_coeff 18 35 116.95
angle_coeff 19 55 107.577
angle_coeff 20 35 108.147
angle_coeff 21 35 107.761
angle_coeff 22 33 108.464
angle_coeff 23 80 118.794
angle_coeff 24 50 123.066
angle_coeff 25 35 117.297
angle_coeff 26 80 112.574
angle_coeff 27 35 109.745
angle_coeff 28 35 110.254
angle_coeff 29 35 116.799
angle_coeff 30 55 108.806
angle_coeff 31 35 107.865
angle_coeff 32 35 107.98
angle_coeff 33 33 108.297
angle_coeff 34 80 125.237
angle_coeff 35 80 125.01
angle_coeff 36 80 116.164
angle_coeff 37 40 114.807
angle_coeff 38 40 114.843
angle_coeff 39 80 118.788
angle_coeff 40 80 124.986
angle_coeff 41 40 115.117
angle_coeff 42 80 118.823

dihedral_style ryckaert
dihedral_coeff 1 7.935999044 -0 -7.935999044 -0 0 -0
dihedral_coeff 2 4.9 -0 -4.9 -0 0 -0
dihedral_coeff 3 6.089000956 -0 -6.089000956 -0 0 -0
dihedral_coeff 4 0.28 -0.84 0 1.12 0 -0
dihedral_coeff 5 4 -1 -5 -0 0 -0
dihedral_coeff 6 0.225 -0.675 0 0.9 0 -0
dihedral_coeff 7 0.2 -0.6 0 0.8 0 -0
dihedral_coeff 8 7.239000956 1.15 -6.089000956 -0 0 -0

special_bonds lj 0.0 0.0 0.5 coul 0.0 0.0 0.5

neigh_modify delay 0 every 1 check yes
