# Force field for melamine.data -- generated by backmap-prep, do not edit

comm_modify cutoff 15.00

pair_style backmap 14.00 lj/cut/coul/cut 14.00 9.00 14.00 table linear 1000
pair_coeff 1 1 cg table_A_A.table ENTRY
pair_coeff 1 2 none
pair_coeff 1 3 none
pair_coeff 1 4 none
pair_coeff 1 5 none
pair_coeff 1 6 none
pair_coeff 1 7 none
pair_coeff 1 8 none
pair_coeff 1 9 none
pair_coeff 2 2 atomistic 0.17 3.3
pair_coeff 2 3 atomistic 0.1090871211 3.422718218
pair_coeff 2 4 atomistic 0.17 3.3
pair_coeff 2 5 atomistic 0.1059245014 3.398529094
pair_coeff 2 6 atomistic 0.17 3.20873807
pair_coeff 2 7 atomistic 0 0
pair_coeff 2 8 atomistic 0.07141428429 2.872281323
pair_coeff 2 9 atomistic 0 0
pair_coeff 3 3 atomistic 0.07 3.55
pair_coeff 3 4 atomistic 0.1090871211 3.422718218
pair_coeff 3 5 atomistic 0.06797058187 3.524911346
pair_coeff 3 6 atomistic 0.1090871211 3.328062499
pair_coeff 3 7 atomistic 0 0
pair_coeff 3 8 atomistic 0.04582575695 2.979093822
pair_coeff 3 9 atomistic 0 0
pair_coeff 4 4 atomistic 0.17 3.3
pair_coeff 4 5 atomistic 0.1059245014 3.398529094
pair_coeff 4 6 atomistic 0.17 3.20873807
pair_coeff 4 7 atomistic 0 0
pair_coeff 4 8 atomistic 0.07141428429 2.872281323
pair_coeff 4 9 atomistic 0 0
pair_coeff 5 5 atomistic 0.066 3.5
pair_coeff 5 6 atomistic 0.1059245014 3.304542328
pair_coeff 5 7 atomistic 0 0
pair_coeff 5 8 atomistic 0.04449719092 2.958039892
pair_coeff 5 9 atomistic 0 0
pair_coeff 6 6 atomistic 0.17 3.12
pair_coeff 6 7 atomistic 0 0
pair_coeff 6 8 atomistic 0.07141428429 2.792848009
pair_coeff 6 9 atomistic 0 0
pair_coeff 7 7 atomistic 0 0
pair_coeff 7 8 atomistic 0 0
pair_coeff 7 9 atomistic 0 0
pair_coeff 8 8 atomistic 0.03 2.5
pair_coeff 8 9 atomistic 0 0
pair_coeff 9 9 atomistic 0 0

bond_style hybrid backmap/harmonic backmap/table linear 1000
bond_coeff 1 backmap/harmonic at 481 1.35
bond_coeff 2 backmap/harmonic at 481 1.37
bond_coeff 3 backmap/harmonic at 382 1.47
bond_coeff 4 backmap/harmonic at 434 1.01
bond_coeff 5 backmap/harmonic at 320 1.43
bond_coeff 6 backmap/harmonic at 340 1.1
bond_coeff 7 backmap/harmonic at 553 0.98
bond_coeff 8 backmap/harmonic at 553 0.97
bond_coeff 9 backmap/table cg table_b1.table ENTRY
bond_coeff 10 backmap/harmonic at 481 1.36

angle_style backmap/harmonic
angle_coeff 1 at 80 115.9740
angle_coeff 2 at 50 122.7480
angle_coeff 3 at 35 117.1410
angle_coeff 4 at 80 112.2030
angle_coeff 5 at 35 109.7990
angle_coeff 6 at 35 110.3940
angle_coeff 7 at 35 116.4310
angle_coeff 8 at 55 107.8310
angle_coeff 9 at 35 107.8120
angle_coeff 10 at 35 108.1410
angle_coeff 11 at 33 108.3770
angle_coeff 12 at 80 116.1820
angle_coeff 13 at 50 123.0140
angle_coeff 14 at 35 117.6650
angle_coeff 15 at 80 112.1460
angle_coeff 16 at 35 110.3040
angle_coeff 17 at 35 109.9090
angle_coeff 18 at 35 116.9500
angle_coeff 19 at 55 107.5770
angle_coeff 20 at 35 108.1470
angle_coeff 21 at 35 107.7610
angle_coeff 22 at 33 108.4640
angle_coeff 23 at 80 118.7940
angle_coeff 24 at 50 123.0660
angle_coeff 25 at 35 117.2970
angle_coeff 26 at 80 112.5740
angle_coeff 27 at 35 109.7450
angle_coeff 28 at 35 110.2540
angle_coeff 29 at 35 116.7990
angle_coeff 30 at 55 108.8060
angle_coeff 31 at 35 107.8650
angle_coeff 32 at 35 107.9800
angle_coeff 33 at 33 108.2970
angle_coeff 34 at 80 125.2370
angle_coeff 35 at 80 125.0100
angle_coeff 36 at 80 116.1640
angle_coeff 37 at 40 114.8070
angle_coeff 38 at 40 114.8430
angle_coeff 39 at 80 118.7880
angle_coeff 40 at 80 124.9860
angle_coeff 41 at 40 115.1170
angle_coeff 42 at 80 118.8230

dihedral_style hybrid ryckaert backmap/ryckaert
dihedral_coeff 1 ryckaert 7.935999044 -0 -7.935999044 -0 0 -0
dihedral_coeff 2 ryckaert 4.9 -0 -4.9 -0 0 -0
dihedral_coeff 3 ryckaert 6.089000956 -0 -6.089000956 -0 0 -0
dihedral_coeff 4 ryckaert 0.28 -0.84 0 1.12 0 -0
dihedral_coeff 5 ryckaert 4 -1 -5 -0 0 -0
dihedral_coeff 6 ryckaert 0.225 -0.675 0 0.9 0 -0
dihedral_coeff 7 ryckaert 0.2 -0.6 0 0.8 0 -0
dihedral_coeff 8 backmap/ryckaert at 7.239000956 1.15 -6.089000956 -0 0 -0
dihedral_coeff 9 backmap/ryckaert at 7.935999044 -0 -7.935999044 -0 0 -0
dihedral_coeff 10 backmap/ryckaert at 4.9 -0 -4.9 -0 0 -0

special_bonds lj 0.0 0.0 0.0 coul 0.0 0.0 0.0

group at_atoms type 2 3 4 5 6 7 8 9
group cg_atoms type 1

neigh_modify delay 0 every 1 check yes
