LAMMPS data file for backmapping — generated by backmap-prep

1250 atoms
1230 bonds
1210 angles
1190 dihedrals
0 impropers

4 atom types
2 bond types
2 angle types
3 dihedral types
0 improper types

0.0 60.185500 xlo xhi
0.0 60.185500 ylo yhi
0.0 60.185500 zlo zhi

Masses

1 57.116000 # A (CG)
2 15.035000 # CH3
3 14.027000 # CH2
4 56.108000 # B (CG)

Atoms # full

1 1 1 0.000000 29.080000 59.990000 20.880000 0 0 0
2 1 2 0.000000 27.180000 59.310000 21.900000 0 0 0
3 1 3 0.000000 28.470000 59.770000 21.210000 0 0 0
4 1 3 0.000000 29.760000 0.044500 20.520000 0 1 0
5 1 3 0.000000 31.030000 0.504500 19.820000 0 1 0
6 2 4 0.000000 27.280000 58.840000 16.920000 0 0 0
7 2 3 0.000000 25.450000 58.060000 18.060000 0 0 0
8 2 3 0.000000 26.690000 58.560000 17.320000 0 0 0
9 2 3 0.000000 27.900000 59.090000 16.550000 0 0 0
10 2 3 0.000000 29.080000 59.650000 15.760000 0 0 0
11 3 4 0.000000 28.760000 56.730000 13.680000 0 0 0
12 3 3 0.000000 27.060000 55.750000 14.860000 0 0 0
13 3 3 0.000000 28.190000 56.390000 14.060000 0 0 0
14 3 3 0.000000 29.320000 57.060000 13.270000 0 0 0
15 3 3 0.000000 30.470000 57.730000 12.520000 0 0 0
16 4 4 0.000000 31.610000 57.700000 10.390000 0 0 0
17 4 3 0.000000 29.670000 56.880000 11.270000 0 0 0
18 4 3 0.000000 30.920000 57.480000 10.640000 0 0 0
19 4 3 0.000000 32.240000 58.010000 10.080000 0 0 0
20 4 3 0.000000 33.620000 58.410000 9.580000 0 0 0
21 5 4 0.000000 32.630000 1.040000 10.290000 0 1 0
22 5 3 0.000000 30.500000 0.950000 11.110000 0 1 0
23 5 3 0.000000 31.940000 1.080000 10.620000 0 1 0
24 5 3 0.000000 33.360000 1.090000 10.060000 0 1 0
25 5 3 0.000000 34.720000 1.050000 9.370000 0 1 0
26 6 4 0.000000 35.290000 3.800000 11.330000 0 1 0
27 6 3 0.000000 33.770000 3.460000 12.960000 0 1 0
28 6 3 0.000000 34.900000 3.550000 11.940000 0 1 0
29 6 3 0.000000 35.850000 3.830000 10.790000 0 1 0
30 6 3 0.000000 36.630000 4.380000 9.620000 0 1 0
31 7 4 0.000000 38.820000 1.140000 11.730000 0 1 0
32 7 3 0.000000 37.940000 59.555500 12.800000 0 0 0
33 7 3 0.000000 38.490000 0.460000 11.890000 0 1 0
34 7 3 0.000000 39.070000 1.720000 11.260000 0 1 0
35 7 3 0.000000 39.790000 3.030000 10.960000 0 1 0
36 8 4 0.000000 38.660000 2.780000 15.520000 0 1 0
37 8 3 0.000000 36.670000 1.870000 15.150000 0 1 0
38 8 3 0.000000 37.880000 2.770000 15.380000 0 1 0
39 8 3 0.000000 39.290000 3.240000 15.680000 0 1 0
40 8 3 0.000000 40.800000 3.230000 15.870000 0 1 0
41 9 4 0.000000 39.860000 4.720000 18.620000 0 1 0
42 9 3 0.000000 38.140000 5.560000 19.750000 0 1 0
43 9 3 0.000000 39.440000 4.940000 19.250000 0 1 0
44 9 3 0.000000 40.510000 4.360000 18.350000 0 1 0
45 9 3 0.000000 41.360000 4.020000 17.140000 0 1 0
46 10 4 0.000000 44.220000 5.370000 19.920000 0 1 0
47 10 3 0.000000 43.190000 4.310000 21.590000 0 1 0
48 10 3 0.000000 43.810000 4.830000 20.300000 0 1 0
49 10 3 0.000000 44.510000 5.680000 19.260000 0 1 0
50 10 3 0.000000 45.380000 6.670000 18.530000 0 1 0
51 11 4 0.000000 47.420000 4.930000 18.920000 0 1 0
52 11 3 0.000000 45.400000 4.170000 19.540000 0 1 0
53 11 3 0.000000 46.700000 4.860000 19.180000 0 1 0
54 11 3 0.000000 48.100000 5.260000 18.770000 0 1 0
55 11 3 0.000000 49.490000 5.440000 18.190000 0 1 0
56 12 4 0.000000 50.020000 3.480000 21.050000 0 1 0
57 12 3 0.000000 48.530000 2.810000 22.590000 0 1 0
58 12 3 0.000000 49.630000 3.060000 21.570000 0 1 0
59 12 3 0.000000 50.550000 3.590000 20.500000 0 1 0
60 12 3 0.000000 51.370000 4.460000 19.560000 0 1 0
61 13 4 0.000000 51.880000 6.270000 23.830000 0 1 0
62 13 3 0.000000 50.350000 4.650000 23.870000 0 1 0
63 13 3 0.000000 51.240000 5.860000 23.630000 0 1 0
64 13 3 0.000000 52.320000 6.920000 23.750000 0 1 0
65 13 3 0.000000 53.610000 7.640000 24.080000 0 1 0
66 14 4 0.000000 53.020000 10.080000 23.970000 0 1 0
67 14 3 0.000000 50.960000 10.770000 24.250000 0 1 0
68 14 3 0.000000 52.450000 10.520000 24.350000 0 1 0
69 14 3 0.000000 53.810000 9.900000 24.040000 0 1 0
70 14 3 0.000000 54.860000 9.140000 23.250000 0 1 0
71 15 4 0.000000 53.260000 9.440000 19.340000 0 1 0
72 15 3 0.000000 52.870000 9.380000 21.520000 0 1 0
73 15 3 0.000000 53.240000 9.090000 20.070000 0 1 0
74 15 3 0.000000 53.400000 9.290000 18.560000 0 1 0
75 15 3 0.000000 53.520000 9.990000 17.220000 0 1 0
76 16 4 0.000000 56.060000 7.600000 17.960000 0 1 0
77 16 3 0.000000 54.920000 5.760000 18.400000 0 1 0
78 16 3 0.000000 55.460000 7.070000 17.830000 0 1 0
79 16 3 0.000000 56.330000 8.310000 17.710000 0 1 0
80 16 3 0.000000 57.520000 9.240000 17.920000 0 1 0
81 17 4 0.000000 0.100000 8.450000 18.010000 1 1 0
82 17 3 0.000000 58.055500 8.620000 17.940000 0 1 0
83 17 3 0.000000 59.555500 8.670000 18.190000 0 1 0
84 17 3 0.000000 0.870000 8.420000 18.170000 1 1 0
85 17 3 0.000000 2.290000 8.070000 17.750000 1 1 0
86 18 4 0.000000 1.150000 11.320000 20.830000 1 1 0
87 18 3 0.000000 0.000000 10.750000 22.620000 1 1 0
88 18 3 0.000000 0.970000 10.840000 21.460000 1 1 0
89 18 3 0.000000 1.610000 11.380000 20.190000 1 1 0
90 18 3 0.000000 2.000000 12.300000 19.040000 1 1 0
91 19 4 0.000000 4.210000 11.580000 23.710000 1 1 0
92 19 3 0.000000 3.390000 9.640000 24.500000 1 1 0
93 19 3 0.000000 3.740000 10.970000 23.850000 1 1 0
94 19 3 0.000000 4.360000 12.290000 23.410000 1 1 0
95 19 3 0.000000 5.360000 13.400000 23.080000 1 1 0
96 20 4 0.000000 6.930000 12.070000 26.630000 1 1 0
97 20 3 0.000000 4.800000 12.480000 27.060000 1 1 0
98 20 3 0.000000 6.290000 12.540000 26.790000 1 1 0
99 20 3 0.000000 7.700000 12.060000 26.500000 1 1 0
100 20 3 0.000000 8.930000 11.220000 26.150000 1 1 0
101 21 4 0.000000 7.610000 9.340000 29.620000 1 1 0
102 21 3 0.000000 5.850000 10.450000 30.480000 1 1 0
103 21 3 0.000000 6.940000 9.510000 29.970000 1 1 0
104 21 3 0.000000 8.150000 8.810000 29.360000 1 1 0
105 21 3 0.000000 9.490000 8.580000 28.690000 1 1 0
106 22 4 0.000000 5.710000 5.960000 29.320000 1 1 0
107 22 3 0.000000 4.520000 4.180000 29.900000 1 1 0
108 22 3 0.000000 5.570000 5.170000 29.410000 1 1 0
109 22 3 0.000000 6.220000 6.500000 29.090000 1 1 0
110 22 3 0.000000 6.520000 7.990000 28.870000 1 1 0
111 23 4 0.000000 3.740000 2.470000 31.450000 1 1 0
112 23 3 0.000000 3.300000 0.410000 32.200000 1 1 0
113 23 3 0.000000 3.420000 1.880000 31.840000 1 1 0
114 23 3 0.000000 3.770000 3.250000 31.270000 1 1 0
115 23 3 0.000000 4.460000 4.350000 30.480000 1 1 0
116 24 4 0.000000 2.200000 2.820000 35.870000 1 1 0
117 24 3 0.000000 0.240000 2.890000 36.970000 1 1 0
118 24 3 0.000000 1.510000 3.070000 36.150000 1 1 0
119 24 3 0.000000 2.850000 2.860000 35.470000 1 1 0
120 24 3 0.000000 4.190000 2.450000 34.880000 1 1 0
121 25 1 0.000000 2.490000 2.390000 40.150000 1 1 0
122 25 3 0.000000 0.620000 2.790000 41.430000 1 1 0
123 25 3 0.000000 1.910000 2.400000 40.720000 1 1 0
124 25 3 0.000000 3.130000 2.190000 39.830000 1 1 0
125 25 2 0.000000 4.190000 2.200000 38.740000 1 1 0
126 26 1 0.000000 27.350000 55.450000 34.970000 0 0 0
127 26 2 0.000000 25.450000 54.770000 35.990000 0 0 0
128 26 3 0.000000 26.740000 55.230000 35.300000 0 0 0
129 26 3 0.000000 28.030000 55.690000 34.610000 0 0 0
130 26 3 0.000000 29.300000 56.150000 33.910000 0 0 0
131 27 4 0.000000 24.280000 55.890000 32.290000 0 0 0
132 27 3 0.000000 22.450000 55.110000 33.430000 0 0 0
133 27 3 0.000000 23.690000 55.610000 32.690000 0 0 0
134 27 3 0.000000 24.900000 56.140000 31.920000 0 0 0
135 27 3 0.000000 26.080000 56.700000 31.130000 0 0 0
136 28 4 0.000000 23.680000 59.960000 31.450000 0 0 0
137 28 3 0.000000 21.980000 58.980000 32.630000 0 0 0
138 28 3 0.000000 23.110000 59.620000 31.830000 0 0 0
139 28 3 0.000000 24.240000 0.104500 31.040000 0 1 0
140 28 3 0.000000 25.390000 0.774500 30.290000 0 1 0
141 29 4 0.000000 21.270000 58.840000 29.280000 0 0 0
142 29 3 0.000000 19.330000 58.030000 30.160000 0 0 0
143 29 3 0.000000 20.580000 58.630000 29.530000 0 0 0
144 29 3 0.000000 21.900000 59.160000 28.970000 0 0 0
145 29 3 0.000000 23.280000 59.560000 28.470000 0 0 0
146 30 4 0.000000 18.660000 2.340000 29.930000 0 1 0
147 30 3 0.000000 16.530000 2.250000 30.750000 0 1 0
148 30 3 0.000000 17.970000 2.380000 30.260000 0 1 0
149 30 3 0.000000 19.390000 2.390000 29.700000 0 1 0
150 30 3 0.000000 20.750000 2.350000 29.010000 0 1 0
151 31 4 0.000000 16.510000 59.540000 31.840000 0 0 0
152 31 3 0.000000 14.990000 59.190000 33.480000 0 0 0
153 31 3 0.000000 16.120000 59.280000 32.450000 0 0 0
154 31 3 0.000000 17.070000 59.570000 31.310000 0 0 0
155 31 3 0.000000 17.850000 60.110000 30.130000 0 0 0
156 32 4 0.000000 13.470000 57.170000 32.790000 0 0 0
157 32 3 0.000000 12.580000 55.390000 33.860000 0 0 0
158 32 3 0.000000 13.150000 56.480000 32.950000 0 0 0
159 32 3 0.000000 13.720000 57.740000 32.320000 0 0 0
160 32 3 0.000000 14.440000 59.050000 32.020000 0 0 0
161 33 4 0.000000 12.030000 59.130000 36.330000 0 0 0
162 33 3 0.000000 10.040000 58.220000 35.960000 0 0 0
163 33 3 0.000000 11.250000 59.120000 36.190000 0 0 0
164 33 3 0.000000 12.660000 59.590000 36.490000 0 0 0
165 33 3 0.000000 14.170000 59.580000 36.680000 0 0 0
166 34 4 0.000000 10.090000 60.060000 40.510000 0 0 0
167 34 3 0.000000 8.370000 0.714500 41.640000 0 1 0
168 34 3 0.000000 9.670000 0.094500 41.140000 0 1 0
169 34 3 0.000000 10.740000 59.700000 40.240000 0 0 0
170 34 3 0.000000 11.590000 59.360000 39.030000 0 0 0
171 35 4 0.000000 8.020000 59.240000 42.870000 0 0 0
172 35 3 0.000000 6.990000 58.180000 44.540000 0 0 0
173 35 3 0.000000 7.610000 58.700000 43.250000 0 0 0
174 35 3 0.000000 8.310000 59.550000 42.210000 0 0 0
175 35 3 0.000000 9.180000 0.354500 41.470000 0 1 0
176 36 4 0.000000 4.150000 59.500000 43.310000 0 0 0
177 36 3 0.000000 2.130000 58.740000 43.930000 0 0 0
178 36 3 0.000000 3.430000 59.430000 43.570000 0 0 0
179 36 3 0.000000 4.830000 59.830000 43.160000 0 0 0
180 36 3 0.000000 6.220000 60.010000 42.580000 0 0 0
181 37 4 0.000000 1.740000 57.320000 41.850000 0 0 0
182 37 3 0.000000 0.250000 56.650000 43.380000 0 0 0
183 37 3 0.000000 1.350000 56.900000 42.360000 0 0 0
184 37 3 0.000000 2.270000 57.430000 41.300000 0 0 0
185 37 3 0.000000 3.090000 58.300000 40.350000 0 0 0
186 38 4 0.000000 3.230000 53.130000 40.970000 0 0 0
187 38 3 0.000000 1.700000 51.510000 41.010000 0 0 0
188 38 3 0.000000 2.590000 52.720000 40.770000 0 0 0
189 38 3 0.000000 3.670000 53.780000 40.890000 0 0 0
190 38 3 0.000000 4.960000 54.500000 41.220000 0 0 0
191 39 4 0.000000 4.730000 53.380000 36.870000 0 0 0
192 39 3 0.000000 2.670000 54.070000 37.150000 0 0 0
193 39 3 0.000000 4.160000 53.820000 37.250000 0 0 0
194 39 3 0.000000 5.520000 53.200000 36.940000 0 0 0
195 39 3 0.000000 6.570000 52.440000 36.150000 0 0 0
196 40 4 0.000000 2.990000 57.210000 36.920000 0 0 0
197 40 3 0.000000 2.600000 57.150000 39.100000 0 0 0
198 40 3 0.000000 2.970000 56.860000 37.650000 0 0 0
199 40 3 0.000000 3.130000 57.060000 36.140000 0 0 0
200 40 3 0.000000 3.250000 57.760000 34.800000 0 0 0
201 41 4 0.000000 0.370000 58.990000 34.770000 0 0 0
202 41 3 0.000000 59.415500 57.150000 35.210000 -1 0 0
203 41 3 0.000000 59.955500 58.460000 34.630000 -1 0 0
204 41 3 0.000000 0.640000 59.700000 34.520000 0 0 0
205 41 3 0.000000 1.830000 0.444500 34.730000 0 1 0
206 42 4 0.000000 57.840000 2.030000 35.760000 -1 1 0
207 42 3 0.000000 55.610000 2.200000 35.690000 -1 1 0
208 42 3 0.000000 57.110000 2.250000 35.940000 -1 1 0
209 42 3 0.000000 58.610000 2.000000 35.920000 -1 1 0
210 42 3 0.000000 60.030000 1.650000 35.500000 -1 1 0
211 43 4 0.000000 53.750000 2.500000 37.770000 -1 1 0
212 43 3 0.000000 52.600000 1.930000 39.560000 -1 1 0
213 43 3 0.000000 53.570000 2.020000 38.400000 -1 1 0
214 43 3 0.000000 54.210000 2.560000 37.130000 -1 1 0
215 43 3 0.000000 54.600000 3.480000 35.980000 -1 1 0
216 44 4 0.000000 51.840000 1.800000 40.710000 -1 1 0
217 44 3 0.000000 51.020000 60.045500 41.490000 -1 0 0
218 44 3 0.000000 51.370000 1.190000 40.850000 -1 1 0
219 44 3 0.000000 51.990000 2.510000 40.400000 -1 1 0
220 44 3 0.000000 52.990000 3.620000 40.080000 -1 1 0
221 45 4 0.000000 51.650000 1.180000 44.780000 -1 1 0
222 45 3 0.000000 49.520000 1.590000 45.210000 -1 1 0
223 45 3 0.000000 51.010000 1.640000 44.940000 -1 1 0
224 45 3 0.000000 52.420000 1.160000 44.650000 -1 1 0
225 45 3 0.000000 53.650000 0.330000 44.300000 -1 1 0
226 46 4 0.000000 55.240000 59.610000 45.480000 -1 0 0
227 46 3 0.000000 53.480000 0.534500 46.330000 -1 1 0
228 46 3 0.000000 54.570000 59.780000 45.830000 -1 0 0
229 46 3 0.000000 55.780000 59.080000 45.210000 -1 0 0
230 46 3 0.000000 57.120000 58.850000 44.550000 -1 0 0
231 47 4 0.000000 59.130000 59.970000 44.790000 -1 0 0
232 47 3 0.000000 57.940000 58.190000 45.370000 -1 0 0
233 47 3 0.000000 58.990000 59.180000 44.880000 -1 0 0
234 47 3 0.000000 59.640000 0.324500 44.560000 -1 1 0
235 47 3 0.000000 59.940000 1.814500 44.340000 -1 1 0
236 48 4 0.000000 1.890000 3.070000 44.990000 0 1 0
237 48 3 0.000000 1.450000 1.010000 45.740000 0 1 0
238 48 3 0.000000 1.570000 2.480000 45.380000 0 1 0
239 48 3 0.000000 1.920000 3.850000 44.810000 0 1 0
240 48 3 0.000000 2.610000 4.950000 44.020000 0 1 0
241 49 4 0.000000 4.690000 5.140000 44.680000 0 1 0
242 49 3 0.000000 2.730000 5.210000 45.780000 0 1 0
243 49 3 0.000000 4.000000 5.390000 44.960000 0 1 0
244 49 3 0.000000 5.340000 5.180000 44.280000 0 1 0
245 49 3 0.000000 6.680000 4.770000 43.690000 0 1 0
246 50 1 0.000000 7.400000 6.710000 41.230000 0 1 0
247 50 3 0.000000 5.530000 7.110000 42.510000 0 1 0
248 50 3 0.000000 6.820000 6.720000 41.800000 0 1 0
249 50 3 0.000000 8.040000 6.510000 40.910000 0 1 0
250 50 2 0.000000 9.100000 6.520000 39.820000 0 1 0
251 51 1 0.000000 48.520000 2.000000 34.720000 0 0 0
252 51 2 0.000000 46.620000 1.320000 35.740000 0 0 0
253 51 3 0.000000 47.910000 1.780000 35.050000 0 0 0
254 51 3 0.000000 49.200000 2.240000 34.360000 0 0 0
255 51 3 0.000000 50.470000 2.700000 33.660000 0 0 0
256 52 4 0.000000 49.930000 5.170000 34.320000 0 0 0
257 52 3 0.000000 48.100000 4.390000 35.460000 0 0 0
258 52 3 0.000000 49.340000 4.890000 34.720000 0 0 0
259 52 3 0.000000 50.550000 5.420000 33.950000 0 0 0
260 52 3 0.000000 51.730000 5.980000 33.160000 0 0 0
261 53 4 0.000000 46.870000 8.290000 33.950000 0 0 0
262 53 3 0.000000 45.170000 7.310000 35.130000 0 0 0
263 53 3 0.000000 46.300000 7.950000 34.330000 0 0 0
264 53 3 0.000000 47.430000 8.620000 33.540000 0 0 0
265 53 3 0.000000 48.580000 9.290000 32.790000 0 0 0
266 54 4 0.000000 45.280000 9.370000 29.770000 0 0 0
267 54 3 0.000000 43.340000 8.560000 30.650000 0 0 0
268 54 3 0.000000 44.590000 9.150000 30.020000 0 0 0
269 54 3 0.000000 45.910000 9.690000 29.460000 0 0 0
270 54 3 0.000000 47.290000 10.090000 28.960000 0 0 0
271 55 4 0.000000 41.960000 10.890000 28.390000 0 0 0
272 55 3 0.000000 39.830000 10.800000 29.210000 0 0 0
273 55 3 0.000000 41.270000 10.930000 28.720000 0 0 0
274 55 3 0.000000 42.690000 10.940000 28.160000 0 0 0
275 55 3 0.000000 44.050000 10.900000 27.470000 0 0 0
276 56 4 0.000000 39.460000 11.210000 26.070000 0 0 0
277 56 3 0.000000 37.940000 10.870000 27.710000 0 0 0
278 56 3 0.000000 39.070000 10.950000 26.680000 0 0 0
279 56 3 0.000000 40.020000 11.230000 25.540000 0 0 0
280 56 3 0.000000 40.800000 11.790000 24.360000 0 0 0
281 57 4 0.000000 36.190000 9.170000 23.740000 0 0 0
282 57 3 0.000000 35.310000 7.400000 24.810000 0 0 0
283 57 3 0.000000 35.870000 8.490000 23.900000 0 0 0
284 57 3 0.000000 36.440000 9.750000 23.270000 0 0 0
285 57 3 0.000000 37.160000 11.060000 22.970000 0 0 0
286 58 4 0.000000 38.350000 8.630000 20.730000 0 0 0
287 58 3 0.000000 36.360000 7.720000 20.360000 0 0 0
288 58 3 0.000000 37.570000 8.620000 20.590000 0 0 0
289 58 3 0.000000 38.980000 9.090000 20.890000 0 0 0
290 58 3 0.000000 40.490000 9.080000 21.080000 0 0 0
291 59 4 0.000000 41.840000 10.340000 18.840000 0 0 0
292 59 3 0.000000 40.120000 11.180000 19.970000 0 0 0
293 59 3 0.000000 41.420000 10.560000 19.470000 0 0 0
294 59 3 0.000000 42.490000 9.980000 18.570000 0 0 0
295 59 3 0.000000 43.340000 9.640000 17.360000 0 0 0
296 60 4 0.000000 41.500000 12.910000 15.530000 0 0 0
297 60 3 0.000000 40.470000 11.850000 17.200000 0 0 0
298 60 3 0.000000 41.090000 12.370000 15.910000 0 0 0
299 60 3 0.000000 41.790000 13.220000 14.870000 0 0 0
300 60 3 0.000000 42.660000 14.210000 14.130000 0 0 0
301 61 4 0.000000 41.590000 11.370000 11.240000 0 0 0
302 61 3 0.000000 39.570000 10.610000 11.860000 0 0 0
303 61 3 0.000000 40.870000 11.300000 11.500000 0 0 0
304 61 3 0.000000 42.270000 11.700000 11.090000 0 0 0
305 61 3 0.000000 43.660000 11.880000 10.510000 0 0 0
306 62 4 0.000000 38.970000 9.510000 8.900000 0 0 0
307 62 3 0.000000 37.480000 8.840000 10.440000 0 0 0
308 62 3 0.000000 38.580000 9.090000 9.420000 0 0 0
309 62 3 0.000000 39.500000 9.620000 8.350000 0 0 0
310 62 3 0.000000 40.320000 10.490000 7.410000 0 0 0
311 63 4 0.000000 35.100000 8.860000 7.040000 0 0 0
312 63 3 0.000000 33.570000 7.240000 7.080000 0 0 0
313 63 3 0.000000 34.460000 8.450000 6.840000 0 0 0
314 63 3 0.000000 35.540000 9.510000 6.960000 0 0 0
315 63 3 0.000000 36.830000 10.230000 7.290000 0 0 0
316 64 4 0.000000 31.710000 8.310000 5.850000 0 0 0
317 64 3 0.000000 29.650000 9.000000 6.130000 0 0 0
318 64 3 0.000000 31.140000 8.750000 6.230000 0 0 0
319 64 3 0.000000 32.500000 8.130000 5.920000 0 0 0
320 64 3 0.000000 33.550000 7.370000 5.130000 0 0 0
321 65 4 0.000000 29.640000 11.970000 6.770000 0 0 0
322 65 3 0.000000 29.250000 11.910000 8.950000 0 0 0
323 65 3 0.000000 29.620000 11.620000 7.500000 0 0 0
324 65 3 0.000000 29.780000 11.820000 5.990000 0 0 0
325 65 3 0.000000 29.900000 12.520000 4.650000 0 0 0
326 66 4 0.000000 28.590000 14.240000 9.970000 0 0 0
327 66 3 0.000000 27.450000 12.400000 10.410000 0 0 0
328 66 3 0.000000 27.990000 13.710000 9.840000 0 0 0
329 66 3 0.000000 28.860000 14.950000 9.720000 0 0 0
330 66 3 0.000000 30.050000 15.880000 9.930000 0 0 0
331 67 4 0.000000 24.350000 15.490000 10.370000 0 0 0
332 67 3 0.000000 22.120000 15.660000 10.300000 0 0 0
333 67 3 0.000000 23.620000 15.710000 10.550000 0 0 0
334 67 3 0.000000 25.120000 15.460000 10.530000 0 0 0
335 67 3 0.000000 26.540000 15.110000 10.110000 0 0 0
336 68 4 0.000000 23.710000 14.190000 14.720000 0 0 0
337 68 3 0.000000 22.560000 13.620000 16.510000 0 0 0
338 68 3 0.000000 23.530000 13.710000 15.350000 0 0 0
339 68 3 0.000000 24.170000 14.250000 14.080000 0 0 0
340 68 3 0.000000 24.560000 15.170000 12.930000 0 0 0
341 69 4 0.000000 22.220000 14.550000 18.290000 0 0 0
342 69 3 0.000000 21.400000 12.610000 19.070000 0 0 0
343 69 3 0.000000 21.750000 13.940000 18.430000 0 0 0
344 69 3 0.000000 22.370000 15.260000 17.980000 0 0 0
345 69 3 0.000000 23.370000 16.370000 17.660000 0 0 0
346 70 4 0.000000 21.290000 14.690000 21.650000 0 0 0
347 70 3 0.000000 19.160000 15.100000 22.080000 0 0 0
348 70 3 0.000000 20.650000 15.160000 21.820000 0 0 0
349 70 3 0.000000 22.060000 14.680000 21.520000 0 0 0
350 70 3 0.000000 23.290000 13.840000 21.180000 0 0 0
351 71 4 0.000000 21.420000 18.630000 23.300000 0 0 0
352 71 3 0.000000 19.660000 19.740000 24.160000 0 0 0
353 71 3 0.000000 20.750000 18.800000 23.650000 0 0 0
354 71 3 0.000000 21.960000 18.100000 23.040000 0 0 0
355 71 3 0.000000 23.300000 17.870000 22.360000 0 0 0
356 72 4 0.000000 22.460000 22.470000 24.620000 0 0 0
357 72 3 0.000000 21.270000 20.690000 25.200000 0 0 0
358 72 3 0.000000 22.320000 21.670000 24.710000 0 0 0
359 72 3 0.000000 22.970000 23.010000 24.390000 0 0 0
360 72 3 0.000000 23.270000 24.500000 24.170000 0 0 0
361 73 4 0.000000 24.530000 25.150000 23.890000 0 0 0
362 73 3 0.000000 24.090000 23.090000 24.640000 0 0 0
363 73 3 0.000000 24.210000 24.560000 24.280000 0 0 0
364 73 3 0.000000 24.560000 25.930000 23.710000 0 0 0
365 73 3 0.000000 25.250000 27.030000 22.920000 0 0 0
366 74 4 0.000000 25.550000 26.410000 20.620000 0 0 0
367 74 3 0.000000 23.590000 26.480000 21.720000 0 0 0
368 74 3 0.000000 24.860000 26.660000 20.900000 0 0 0
369 74 3 0.000000 26.200000 26.450000 20.220000 0 0 0
370 74 3 0.000000 27.540000 26.040000 19.630000 0 0 0
371 75 1 0.000000 29.090000 26.750000 20.190000 0 0 0
372 75 3 0.000000 27.220000 27.150000 21.470000 0 0 0
373 75 3 0.000000 28.510000 26.760000 20.760000 0 0 0
374 75 3 0.000000 29.730000 26.550000 19.870000 0 0 0
375 75 2 0.000000 30.790000 26.560000 18.780000 0 0 0
376 76 1 0.000000 0.460000 44.690000 29.060000 0 0 0
377 76 2 0.000000 58.745500 44.010000 30.080000 -1 0 0
378 76 3 0.000000 60.035500 44.470000 29.390000 -1 0 0
379 76 3 0.000000 1.140000 44.930000 28.700000 0 0 0
380 76 3 0.000000 2.410000 45.390000 28.000000 0 0 0
381 77 4 0.000000 0.470000 48.570000 27.630000 0 0 0
382 77 3 0.000000 58.825500 47.790000 28.770000 -1 0 0
383 77 3 0.000000 60.065500 48.290000 28.030000 -1 0 0
384 77 3 0.000000 1.090000 48.820000 27.260000 0 0 0
385 77 3 0.000000 2.270000 49.380000 26.470000 0 0 0
386 78 4 0.000000 57.250000 49.110000 26.630000 -1 0 0
387 78 3 0.000000 55.550000 48.130000 27.810000 -1 0 0
388 78 3 0.000000 56.680000 48.770000 27.010000 -1 0 0
389 78 3 0.000000 57.810000 49.440000 26.220000 -1 0 0
390 78 3 0.000000 58.960000 50.110000 25.470000 -1 0 0
391 79 4 0.000000 54.770000 52.480000 27.110000 -1 0 0
392 79 3 0.000000 52.830000 51.670000 27.990000 -1 0 0
393 79 3 0.000000 54.080000 52.260000 27.360000 -1 0 0
394 79 3 0.000000 55.400000 52.800000 26.800000 -1 0 0
395 79 3 0.000000 56.780000 53.200000 26.300000 -1 0 0
396 80 4 0.000000 53.210000 54.160000 29.640000 -1 0 0
397 80 3 0.000000 51.080000 54.070000 30.460000 -1 0 0
398 80 3 0.000000 52.520000 54.200000 29.970000 -1 0 0
399 80 3 0.000000 53.940000 54.210000 29.410000 -1 0 0
400 80 3 0.000000 55.300000 54.170000 28.720000 -1 0 0
401 81 4 0.000000 50.890000 55.720000 32.640000 -1 0 0
402 81 3 0.000000 49.370000 55.370000 34.270000 -1 0 0
403 81 3 0.000000 50.500000 55.460000 33.250000 -1 0 0
404 81 3 0.000000 51.450000 55.750000 32.100000 -1 0 0
405 81 3 0.000000 52.230000 56.300000 30.920000 -1 0 0
406 82 4 0.000000 49.140000 59.430000 31.310000 -1 0 0
407 82 3 0.000000 48.250000 57.650000 32.380000 -1 0 0
408 82 3 0.000000 48.810000 58.740000 31.470000 -1 0 0
409 82 3 0.000000 49.380000 60.000000 30.840000 -1 0 0
410 82 3 0.000000 50.100000 1.124500 30.540000 -1 1 0
411 83 4 0.000000 45.740000 58.250000 31.940000 -1 0 0
412 83 3 0.000000 43.750000 57.340000 31.570000 -1 0 0
413 83 3 0.000000 44.960000 58.240000 31.800000 -1 0 0
414 83 3 0.000000 46.370000 58.710000 32.100000 -1 0 0
415 83 3 0.000000 47.880000 58.700000 32.290000 -1 0 0
416 84 4 0.000000 46.130000 57.830000 36.040000 -1 0 0
417 84 3 0.000000 44.410000 58.670000 37.170000 -1 0 0
418 84 3 0.000000 45.710000 58.050000 36.670000 -1 0 0
419 84 3 0.000000 46.780000 57.470000 35.770000 -1 0 0
420 84 3 0.000000 47.630000 57.130000 34.560000 -1 0 0
421 85 4 0.000000 46.140000 0.230000 39.750000 -1 1 0
422 85 3 0.000000 45.110000 59.355500 41.420000 -1 0 0
423 85 3 0.000000 45.730000 59.875500 40.140000 -1 0 0
424 85 3 0.000000 46.430000 0.540000 39.090000 -1 1 0
425 85 3 0.000000 47.300000 1.530000 38.360000 -1 1 0
426 86 4 0.000000 44.840000 0.320000 44.010000 -1 1 0
427 86 3 0.000000 42.820000 59.745500 44.630000 -1 0 0
428 86 3 0.000000 44.120000 0.250000 44.270000 -1 1 0
429 86 3 0.000000 45.520000 0.650000 43.860000 -1 1 0
430 86 3 0.000000 46.910000 0.830000 43.280000 -1 1 0
431 87 4 0.000000 44.590000 1.850000 47.680000 -1 1 0
432 87 3 0.000000 43.100000 1.180000 49.210000 -1 1 0
433 87 3 0.000000 44.200000 1.430000 48.190000 -1 1 0
434 87 3 0.000000 45.120000 1.960000 47.130000 -1 1 0
435 87 3 0.000000 45.940000 2.830000 46.190000 -1 1 0
436 88 4 0.000000 43.490000 3.590000 51.400000 -1 1 0
437 88 3 0.000000 41.960000 1.970000 51.440000 -1 1 0
438 88 3 0.000000 42.850000 3.180000 51.200000 -1 1 0
439 88 3 0.000000 43.930000 4.240000 51.320000 -1 1 0
440 88 3 0.000000 45.220000 4.960000 51.650000 -1 1 0
441 89 4 0.000000 41.460000 7.100000 52.050000 -1 1 0
442 89 3 0.000000 39.400000 7.790000 52.330000 -1 1 0
443 89 3 0.000000 40.890000 7.540000 52.430000 -1 1 0
444 89 3 0.000000 42.250000 6.920000 52.120000 -1 1 0
445 89 3 0.000000 43.300000 6.160000 51.330000 -1 1 0
446 90 4 0.000000 41.160000 11.240000 52.360000 -1 1 0
447 90 3 0.000000 40.770000 11.180000 54.540000 -1 1 0
448 90 3 0.000000 41.140000 10.890000 53.090000 -1 1 0
449 90 3 0.000000 41.300000 11.090000 51.580000 -1 1 0
450 90 3 0.000000 41.420000 11.790000 50.240000 -1 1 0
451 91 4 0.000000 41.820000 13.560000 49.060000 -1 1 0
452 91 3 0.000000 40.680000 11.720000 49.490000 -1 1 0
453 91 3 0.000000 41.220000 13.030000 48.930000 -1 1 0
454 91 3 0.000000 42.090000 14.270000 48.800000 -1 1 0
455 91 3 0.000000 43.280000 15.200000 49.010000 -1 1 0
456 92 4 0.000000 40.490000 11.350000 46.120000 -1 1 0
457 92 3 0.000000 38.260000 11.520000 46.050000 -1 1 0
458 92 3 0.000000 39.760000 11.570000 46.300000 -1 1 0
459 92 3 0.000000 41.260000 11.320000 46.280000 -1 1 0
460 92 3 0.000000 42.680000 10.970000 45.860000 -1 1 0
461 93 4 0.000000 39.710000 7.710000 46.660000 -1 1 0
462 93 3 0.000000 38.560000 7.140000 48.450000 -1 1 0
463 93 3 0.000000 39.540000 7.230000 47.290000 -1 1 0
464 93 3 0.000000 40.170000 7.770000 46.020000 -1 1 0
465 93 3 0.000000 40.560000 8.690000 44.870000 -1 1 0
466 94 4 0.000000 40.160000 3.470000 47.090000 -1 1 0
467 94 3 0.000000 39.340000 1.530000 47.870000 -1 1 0
468 94 3 0.000000 39.690000 2.860000 47.230000 -1 1 0
469 94 3 0.000000 40.310000 4.180000 46.780000 -1 1 0
470 94 3 0.000000 41.310000 5.290000 46.460000 -1 1 0
471 95 4 0.000000 38.560000 59.120000 46.710000 -1 0 0
472 95 3 0.000000 36.430000 59.530000 47.150000 -1 0 0
473 95 3 0.000000 37.920000 59.580000 46.880000 -1 0 0
474 95 3 0.000000 39.330000 59.100000 46.590000 -1 0 0
475 95 3 0.000000 40.560000 58.270000 46.230000 -1 0 0
476 96 4 0.000000 34.150000 58.080000 46.500000 -1 0 0
477 96 3 0.000000 32.390000 59.190000 47.360000 -1 0 0
478 96 3 0.000000 33.480000 58.250000 46.850000 -1 0 0
479 96 3 0.000000 34.690000 57.550000 46.230000 -1 0 0
480 96 3 0.000000 36.030000 57.320000 45.570000 -1 0 0
481 97 4 0.000000 34.730000 57.670000 50.430000 -1 0 0
482 97 3 0.000000 33.540000 55.900000 51.010000 -1 0 0
483 97 3 0.000000 34.590000 56.880000 50.520000 -1 0 0
484 97 3 0.000000 35.240000 58.220000 50.200000 -1 0 0
485 97 3 0.000000 35.540000 59.700000 49.980000 -1 0 0
486 98 4 0.000000 33.370000 55.790000 52.870000 -1 0 0
487 98 3 0.000000 32.930000 53.730000 53.620000 -1 0 0
488 98 3 0.000000 33.050000 55.200000 53.260000 -1 0 0
489 98 3 0.000000 33.400000 56.570000 52.690000 -1 0 0
490 98 3 0.000000 34.090000 57.670000 51.900000 -1 0 0
491 99 4 0.000000 32.750000 51.690000 54.830000 -1 0 0
492 99 3 0.000000 30.790000 51.760000 55.930000 -1 0 0
493 99 3 0.000000 32.060000 51.940000 55.110000 -1 0 0
494 99 3 0.000000 33.400000 51.730000 54.430000 -1 0 0
495 99 3 0.000000 34.740000 51.320000 53.840000 -1 0 0
496 100 1 0.000000 30.700000 50.180000 58.460000 -1 0 0
497 100 3 0.000000 28.830000 50.580000 59.740000 -1 0 0
498 100 3 0.000000 30.120000 50.190000 59.030000 -1 0 0
499 100 3 0.000000 31.340000 49.980000 58.140000 -1 0 0
500 100 2 0.000000 32.400000 49.990000 57.050000 -1 0 0
501 101 1 0.000000 41.320000 12.020000 32.940000 0 0 0
502 101 2 0.000000 39.420000 11.340000 33.960000 0 0 0
503 101 3 0.000000 40.710000 11.800000 33.270000 0 0 0
504 101 3 0.000000 42.000000 12.260000 32.580000 0 0 0
505 101 3 0.000000 43.270000 12.720000 31.880000 0 0 0
506 102 4 0.000000 41.090000 7.970000 31.420000 0 0 0
507 102 3 0.000000 39.260000 7.190000 32.560000 0 0 0
508 102 3 0.000000 40.500000 7.690000 31.820000 0 0 0
509 102 3 0.000000 41.710000 8.220000 31.050000 0 0 0
510 102 3 0.000000 42.890000 8.780000 30.260000 0 0 0
511 103 4 0.000000 37.990000 8.530000 32.730000 0 0 0
512 103 3 0.000000 36.290000 7.550000 33.910000 0 0 0
513 103 3 0.000000 37.420000 8.190000 33.110000 0 0 0
514 103 3 0.000000 38.550000 8.860000 32.320000 0 0 0
515 103 3 0.000000 39.700000 9.530000 31.570000 0 0 0
516 104 4 0.000000 34.340000 10.760000 31.470000 0 0 0
517 104 3 0.000000 32.400000 9.950000 32.350000 0 0 0
518 104 3 0.000000 33.650000 10.540000 31.720000 0 0 0
519 104 3 0.000000 34.970000 11.070000 31.160000 0 0 0
520 104 3 0.000000 36.350000 11.470000 30.660000 0 0 0
521 105 4 0.000000 34.460000 14.070000 27.980000 0 0 0
522 105 3 0.000000 32.330000 13.980000 28.800000 0 0 0
523 105 3 0.000000 33.770000 14.110000 28.310000 0 0 0
524 105 3 0.000000 35.190000 14.120000 27.750000 0 0 0
525 105 3 0.000000 36.550000 14.080000 27.060000 0 0 0
526 106 4 0.000000 36.170000 14.600000 24.360000 0 0 0
527 106 3 0.000000 34.650000 14.250000 25.990000 0 0 0
528 106 3 0.000000 35.780000 14.340000 24.970000 0 0 0
529 106 3 0.000000 36.730000 14.620000 23.820000 0 0 0
530 106 3 0.000000 37.510000 15.180000 22.640000 0 0 0
531 107 4 0.000000 38.830000 14.260000 21.740000 0 0 0
532 107 3 0.000000 37.950000 12.480000 22.810000 0 0 0
533 107 3 0.000000 38.510000 13.570000 21.900000 0 0 0
534 107 3 0.000000 39.080000 14.840000 21.270000 0 0 0
535 107 3 0.000000 39.790000 16.150000 20.970000 0 0 0
536 108 4 0.000000 42.700000 12.690000 22.380000 0 0 0
537 108 3 0.000000 40.710000 11.780000 22.010000 0 0 0
538 108 3 0.000000 41.920000 12.680000 22.240000 0 0 0
539 108 3 0.000000 43.330000 13.150000 22.540000 0 0 0
540 108 3 0.000000 44.840000 13.140000 22.730000 0 0 0
541 109 4 0.000000 44.950000 9.960000 23.590000 0 0 0
542 109 3 0.000000 43.230000 10.800000 24.720000 0 0 0
543 109 3 0.000000 44.530000 10.180000 24.220000 0 0 0
544 109 3 0.000000 45.600000 9.600000 23.320000 0 0 0
545 109 3 0.000000 46.450000 9.260000 22.110000 0 0 0
546 110 4 0.000000 48.420000 8.940000 21.110000 0 0 0
547 110 3 0.000000 47.390000 7.880000 22.780000 0 0 0
548 110 3 0.000000 48.010000 8.400000 21.500000 0 0 0
549 110 3 0.000000 48.710000 9.250000 20.460000 0 0 0
550 110 3 0.000000 49.580000 10.240000 19.720000 0 0 0
551 111 4 0.000000 46.630000 10.040000 17.300000 0 0 0
552 111 3 0.000000 44.610000 9.280000 17.920000 0 0 0
553 111 3 0.000000 45.910000 9.970000 17.560000 0 0 0
554 111 3 0.000000 47.310000 10.370000 17.150000 0 0 0
555 111 3 0.000000 48.700000 10.550000 16.570000 0 0 0
556 112 4 0.000000 45.790000 9.820000 13.980000 0 0 0
557 112 3 0.000000 44.300000 9.150000 15.520000 0 0 0
558 112 3 0.000000 45.400000 9.400000 14.500000 0 0 0
559 112 3 0.000000 46.320000 9.930000 13.430000 0 0 0
560 112 3 0.000000 47.140000 10.800000 12.480000 0 0 0
561 113 4 0.000000 49.470000 6.940000 13.580000 0 0 0
562 113 3 0.000000 47.940000 5.320000 13.620000 0 0 0
563 113 3 0.000000 48.830000 6.530000 13.380000 0 0 0
564 113 3 0.000000 49.910000 7.590000 13.500000 0 0 0
565 113 3 0.000000 51.200000 8.310000 13.830000 0 0 0
566 114 4 0.000000 52.590000 5.030000 12.970000 0 0 0
567 114 3 0.000000 50.530000 5.720000 13.250000 0 0 0
568 114 3 0.000000 52.020000 5.470000 13.350000 0 0 0
569 114 3 0.000000 53.380000 4.850000 13.040000 0 0 0
570 114 3 0.000000 54.430000 4.090000 12.250000 0 0 0
571 115 4 0.000000 54.860000 1.830000 12.240000 0 0 0
572 115 3 0.000000 54.470000 1.770000 14.420000 0 0 0
573 115 3 0.000000 54.840000 1.480000 12.970000 0 0 0
574 115 3 0.000000 55.000000 1.680000 11.460000 0 0 0
575 115 3 0.000000 55.120000 2.380000 10.120000 0 0 0
576 116 4 0.000000 54.080000 58.000000 11.590000 0 -1 0
577 116 3 0.000000 52.940000 56.160000 12.030000 0 -1 0
578 116 3 0.000000 53.480000 57.470000 11.460000 0 -1 0
579 116 3 0.000000 54.350000 58.710000 11.340000 0 -1 0
580 116 3 0.000000 55.540000 59.640000 11.550000 0 -1 0
581 117 4 0.000000 51.850000 55.500000 10.040000 0 -1 0
582 117 3 0.000000 49.620000 55.670000 9.970000 0 -1 0
583 117 3 0.000000 51.120000 55.720000 10.220000 0 -1 0
584 117 3 0.000000 52.620000 55.470000 10.200000 0 -1 0
585 117 3 0.000000 54.040000 55.120000 9.780000 0 -1 0
586 118 4 0.000000 49.680000 52.210000 8.010000 0 -1 0
587 118 3 0.000000 48.530000 51.640000 9.800000 0 -1 0
588 118 3 0.000000 49.500000 51.730000 8.640000 0 -1 0
589 118 3 0.000000 50.140000 52.270000 7.370000 0 -1 0
590 118 3 0.000000 50.530000 53.190000 6.220000 0 -1 0
591 119 4 0.000000 47.730000 53.750000 5.640000 0 -1 0
592 119 3 0.000000 46.910000 51.810000 6.420000 0 -1 0
593 119 3 0.000000 47.260000 53.140000 5.790000 0 -1 0
594 119 3 0.000000 47.880000 54.470000 5.330000 0 -1 0
595 119 3 0.000000 48.880000 55.570000 5.010000 0 -1 0
596 120 4 0.000000 50.530000 52.580000 3.220000 0 -1 0
597 120 3 0.000000 48.400000 52.990000 3.650000 0 -1 0
598 120 3 0.000000 49.890000 53.040000 3.390000 0 -1 0
599 120 3 0.000000 51.300000 52.560000 3.090000 0 -1 0
600 120 3 0.000000 52.530000 51.730000 2.750000 0 -1 0
601 121 4 0.000000 51.750000 49.040000 2.530000 0 -1 0
602 121 3 0.000000 49.990000 50.150000 3.390000 0 -1 0
603 121 3 0.000000 51.080000 49.210000 2.870000 0 -1 0
604 121 3 0.000000 52.290000 48.510000 2.270000 0 -1 0
605 121 3 0.000000 53.630000 48.280000 1.600000 0 -1 0
606 122 4 0.000000 49.380000 47.930000 60.170000 0 -1 -1
607 122 3 0.000000 48.190000 46.150000 0.564500 0 -1 0
608 122 3 0.000000 49.240000 47.130000 0.074500 0 -1 0
609 122 3 0.000000 49.890000 48.480000 59.940000 0 -1 -1
610 122 3 0.000000 50.190000 49.950000 59.720000 0 -1 -1
611 123 4 0.000000 51.980000 44.870000 59.900000 0 -1 -1
612 123 3 0.000000 51.540000 42.810000 0.464500 0 -1 0
613 123 3 0.000000 51.660000 44.280000 0.104500 0 -1 0
614 123 3 0.000000 52.010000 45.650000 59.720000 0 -1 -1
615 123 3 0.000000 52.700000 46.750000 58.930000 0 -1 -1
616 124 4 0.000000 56.290000 43.870000 59.190000 0 -1 -1
617 124 3 0.000000 54.330000 43.940000 0.104500 0 -1 0
618 124 3 0.000000 55.600000 44.120000 59.470000 0 -1 -1
619 124 3 0.000000 56.940000 43.910000 58.790000 0 -1 -1
620 124 3 0.000000 58.280000 43.500000 58.200000 0 -1 -1
621 125 1 0.000000 0.240000 43.770000 58.800000 1 -1 -1
622 125 3 0.000000 58.555500 44.170000 60.080000 0 -1 -1
623 125 3 0.000000 59.845500 43.780000 59.370000 0 -1 -1
624 125 3 0.000000 0.880000 43.570000 58.480000 1 -1 -1
625 125 2 0.000000 1.940000 43.580000 57.390000 1 -1 -1
626 126 1 0.000000 5.980000 24.450000 17.840000 0 0 0
627 126 2 0.000000 4.080000 23.770000 18.860000 0 0 0
628 126 3 0.000000 5.370000 24.230000 18.170000 0 0 0
629 126 3 0.000000 6.660000 24.690000 17.480000 0 0 0
630 126 3 0.000000 7.930000 25.150000 16.780000 0 0 0
631 127 4 0.000000 9.590000 26.510000 19.330000 0 0 0
632 127 3 0.000000 7.760000 25.730000 20.470000 0 0 0
633 127 3 0.000000 9.000000 26.230000 19.730000 0 0 0
634 127 3 0.000000 10.210000 26.760000 18.960000 0 0 0
635 127 3 0.000000 11.390000 27.320000 18.170000 0 0 0
636 128 4 0.000000 12.770000 28.570000 18.260000 0 0 0
637 128 3 0.000000 11.070000 27.590000 19.440000 0 0 0
638 128 3 0.000000 12.200000 28.230000 18.640000 0 0 0
639 128 3 0.000000 13.330000 28.900000 17.850000 0 0 0
640 128 3 0.000000 14.480000 29.570000 17.100000 0 0 0
641 129 4 0.000000 16.290000 27.680000 17.920000 0 0 0
642 129 3 0.000000 14.350000 26.860000 18.800000 0 0 0
643 129 3 0.000000 15.600000 27.460000 18.170000 0 0 0
644 129 3 0.000000 16.920000 27.990000 17.610000 0 0 0
645 129 3 0.000000 18.300000 28.390000 17.110000 0 0 0
646 130 4 0.000000 18.510000 25.300000 18.160000 0 0 0
647 130 3 0.000000 16.380000 25.210000 18.980000 0 0 0
648 130 3 0.000000 17.820000 25.340000 18.490000 0 0 0
649 130 3 0.000000 19.240000 25.350000 17.930000 0 0 0
650 130 3 0.000000 20.600000 25.310000 17.240000 0 0 0
651 131 4 0.000000 21.330000 26.980000 15.380000 0 0 0
652 131 3 0.000000 19.810000 26.630000 17.020000 0 0 0
653 131 3 0.000000 20.940000 26.720000 15.990000 0 0 0
654 131 3 0.000000 21.890000 27.000000 14.840000 0 0 0
655 131 3 0.000000 22.670000 27.560000 13.670000 0 0 0
656 132 4 0.000000 22.540000 25.410000 11.750000 0 0 0
657 132 3 0.000000 21.660000 23.640000 12.820000 0 0 0
658 132 3 0.000000 22.210000 24.730000 11.910000 0 0 0
659 132 3 0.000000 22.790000 25.990000 11.280000 0 0 0
660 132 3 0.000000 23.510000 27.290000 10.980000 0 0 0
661 133 4 0.000000 25.490000 23.170000 9.660000 0 0 0
662 133 3 0.000000 23.500000 22.260000 9.290000 0 0 0
663 133 3 0.000000 24.710000 23.160000 9.520000 0 0 0
664 133 3 0.000000 26.120000 23.630000 9.820000 0 0 0
665 133 3 0.000000 27.630000 23.620000 10.010000 0 0 0
666 134 4 0.000000 28.650000 20.620000 10.250000 0 0 0
667 134 3 0.000000 26.930000 21.460000 11.380000 0 0 0
668 134 3 0.000000 28.230000 20.840000 10.880000 0 0 0
669 134 3 0.000000 29.300000 20.260000 9.980000 0 0 0
670 134 3 0.000000 30.150000 19.920000 8.770000 0 0 0
671 135 4 0.000000 30.020000 18.160000 13.500000 0 0 0
672 135 3 0.000000 28.990000 17.100000 15.170000 0 0 0
673 135 3 0.000000 29.610000 17.620000 13.890000 0 0 0
674 135 3 0.000000 30.310000 18.470000 12.840000 0 0 0
675 135 3 0.000000 31.180000 19.460000 12.110000 0 0 0
676 136 4 0.000000 30.590000 17.290000 16.700000 0 0 0
677 136 3 0.000000 28.570000 16.530000 17.320000 0 0 0
678 136 3 0.000000 29.870000 17.220000 16.960000 0 0 0
679 136 3 0.000000 31.270000 17.620000 16.550000 0 0 0
680 136 3 0.000000 32.660000 17.800000 15.970000 0 0 0
681 137 4 0.000000 31.200000 17.090000 20.290000 0 0 0
682 137 3 0.000000 29.710000 16.420000 21.830000 0 0 0
683 137 3 0.000000 30.810000 16.670000 20.810000 0 0 0
684 137 3 0.000000 31.730000 17.200000 19.740000 0 0 0
685 137 3 0.000000 32.550000 18.070000 18.790000 0 0 0
686 138 4 0.000000 33.810000 19.730000 20.820000 0 0 0
687 138 3 0.000000 32.280000 18.110000 20.860000 0 0 0
688 138 3 0.000000 33.170000 19.320000 20.620000 0 0 0
689 138 3 0.000000 34.250000 20.380000 20.740000 0 0 0
690 138 3 0.000000 35.540000 21.100000 21.070000 0 0 0
691 139 4 0.000000 37.930000 20.730000 19.640000 0 0 0
692 139 3 0.000000 35.870000 21.420000 19.920000 0 0 0
693 139 3 0.000000 37.360000 21.170000 20.020000 0 0 0
694 139 3 0.000000 38.720000 20.550000 19.710000 0 0 0
695 139 3 0.000000 39.770000 19.790000 18.920000 0 0 0
696 140 4 0.000000 40.330000 23.850000 20.730000 0 0 0
697 140 3 0.000000 39.940000 23.790000 22.910000 0 0 0
698 140 3 0.000000 40.310000 23.500000 21.460000 0 0 0
699 140 3 0.000000 40.470000 23.700000 19.950000 0 0 0
700 140 3 0.000000 40.590000 24.400000 18.610000 0 0 0
701 141 4 0.000000 43.210000 24.220000 23.900000 0 0 0
702 141 3 0.000000 42.070000 22.380000 24.340000 0 0 0
703 141 3 0.000000 42.610000 23.690000 23.770000 0 0 0
704 141 3 0.000000 43.480000 24.930000 23.650000 0 0 0
705 141 3 0.000000 44.670000 25.860000 23.860000 0 0 0
706 142 4 0.000000 46.280000 26.130000 23.720000 0 0 0
707 142 3 0.000000 44.050000 26.300000 23.650000 0 0 0
708 142 3 0.000000 45.550000 26.350000 23.900000 0 0 0
709 142 3 0.000000 47.050000 26.100000 23.880000 0 0 0
710 142 3 0.000000 48.470000 25.750000 23.460000 0 0 0
711 143 4 0.000000 47.810000 30.480000 23.630000 0 0 0
712 143 3 0.000000 46.660000 29.910000 25.420000 0 0 0
713 143 3 0.000000 47.630000 30.000000 24.260000 0 0 0
714 143 3 0.000000 48.270000 30.540000 22.990000 0 0 0
715 143 3 0.000000 48.660000 31.460000 21.840000 0 0 0
716 144 4 0.000000 49.640000 33.780000 23.690000 0 0 0
717 144 3 0.000000 48.820000 31.840000 24.480000 0 0 0
718 144 3 0.000000 49.170000 33.170000 23.840000 0 0 0
719 144 3 0.000000 49.790000 34.500000 23.390000 0 0 0
720 144 3 0.000000 50.790000 35.600000 23.070000 0 0 0
721 145 4 0.000000 52.840000 33.560000 26.740000 0 0 0
722 145 3 0.000000 50.710000 33.970000 27.170000 0 0 0
723 145 3 0.000000 52.200000 34.020000 26.910000 0 0 0
724 145 3 0.000000 53.610000 33.540000 26.610000 0 0 0
725 145 3 0.000000 54.840000 32.710000 26.270000 0 0 0
726 146 4 0.000000 55.880000 33.650000 24.670000 0 0 0
727 146 3 0.000000 54.120000 34.760000 25.530000 0 0 0
728 146 3 0.000000 55.210000 33.820000 25.020000 0 0 0
729 146 3 0.000000 56.420000 33.120000 24.410000 0 0 0
730 146 3 0.000000 57.760000 32.890000 23.730000 0 0 0
731 147 4 0.000000 59.760000 35.190000 24.270000 0 0 0
732 147 3 0.000000 58.570000 33.410000 24.850000 0 0 0
733 147 3 0.000000 59.620000 34.400000 24.360000 0 0 0
734 147 3 0.000000 0.084500 35.740000 24.040000 1 0 0
735 147 3 0.000000 0.384500 37.220000 23.820000 1 0 0
736 148 4 0.000000 3.940000 36.030000 23.710000 1 0 0
737 148 3 0.000000 3.500000 33.970000 24.460000 1 0 0
738 148 3 0.000000 3.620000 35.440000 24.100000 1 0 0
739 148 3 0.000000 3.970000 36.810000 23.530000 1 0 0
740 148 3 0.000000 4.660000 37.910000 22.740000 1 0 0
741 149 4 0.000000 7.720000 35.580000 21.220000 1 0 0
742 149 3 0.000000 5.760000 35.650000 22.320000 1 0 0
743 149 3 0.000000 7.030000 35.830000 21.500000 1 0 0
744 149 3 0.000000 8.370000 35.620000 20.820000 1 0 0
745 149 3 0.000000 9.710000 35.210000 20.230000 1 0 0
746 150 1 0.000000 9.730000 32.320000 19.780000 1 0 0
747 150 3 0.000000 7.860000 32.720000 21.060000 1 0 0
748 150 3 0.000000 9.150000 32.330000 20.350000 1 0 0
749 150 3 0.000000 10.370000 32.120000 19.460000 1 0 0
750 150 2 0.000000 11.430000 32.130000 18.370000 1 0 0
751 151 1 0.000000 18.100000 39.150000 4.620000 0 0 0
752 151 2 0.000000 16.200000 38.470000 5.640000 0 0 0
753 151 3 0.000000 17.490000 38.930000 4.950000 0 0 0
754 151 3 0.000000 18.780000 39.390000 4.260000 0 0 0
755 151 3 0.000000 20.050000 39.850000 3.560000 0 0 0
756 152 4 0.000000 18.910000 35.150000 2.950000 0 0 0
757 152 3 0.000000 17.080000 34.370000 4.090000 0 0 0
758 152 3 0.000000 18.320000 34.870000 3.350000 0 0 0
759 152 3 0.000000 19.530000 35.400000 2.580000 0 0 0
760 152 3 0.000000 20.710000 35.960000 1.790000 0 0 0
761 153 4 0.000000 16.710000 35.620000 0.810000 0 0 0
762 153 3 0.000000 15.010000 34.640000 1.990000 0 0 0
763 153 3 0.000000 16.140000 35.280000 1.190000 0 0 0
764 153 3 0.000000 17.270000 35.950000 0.400000 0 0 0
765 153 3 0.000000 18.420000 36.620000 59.835500 0 0 -1
766 154 4 0.000000 13.800000 37.860000 59.000000 0 0 -1
767 154 3 0.000000 11.860000 37.040000 59.880000 0 0 -1
768 154 3 0.000000 13.110000 37.640000 59.250000 0 0 -1
769 154 3 0.000000 14.430000 38.170000 58.690000 0 0 -1
770 154 3 0.000000 15.810000 38.570000 58.190000 0 0 -1
771 155 4 0.000000 13.150000 37.540000 55.280000 0 0 -1
772 155 3 0.000000 11.020000 37.450000 56.100000 0 0 -1
773 155 3 0.000000 12.460000 37.580000 55.610000 0 0 -1
774 155 3 0.000000 13.880000 37.590000 55.050000 0 0 -1
775 155 3 0.000000 15.240000 37.550000 54.360000 0 0 -1
776 156 4 0.000000 11.730000 34.390000 55.840000 0 0 -1
777 156 3 0.000000 10.210000 34.050000 57.470000 0 0 -1
778 156 3 0.000000 11.340000 34.130000 56.450000 0 0 -1
779 156 3 0.000000 12.290000 34.420000 55.300000 0 0 -1
780 156 3 0.000000 13.070000 34.970000 54.120000 0 0 -1
781 157 4 0.000000 12.110000 30.550000 56.270000 0 0 -1
782 157 3 0.000000 11.230000 28.780000 57.340000 0 0 -1
783 157 3 0.000000 11.790000 29.870000 56.430000 0 0 -1
784 157 3 0.000000 12.360000 31.130000 55.800000 0 0 -1
785 157 3 0.000000 13.080000 32.440000 55.500000 0 0 -1
786 158 4 0.000000 16.090000 29.200000 57.710000 0 0 -1
787 158 3 0.000000 14.100000 28.290000 57.340000 0 0 -1
788 158 3 0.000000 15.310000 29.190000 57.570000 0 0 -1
789 158 3 0.000000 16.720000 29.660000 57.870000 0 0 -1
790 158 3 0.000000 18.230000 29.650000 58.060000 0 0 -1
791 159 4 0.000000 17.130000 25.170000 57.300000 0 0 -1
792 159 3 0.000000 15.410000 26.010000 58.430000 0 0 -1
793 159 3 0.000000 16.710000 25.390000 57.930000 0 0 -1
794 159 3 0.000000 17.780000 24.810000 57.030000 0 0 -1
795 159 3 0.000000 18.630000 24.470000 55.820000 0 0 -1
796 160 4 0.000000 19.620000 21.750000 57.580000 0 0 -1
797 160 3 0.000000 18.590000 20.690000 59.250000 0 0 -1
798 160 3 0.000000 19.210000 21.210000 57.960000 0 0 -1
799 160 3 0.000000 19.910000 22.060000 56.920000 0 0 -1
800 160 3 0.000000 20.780000 23.050000 56.190000 0 0 -1
801 161 4 0.000000 19.650000 18.750000 59.690000 0 0 -1
802 161 3 0.000000 17.630000 17.990000 0.124500 0 0 0
803 161 3 0.000000 18.930000 18.680000 59.950000 0 0 -1
804 161 3 0.000000 20.330000 19.080000 59.540000 0 0 -1
805 161 3 0.000000 21.720000 19.260000 58.960000 0 0 -1
806 162 4 0.000000 17.580000 21.320000 0.590000 0 0 0
807 162 3 0.000000 16.090000 20.650000 2.130000 0 0 0
808 162 3 0.000000 17.190000 20.900000 1.110000 0 0 0
809 162 3 0.000000 18.110000 21.430000 0.040000 0 0 0
810 162 3 0.000000 18.930000 22.300000 59.285500 0 0 -1
811 163 4 0.000000 17.090000 23.330000 4.400000 0 0 0
812 163 3 0.000000 15.560000 21.710000 4.440000 0 0 0
813 163 3 0.000000 16.450000 22.920000 4.200000 0 0 0
814 163 3 0.000000 17.530000 23.980000 4.320000 0 0 0
815 163 3 0.000000 18.820000 24.700000 4.650000 0 0 0
816 164 4 0.000000 13.720000 22.950000 7.330000 0 0 0
817 164 3 0.000000 11.660000 23.640000 7.610000 0 0 0
818 164 3 0.000000 13.150000 23.390000 7.710000 0 0 0
819 164 3 0.000000 14.510000 22.770000 7.400000 0 0 0
820 164 3 0.000000 15.560000 22.010000 6.610000 0 0 0
821 165 4 0.000000 11.450000 23.090000 9.670000 0 0 0
822 165 3 0.000000 11.060000 23.030000 11.850000 0 0 0
823 165 3 0.000000 11.430000 22.740000 10.400000 0 0 0
824 165 3 0.000000 11.590000 22.940000 8.890000 0 0 0
825 165 3 0.000000 11.710000 23.640000 7.550000 0 0 0
826 166 4 0.000000 13.400000 21.730000 13.190000 0 0 0
827 166 3 0.000000 12.260000 19.890000 13.630000 0 0 0
828 166 3 0.000000 12.800000 21.200000 13.060000 0 0 0
829 166 3 0.000000 13.670000 22.440000 12.940000 0 0 0
830 166 3 0.000000 14.860000 23.370000 13.150000 0 0 0
831 167 4 0.000000 14.540000 18.310000 12.000000 0 0 0
832 167 3 0.000000 12.310000 18.480000 11.930000 0 0 0
833 167 3 0.000000 13.810000 18.530000 12.180000 0 0 0
834 167 3 0.000000 15.310000 18.280000 12.160000 0 0 0
835 167 3 0.000000 16.730000 17.930000 11.740000 0 0 0
836 168 4 0.000000 15.010000 13.900000 10.210000 0 0 0
837 168 3 0.000000 13.860000 13.330000 12.000000 0 0 0
838 168 3 0.000000 14.830000 13.420000 10.840000 0 0 0
839 168 3 0.000000 15.470000 13.960000 9.570000 0 0 0
840 168 3 0.000000 15.860000 14.880000 8.420000 0 0 0
841 169 4 0.000000 14.240000 10.540000 8.110000 0 0 0
842 169 3 0.000000 13.420000 8.600000 8.890000 0 0 0
843 169 3 0.000000 13.770000 9.930000 8.260000 0 0 0
844 169 3 0.000000 14.390000 11.250000 7.810000 0 0 0
845 169 3 0.000000 15.390000 12.360000 7.490000 0 0 0
846 170 4 0.000000 17.360000 8.450000 6.240000 0 0 0
847 170 3 0.000000 15.230000 8.860000 6.670000 0 0 0
848 170 3 0.000000 16.720000 8.910000 6.410000 0 0 0
849 170 3 0.000000 18.130000 8.430000 6.110000 0 0 0
850 170 3 0.000000 19.360000 7.600000 5.770000 0 0 0
851 171 4 0.000000 18.590000 4.290000 6.710000 0 0 0
852 171 3 0.000000 16.830000 5.400000 7.570000 0 0 0
853 171 3 0.000000 17.920000 4.460000 7.060000 0 0 0
854 171 3 0.000000 19.130000 3.760000 6.450000 0 0 0
855 171 3 0.000000 20.470000 3.530000 5.780000 0 0 0
856 172 4 0.000000 22.400000 1.630000 6.700000 0 0 0
857 172 3 0.000000 21.210000 60.035500 7.280000 0 -1 0
858 172 3 0.000000 22.260000 0.840000 6.790000 0 0 0
859 172 3 0.000000 22.910000 2.170000 6.470000 0 0 0
860 172 3 0.000000 23.210000 3.660000 6.250000 0 0 0
861 173 4 0.000000 26.540000 1.210000 6.000000 0 0 0
862 173 3 0.000000 26.100000 59.335500 6.750000 0 -1 0
863 173 3 0.000000 26.220000 0.620000 6.390000 0 0 0
864 173 3 0.000000 26.570000 1.990000 5.820000 0 0 0
865 173 3 0.000000 27.260000 3.090000 5.030000 0 0 0
866 174 4 0.000000 26.310000 59.330000 9.180000 0 -1 0
867 174 3 0.000000 24.350000 59.400000 10.280000 0 -1 0
868 174 3 0.000000 25.620000 59.580000 9.460000 0 -1 0
869 174 3 0.000000 26.960000 59.370000 8.780000 0 -1 0
870 174 3 0.000000 28.300000 58.960000 8.190000 0 -1 0
871 175 1 0.000000 25.470000 57.650000 6.260000 0 -1 0
872 175 3 0.000000 23.600000 58.050000 7.540000 0 -1 0
873 175 3 0.000000 24.890000 57.660000 6.830000 0 -1 0
874 175 3 0.000000 26.110000 57.450000 5.940000 0 -1 0
875 175 2 0.000000 27.170000 57.460000 4.850000 0 -1 0
876 176 1 0.000000 4.780000 31.260000 38.760000 0 0 0
877 176 2 0.000000 2.880000 30.580000 39.780000 0 0 0
878 176 3 0.000000 4.170000 31.040000 39.090000 0 0 0
879 176 3 0.000000 5.460000 31.500000 38.400000 0 0 0
880 176 3 0.000000 6.730000 31.960000 37.700000 0 0 0
881 177 4 0.000000 4.930000 27.020000 38.380000 0 0 0
882 177 3 0.000000 3.100000 26.240000 39.520000 0 0 0
883 177 3 0.000000 4.340000 26.740000 38.780000 0 0 0
884 177 3 0.000000 5.550000 27.270000 38.010000 0 0 0
885 177 3 0.000000 6.730000 27.830000 37.220000 0 0 0
886 178 4 0.000000 2.590000 23.310000 37.690000 0 0 0
887 178 3 0.000000 0.890000 22.330000 38.870000 0 0 0
888 178 3 0.000000 2.020000 22.970000 38.070000 0 0 0
889 178 3 0.000000 3.150000 23.640000 37.280000 0 0 0
890 178 3 0.000000 4.300000 24.310000 36.530000 0 0 0
891 179 4 0.000000 0.480000 22.770000 34.450000 0 0 0
892 179 3 0.000000 58.725500 21.960000 35.330000 -1 0 0
893 179 3 0.000000 59.975500 22.560000 34.700000 -1 0 0
894 179 3 0.000000 1.110000 23.080000 34.140000 0 0 0
895 179 3 0.000000 2.490000 23.490000 33.640000 0 0 0
896 180 4 0.000000 58.040000 24.190000 31.430000 -1 0 0
897 180 3 0.000000 55.910000 24.100000 32.250000 -1 0 0
898 180 3 0.000000 57.350000 24.230000 31.760000 -1 0 0
899 180 3 0.000000 58.770000 24.240000 31.200000 -1 0 0
900 180 3 0.000000 60.130000 24.200000 30.510000 -1 0 0
901 181 4 0.000000 55.780000 22.980000 28.070000 -1 0 0
902 181 3 0.000000 54.260000 22.640000 29.700000 -1 0 0
903 181 3 0.000000 55.390000 22.720000 28.680000 -1 0 0
904 181 3 0.000000 56.340000 23.000000 27.530000 -1 0 0
905 181 3 0.000000 57.120000 23.560000 26.350000 -1 0 0
906 182 4 0.000000 57.150000 23.710000 23.780000 -1 0 0
907 182 3 0.000000 56.270000 21.940000 24.850000 -1 0 0
908 182 3 0.000000 56.830000 23.030000 23.940000 -1 0 0
909 182 3 0.000000 57.390000 24.290000 23.310000 -1 0 0
910 182 3 0.000000 58.110000 25.590000 23.010000 -1 0 0
911 183 4 0.000000 55.400000 23.620000 19.790000 -1 0 0
912 183 3 0.000000 53.410000 22.710000 19.420000 -1 0 0
913 183 3 0.000000 54.620000 23.610000 19.650000 -1 0 0
914 183 3 0.000000 56.030000 24.080000 19.950000 -1 0 0
915 183 3 0.000000 57.540000 24.070000 20.140000 -1 0 0
916 184 4 0.000000 51.380000 22.290000 18.400000 -1 0 0
917 184 3 0.000000 49.660000 23.130000 19.530000 -1 0 0
918 184 3 0.000000 50.960000 22.510000 19.030000 -1 0 0
919 184 3 0.000000 52.030000 21.930000 18.130000 -1 0 0
920 184 3 0.000000 52.880000 21.590000 16.920000 -1 0 0
921 185 4 0.000000 49.940000 19.730000 15.430000 -1 0 0
922 185 3 0.000000 48.910000 18.670000 17.100000 -1 0 0
923 185 3 0.000000 49.530000 19.190000 15.810000 -1 0 0
924 185 3 0.000000 50.230000 20.040000 14.770000 -1 0 0
925 185 3 0.000000 51.100000 21.030000 14.030000 -1 0 0
926 186 4 0.000000 48.820000 23.520000 13.950000 -1 0 0
927 186 3 0.000000 46.800000 22.760000 14.570000 -1 0 0
928 186 3 0.000000 48.100000 23.450000 14.210000 -1 0 0
929 186 3 0.000000 49.500000 23.850000 13.800000 -1 0 0
930 186 3 0.000000 50.890000 24.030000 13.220000 -1 0 0
931 187 4 0.000000 50.170000 25.940000 12.100000 -1 0 0
932 187 3 0.000000 48.680000 25.270000 13.640000 -1 0 0
933 187 3 0.000000 49.780000 25.520000 12.620000 -1 0 0
934 187 3 0.000000 50.700000 26.050000 11.550000 -1 0 0
935 187 3 0.000000 51.520000 26.920000 10.600000 -1 0 0
936 188 4 0.000000 50.150000 24.950000 7.470000 -1 0 0
937 188 3 0.000000 48.620000 23.330000 7.510000 -1 0 0
938 188 3 0.000000 49.510000 24.540000 7.270000 -1 0 0
939 188 3 0.000000 50.590000 25.600000 7.390000 -1 0 0
940 188 3 0.000000 51.880000 26.320000 7.720000 -1 0 0
941 189 4 0.000000 51.040000 21.340000 5.150000 -1 0 0
942 189 3 0.000000 48.980000 22.030000 5.430000 -1 0 0
943 189 3 0.000000 50.470000 21.780000 5.530000 -1 0 0
944 189 3 0.000000 51.830000 21.160000 5.220000 -1 0 0
945 189 3 0.000000 52.880000 20.400000 4.430000 -1 0 0
946 190 4 0.000000 51.680000 17.540000 5.550000 -1 0 0
947 190 3 0.000000 51.290000 17.480000 7.730000 -1 0 0
948 190 3 0.000000 51.660000 17.190000 6.280000 -1 0 0
949 190 3 0.000000 51.820000 17.390000 4.770000 -1 0 0
950 190 3 0.000000 51.940000 18.090000 3.430000 -1 0 0
951 191 4 0.000000 54.530000 15.250000 3.420000 -1 0 0
952 191 3 0.000000 53.390000 13.410000 3.860000 -1 0 0
953 191 3 0.000000 53.930000 14.720000 3.290000 -1 0 0
954 191 3 0.000000 54.800000 15.960000 3.170000 -1 0 0
955 191 3 0.000000 55.990000 16.890000 3.380000 -1 0 0
956 192 4 0.000000 57.000000 12.710000 1.130000 -1 0 0
957 192 3 0.000000 54.770000 12.880000 1.060000 -1 0 0
958 192 3 0.000000 56.270000 12.930000 1.310000 -1 0 0
959 192 3 0.000000 57.770000 12.680000 1.290000 -1 0 0
960 192 3 0.000000 59.190000 12.330000 0.870000 -1 0 0
961 193 4 0.000000 59.790000 13.180000 58.800000 -1 0 -1
962 193 3 0.000000 58.640000 12.610000 0.404500 -1 0 0
963 193 3 0.000000 59.620000 12.700000 59.430000 -1 0 -1
964 193 3 0.000000 0.064500 13.240000 58.160000 0 0 -1
965 193 3 0.000000 0.454500 14.160000 57.010000 0 0 -1
966 194 4 0.000000 59.720000 16.060000 56.620000 -1 0 -1
967 194 3 0.000000 58.900000 14.120000 57.400000 -1 0 -1
968 194 3 0.000000 59.250000 15.450000 56.760000 -1 0 -1
969 194 3 0.000000 59.870000 16.770000 56.310000 -1 0 -1
970 194 3 0.000000 0.684500 17.880000 55.990000 0 0 -1
971 195 4 0.000000 2.440000 17.780000 54.880000 0 0 -1
972 195 3 0.000000 0.310000 18.190000 55.320000 0 0 -1
973 195 3 0.000000 1.800000 18.250000 55.050000 0 0 -1
974 195 3 0.000000 3.210000 17.760000 54.760000 0 0 -1
975 195 3 0.000000 4.440000 16.930000 54.410000 0 0 -1
976 196 4 0.000000 4.190000 13.910000 54.360000 0 0 -1
977 196 3 0.000000 2.430000 15.020000 55.210000 0 0 -1
978 196 3 0.000000 3.520000 14.080000 54.710000 0 0 -1
979 196 3 0.000000 4.730000 13.380000 54.090000 0 0 -1
980 196 3 0.000000 6.070000 13.150000 53.430000 0 0 -1
981 197 4 0.000000 4.900000 10.480000 53.990000 0 0 -1
982 197 3 0.000000 3.710000 8.700000 54.570000 0 0 -1
983 197 3 0.000000 4.760000 9.690000 54.080000 0 0 -1
984 197 3 0.000000 5.410000 11.030000 53.760000 0 0 -1
985 197 3 0.000000 5.710000 12.510000 53.540000 0 0 -1
986 198 4 0.000000 5.690000 10.620000 49.380000 0 0 -1
987 198 3 0.000000 5.250000 8.560000 50.130000 0 0 -1
988 198 3 0.000000 5.370000 10.030000 49.770000 0 0 -1
989 198 3 0.000000 5.720000 11.400000 49.200000 0 0 -1
990 198 3 0.000000 6.410000 12.500000 48.410000 0 0 -1
991 199 4 0.000000 3.680000 8.890000 46.100000 0 0 -1
992 199 3 0.000000 1.720000 8.960000 47.200000 0 0 -1
993 199 3 0.000000 2.990000 9.140000 46.380000 0 0 -1
994 199 3 0.000000 4.330000 8.930000 45.700000 0 0 -1
995 199 3 0.000000 5.670000 8.520000 45.110000 0 0 -1
996 200 1 0.000000 59.810000 6.810000 46.910000 -1 0 -1
997 200 3 0.000000 57.940000 7.210000 48.190000 -1 0 -1
998 200 3 0.000000 59.230000 6.820000 47.480000 -1 0 -1
999 200 3 0.000000 0.264500 6.610000 46.590000 0 0 -1
1000 200 2 0.000000 1.324500 6.620000 45.500000 0 0 -1
1001 201 1 0.000000 43.890000 6.470000 44.580000 0 0 0
1002 201 2 0.000000 41.990000 5.790000 45.600000 0 0 0
1003 201 3 0.000000 43.280000 6.250000 44.910000 0 0 0
1004 201 3 0.000000 44.570000 6.710000 44.220000 0 0 0
1005 201 3 0.000000 45.840000 7.170000 43.520000 0 0 0
1006 202 4 0.000000 43.160000 9.420000 41.700000 0 0 0
1007 202 3 0.000000 41.330000 8.640000 42.840000 0 0 0
1008 202 3 0.000000 42.570000 9.140000 42.100000 0 0 0
1009 202 3 0.000000 43.780000 9.670000 41.330000 0 0 0
1010 202 3 0.000000 44.960000 10.230000 40.540000 0 0 0
1011 203 4 0.000000 39.130000 11.280000 40.740000 0 0 0
1012 203 3 0.000000 37.430000 10.300000 41.920000 0 0 0
1013 203 3 0.000000 38.560000 10.940000 41.120000 0 0 0
1014 203 3 0.000000 39.690000 11.610000 40.330000 0 0 0
1015 203 3 0.000000 40.840000 12.280000 39.580000 0 0 0
1016 204 4 0.000000 36.700000 14.740000 39.550000 0 0 0
1017 204 3 0.000000 34.760000 13.930000 40.430000 0 0 0
1018 204 3 0.000000 36.010000 14.520000 39.800000 0 0 0
1019 204 3 0.000000 37.330000 15.060000 39.240000 0 0 0
1020 204 3 0.000000 38.710000 15.460000 38.740000 0 0 0
1021 205 4 0.000000 33.650000 17.300000 40.320000 0 0 0
1022 205 3 0.000000 31.520000 17.210000 41.140000 0 0 0
1023 205 3 0.000000 32.960000 17.340000 40.650000 0 0 0
1024 205 3 0.000000 34.380000 17.350000 40.090000 0 0 0
1025 205 3 0.000000 35.740000 17.310000 39.400000 0 0 0
1026 206 4 0.000000 33.700000 21.670000 41.580000 0 0 0
1027 206 3 0.000000 32.180000 21.320000 43.220000 0 0 0
1028 206 3 0.000000 33.310000 21.410000 42.200000 0 0 0
1029 206 3 0.000000 34.260000 21.690000 41.040000 0 0 0
1030 206 3 0.000000 35.040000 22.240000 39.870000 0 0 0
1031 207 4 0.000000 32.770000 24.640000 44.360000 0 0 0
1032 207 3 0.000000 31.890000 22.870000 45.430000 0 0 0
1033 207 3 0.000000 32.450000 23.960000 44.520000 0 0 0
1034 207 3 0.000000 33.020000 25.220000 43.890000 0 0 0
1035 207 3 0.000000 33.730000 26.520000 43.590000 0 0 0
1036 208 4 0.000000 35.360000 27.040000 46.700000 0 0 0
1037 208 3 0.000000 33.370000 26.130000 46.330000 0 0 0
1038 208 3 0.000000 34.580000 27.030000 46.560000 0 0 0
1039 208 3 0.000000 35.990000 27.500000 46.860000 0 0 0
1040 208 3 0.000000 37.500000 27.490000 47.050000 0 0 0
1041 209 4 0.000000 37.560000 29.640000 47.910000 0 0 0
1042 209 3 0.000000 35.840000 30.480000 49.040000 0 0 0
1043 209 3 0.000000 37.140000 29.860000 48.540000 0 0 0
1044 209 3 0.000000 38.210000 29.280000 47.640000 0 0 0
1045 209 3 0.000000 39.060000 28.940000 46.430000 0 0 0
1046 210 4 0.000000 40.290000 31.770000 46.760000 0 0 0
1047 210 3 0.000000 39.260000 30.710000 48.430000 0 0 0
1048 210 3 0.000000 39.880000 31.230000 47.150000 0 0 0
1049 210 3 0.000000 40.580000 32.080000 46.110000 0 0 0
1050 210 3 0.000000 41.450000 33.070000 45.370000 0 0 0
1051 211 4 0.000000 43.870000 32.650000 45.280000 0 0 0
1052 211 3 0.000000 41.850000 31.890000 45.900000 0 0 0
1053 211 3 0.000000 43.150000 32.580000 45.540000 0 0 0
1054 211 3 0.000000 44.550000 32.980000 45.130000 0 0 0
1055 211 3 0.000000 45.940000 33.160000 44.550000 0 0 0
1056 212 4 0.000000 45.570000 30.890000 47.500000 0 0 0
1057 212 3 0.000000 44.080000 30.220000 49.040000 0 0 0
1058 212 3 0.000000 45.180000 30.470000 48.020000 0 0 0
1059 212 3 0.000000 46.100000 31.000000 46.940000 0 0 0
1060 212 3 0.000000 46.920000 31.870000 46.010000 0 0 0
1061 213 4 0.000000 47.440000 27.070000 47.320000 0 0 0
1062 213 3 0.000000 45.910000 25.450000 47.360000 0 0 0
1063 213 3 0.000000 46.800000 26.660000 47.120000 0 0 0
1064 213 3 0.000000 47.880000 27.720000 47.240000 0 0 0
1065 213 3 0.000000 49.170000 28.440000 47.570000 0 0 0
1066 214 4 0.000000 48.150000 23.640000 45.100000 0 0 0
1067 214 3 0.000000 46.090000 24.330000 45.380000 0 0 0
1068 214 3 0.000000 47.580000 24.080000 45.480000 0 0 0
1069 214 3 0.000000 48.940000 23.460000 45.170000 0 0 0
1070 214 3 0.000000 49.990000 22.700000 44.380000 0 0 0
1071 215 4 0.000000 48.650000 19.440000 46.830000 0 0 0
1072 215 3 0.000000 48.260000 19.380000 49.010000 0 0 0
1073 215 3 0.000000 48.630000 19.090000 47.560000 0 0 0
1074 215 3 0.000000 48.790000 19.290000 46.050000 0 0 0
1075 215 3 0.000000 48.910000 19.990000 44.710000 0 0 0
1076 216 4 0.000000 51.760000 21.330000 48.450000 0 0 0
1077 216 3 0.000000 50.620000 19.490000 48.880000 0 0 0
1078 216 3 0.000000 51.160000 20.800000 48.320000 0 0 0
1079 216 3 0.000000 52.030000 22.040000 48.190000 0 0 0
1080 216 3 0.000000 53.220000 22.970000 48.400000 0 0 0
1081 217 4 0.000000 53.770000 24.710000 50.910000 0 0 0
1082 217 3 0.000000 51.540000 24.880000 50.840000 0 0 0
1083 217 3 0.000000 53.040000 24.940000 51.090000 0 0 0
1084 217 3 0.000000 54.540000 24.680000 51.070000 0 0 0
1085 217 3 0.000000 55.960000 24.330000 50.650000 0 0 0
1086 218 4 0.000000 53.150000 26.710000 54.090000 0 0 0
1087 218 3 0.000000 52.000000 26.140000 55.880000 0 0 0
1088 218 3 0.000000 52.980000 26.230000 54.720000 0 0 0
1089 218 3 0.000000 53.610000 26.770000 53.450000 0 0 0
1090 218 3 0.000000 54.010000 27.690000 52.300000 0 0 0
1091 219 4 0.000000 52.660000 23.040000 55.380000 0 0 0
1092 219 3 0.000000 51.840000 21.100000 56.170000 0 0 0
1093 219 3 0.000000 52.190000 22.430000 55.530000 0 0 0
1094 219 3 0.000000 52.810000 23.750000 55.080000 0 0 0
1095 219 3 0.000000 53.810000 24.860000 54.760000 0 0 0
1096 220 4 0.000000 51.860000 23.960000 58.900000 0 0 0
1097 220 3 0.000000 49.730000 24.370000 59.330000 0 0 0
1098 220 3 0.000000 51.220000 24.420000 59.060000 0 0 0
1099 220 3 0.000000 52.630000 23.940000 58.770000 0 0 0
1100 220 3 0.000000 53.860000 23.110000 58.420000 0 0 0
1101 221 4 0.000000 50.460000 26.960000 0.540000 0 0 1
1102 221 3 0.000000 48.700000 28.070000 1.400000 0 0 1
1103 221 3 0.000000 49.790000 27.130000 0.880000 0 0 1
1104 221 3 0.000000 51.000000 26.430000 0.280000 0 0 1
1105 221 3 0.000000 52.340000 26.200000 59.785500 0 0 0
1106 222 4 0.000000 46.290000 27.340000 0.390000 0 0 1
1107 222 3 0.000000 45.100000 25.560000 0.970000 0 0 1
1108 222 3 0.000000 46.150000 26.550000 0.480000 0 0 1
1109 222 3 0.000000 46.800000 27.880000 0.160000 0 0 1
1110 222 3 0.000000 47.100000 29.370000 60.125500 0 0 0
1111 223 4 0.000000 43.980000 30.510000 58.560000 0 0 0
1112 223 3 0.000000 43.540000 28.450000 59.310000 0 0 0
1113 223 3 0.000000 43.660000 29.920000 58.950000 0 0 0
1114 223 3 0.000000 44.010000 31.290000 58.380000 0 0 0
1115 223 3 0.000000 44.700000 32.390000 57.590000 0 0 0
1116 224 4 0.000000 40.990000 32.610000 0.540000 0 0 1
1117 224 3 0.000000 39.030000 32.680000 1.640000 0 0 1
1118 224 3 0.000000 40.300000 32.860000 0.820000 0 0 1
1119 224 3 0.000000 41.640000 32.650000 0.140000 0 0 1
1120 224 3 0.000000 42.980000 32.240000 59.735500 0 0 0
1121 225 1 0.000000 41.350000 35.800000 59.570000 0 0 0
1122 225 3 0.000000 39.480000 36.200000 0.664500 0 0 1
1123 225 3 0.000000 40.770000 35.810000 60.140000 0 0 0
1124 225 3 0.000000 41.990000 35.600000 59.250000 0 0 0
1125 225 2 0.000000 43.050000 35.610000 58.160000 0 0 0
1126 226 1 0.000000 39.560000 27.250000 52.100000 0 0 0
1127 226 2 0.000000 37.660000 26.570000 53.120000 0 0 0
1128 226 3 0.000000 38.950000 27.030000 52.430000 0 0 0
1129 226 3 0.000000 40.240000 27.490000 51.740000 0 0 0
1130 226 3 0.000000 41.510000 27.950000 51.040000 0 0 0
1131 227 4 0.000000 41.350000 24.380000 53.770000 0 0 0
1132 227 3 0.000000 39.520000 23.600000 54.910000 0 0 0
1133 227 3 0.000000 40.760000 24.100000 54.170000 0 0 0
1134 227 3 0.000000 41.970000 24.630000 53.400000 0 0 0
1135 227 3 0.000000 43.150000 25.190000 52.610000 0 0 0
1136 228 4 0.000000 40.970000 21.580000 57.510000 0 0 0
1137 228 3 0.000000 39.270000 20.600000 58.690000 0 0 0
1138 228 3 0.000000 40.400000 21.240000 57.890000 0 0 0
1139 228 3 0.000000 41.530000 21.910000 57.100000 0 0 0
1140 228 3 0.000000 42.680000 22.580000 56.350000 0 0 0
1141 229 4 0.000000 40.710000 25.600000 0.120000 0 0 1
1142 229 3 0.000000 38.770000 24.780000 1.000000 0 0 1
1143 229 3 0.000000 40.020000 25.380000 0.370000 0 0 1
1144 229 3 0.000000 41.340000 25.910000 59.995500 0 0 0
1145 229 3 0.000000 42.720000 26.310000 59.495500 0 0 0
1146 230 4 0.000000 38.530000 29.020000 58.580000 0 0 0
1147 230 3 0.000000 36.400000 28.930000 59.400000 0 0 0
1148 230 3 0.000000 37.840000 29.060000 58.910000 0 0 0
1149 230 3 0.000000 39.260000 29.070000 58.350000 0 0 0
1150 230 3 0.000000 40.620000 29.030000 57.660000 0 0 0
1151 231 4 0.000000 36.980000 32.790000 56.660000 0 0 0
1152 231 3 0.000000 35.460000 32.440000 58.300000 0 0 0
1153 231 3 0.000000 36.590000 32.530000 57.280000 0 0 0
1154 231 3 0.000000 37.540000 32.810000 56.130000 0 0 0
1155 231 3 0.000000 38.320000 33.370000 54.950000 0 0 0
1156 232 4 0.000000 34.910000 36.290000 54.760000 0 0 0
1157 232 3 0.000000 34.030000 34.520000 55.830000 0 0 0
1158 232 3 0.000000 34.580000 35.610000 54.920000 0 0 0
1159 232 3 0.000000 35.160000 36.870000 54.290000 0 0 0
1160 232 3 0.000000 35.880000 38.170000 53.990000 0 0 0
1161 233 4 0.000000 32.240000 37.210000 52.020000 0 0 0
1162 233 3 0.000000 30.250000 36.300000 51.650000 0 0 0
1163 233 3 0.000000 31.460000 37.200000 51.880000 0 0 0
1164 233 3 0.000000 32.870000 37.670000 52.180000 0 0 0
1165 233 3 0.000000 34.380000 37.660000 52.370000 0 0 0
1166 234 4 0.000000 32.260000 40.530000 49.820000 0 0 0
1167 234 3 0.000000 30.540000 41.370000 50.950000 0 0 0
1168 234 3 0.000000 31.840000 40.750000 50.450000 0 0 0
1169 234 3 0.000000 32.910000 40.170000 49.550000 0 0 0
1170 234 3 0.000000 33.760000 39.830000 48.340000 0 0 0
1171 235 4 0.000000 31.230000 42.110000 52.780000 0 0 0
1172 235 3 0.000000 30.200000 41.050000 54.440000 0 0 0
1173 235 3 0.000000 30.820000 41.570000 53.160000 0 0 0
1174 235 3 0.000000 31.520000 42.420000 52.120000 0 0 0
1175 235 3 0.000000 32.390000 43.410000 51.380000 0 0 0
1176 236 4 0.000000 32.300000 40.640000 56.830000 0 0 0
1177 236 3 0.000000 30.280000 39.880000 57.450000 0 0 0
1178 236 3 0.000000 31.580000 40.570000 57.090000 0 0 0
1179 236 3 0.000000 32.980000 40.970000 56.680000 0 0 0
1180 236 3 0.000000 34.370000 41.150000 56.100000 0 0 0
1181 237 4 0.000000 31.300000 37.630000 59.170000 0 0 0
1182 237 3 0.000000 29.810000 36.960000 0.524500 0 0 1
1183 237 3 0.000000 30.910000 37.210000 59.690000 0 0 0
1184 237 3 0.000000 31.830000 37.740000 58.610000 0 0 0
1185 237 3 0.000000 32.650000 38.610000 57.680000 0 0 0
1186 238 4 0.000000 30.210000 34.740000 55.890000 0 0 0
1187 238 3 0.000000 28.680000 33.120000 55.930000 0 0 0
1188 238 3 0.000000 29.570000 34.330000 55.690000 0 0 0
1189 238 3 0.000000 30.650000 35.390000 55.810000 0 0 0
1190 238 3 0.000000 31.940000 36.110000 56.140000 0 0 0
1191 239 4 0.000000 32.730000 32.590000 54.690000 0 0 0
1192 239 3 0.000000 30.670000 33.280000 54.970000 0 0 0
1193 239 3 0.000000 32.160000 33.030000 55.070000 0 0 0
1194 239 3 0.000000 33.520000 32.410000 54.760000 0 0 0
1195 239 3 0.000000 34.570000 31.650000 53.970000 0 0 0
1196 240 4 0.000000 34.350000 29.160000 54.890000 0 0 0
1197 240 3 0.000000 33.960000 29.100000 57.070000 0 0 0
1198 240 3 0.000000 34.330000 28.810000 55.620000 0 0 0
1199 240 3 0.000000 34.490000 29.010000 54.110000 0 0 0
1200 240 3 0.000000 34.610000 29.710000 52.770000 0 0 0
1201 241 4 0.000000 35.570000 25.430000 54.610000 0 0 0
1202 241 3 0.000000 34.430000 23.590000 55.050000 0 0 0
1203 241 3 0.000000 34.970000 24.900000 54.480000 0 0 0
1204 241 3 0.000000 35.840000 26.140000 54.360000 0 0 0
1205 241 3 0.000000 37.030000 27.070000 54.570000 0 0 0
1206 242 4 0.000000 34.760000 23.430000 51.680000 0 0 0
1207 242 3 0.000000 32.530000 23.600000 51.610000 0 0 0
1208 242 3 0.000000 34.030000 23.650000 51.860000 0 0 0
1209 242 3 0.000000 35.530000 23.400000 51.840000 0 0 0
1210 242 3 0.000000 36.950000 23.050000 51.420000 0 0 0
1211 243 4 0.000000 31.750000 25.760000 49.900000 0 0 0
1212 243 3 0.000000 30.600000 25.190000 51.690000 0 0 0
1213 243 3 0.000000 31.570000 25.280000 50.530000 0 0 0
1214 243 3 0.000000 32.210000 25.820000 49.260000 0 0 0
1215 243 3 0.000000 32.600000 26.740000 48.110000 0 0 0
1216 244 4 0.000000 31.700000 29.550000 49.070000 0 0 0
1217 244 3 0.000000 30.880000 27.610000 49.860000 0 0 0
1218 244 3 0.000000 31.230000 28.940000 49.210000 0 0 0
1219 244 3 0.000000 31.850000 30.260000 48.770000 0 0 0
1220 244 3 0.000000 32.850000 31.370000 48.450000 0 0 0
1221 245 4 0.000000 32.320000 32.970000 49.120000 0 0 0
1222 245 3 0.000000 30.190000 33.380000 49.550000 0 0 0
1223 245 3 0.000000 31.680000 33.440000 49.280000 0 0 0
1224 245 3 0.000000 33.090000 32.960000 48.990000 0 0 0
1225 245 3 0.000000 34.320000 32.120000 48.640000 0 0 0
1226 246 4 0.000000 32.700000 35.990000 46.300000 0 0 0
1227 246 3 0.000000 30.940000 37.100000 47.150000 0 0 0
1228 246 3 0.000000 32.030000 36.160000 46.650000 0 0 0
1229 246 3 0.000000 33.240000 35.460000 46.030000 0 0 0
1230 246 3 0.000000 34.580000 35.230000 45.370000 0 0 0
1231 247 4 0.000000 33.120000 36.950000 41.660000 0 0 0
1232 247 3 0.000000 31.930000 35.170000 42.240000 0 0 0
1233 247 3 0.000000 32.980000 36.150000 41.750000 0 0 0
1234 247 3 0.000000 33.630000 37.490000 41.430000 0 0 0
1235 247 3 0.000000 33.930000 38.970000 41.210000 0 0 0
1236 248 4 0.000000 31.580000 39.130000 38.530000 0 0 0
1237 248 3 0.000000 31.140000 37.070000 39.280000 0 0 0
1238 248 3 0.000000 31.260000 38.540000 38.920000 0 0 0
1239 248 3 0.000000 31.610000 39.910000 38.350000 0 0 0
1240 248 3 0.000000 32.300000 41.010000 37.560000 0 0 0
1241 249 4 0.000000 32.390000 39.450000 34.430000 0 0 0
1242 249 3 0.000000 30.430000 39.520000 35.530000 0 0 0
1243 249 3 0.000000 31.700000 39.700000 34.710000 0 0 0
1244 249 3 0.000000 33.040000 39.490000 34.030000 0 0 0
1245 249 3 0.000000 34.380000 39.080000 33.440000 0 0 0
1246 250 1 0.000000 33.890000 41.340000 31.140000 0 0 0
1247 250 3 0.000000 32.020000 41.740000 32.420000 0 0 0
1248 250 3 0.000000 33.310000 41.350000 31.710000 0 0 0
1249 250 3 0.000000 34.530000 41.140000 30.820000 0 0 0
1250 250 2 0.000000 35.590000 41.150000 29.730000 0 0 0

Bonds

1 1 2 3
2 1 3 4
3 1 4 5
4 1 7 8
5 1 8 9
6 1 9 10
7 1 12 13
8 1 13 14
9 1 14 15
10 1 17 18
11 1 18 19
12 1 19 20
13 1 22 23
14 1 23 24
15 1 24 25
16 1 27 28
17 1 28 29
18 1 29 30
19 1 32 33
20 1 33 34
21 1 34 35
22 1 37 38
23 1 38 39
24 1 39 40
25 1 42 43
26 1 43 44
27 1 44 45
28 1 47 48
29 1 48 49
30 1 49 50
31 1 52 53
32 1 53 54
33 1 54 55
34 1 57 58
35 1 58 59
36 1 59 60
37 1 62 63
38 1 63 64
39 1 64 65
40 1 67 68
41 1 68 69
42 1 69 70
43 1 72 73
44 1 73 74
45 1 74 75
46 1 77 78
47 1 78 79
48 1 79 80
49 1 82 83
50 1 83 84
51 1 84 85
52 1 87 88
53 1 88 89
54 1 89 90
55 1 92 93
56 1 93 94
57 1 94 95
58 1 97 98
59 1 98 99
60 1 99 100
61 1 102 103
62 1 103 104
63 1 104 105
64 1 107 108
65 1 108 109
66 1 109 110
67 1 112 113
68 1 113 114
69 1 114 115
70 1 117 118
71 1 118 119
72 1 119 120
73 1 122 123
74 1 123 124
75 1 124 125
76 1 127 128
77 1 128 129
78 1 129 130
79 1 132 133
80 1 133 134
81 1 134 135
82 1 137 138
83 1 138 139
84 1 139 140
85 1 142 143
86 1 143 144
87 1 144 145
88 1 147 148
89 1 148 149
90 1 149 150
91 1 152 153
92 1 153 154
93 1 154 155
94 1 157 158
95 1 158 159
96 1 159 160
97 1 162 163
98 1 163 164
99 1 164 165
100 1 167 168
101 1 168 169
102 1 169 170
103 1 172 173
104 1 173 174
105 1 174 175
106 1 177 178
107 1 178 179
108 1 179 180
109 1 182 183
110 1 183 184
111 1 184 185
112 1 187 188
113 1 188 189
114 1 189 190
115 1 192 193
116 1 193 194
117 1 194 195
118 1 197 198
119 1 198 199
120 1 199 200
121 1 202 203
122 1 203 204
123 1 204 205
124 1 207 208
125 1 208 209
126 1 209 210
127 1 212 213
128 1 213 214
129 1 214 215
130 1 217 218
131 1 218 219
132 1 219 220
133 1 222 223
134 1 223 224
135 1 224 225
136 1 227 228
137 1 228 229
138 1 229 230
139 1 232 233
140 1 233 234
141 1 234 235
142 1 237 238
143 1 238 239
144 1 239 240
145 1 242 243
146 1 243 244
147 1 244 245
148 1 247 248
149 1 248 249
150 1 249 250
151 1 252 253
152 1 253 254
153 1 254 255
154 1 257 258
155 1 258 259
156 1 259 260
157 1 262 263
158 1 263 264
159 1 264 265
160 1 267 268
161 1 268 269
162 1 269 270
163 1 272 273
164 1 273 274
165 1 274 275
166 1 277 278
167 1 278 279
168 1 279 280
169 1 282 283
170 1 283 284
171 1 284 285
172 1 287 288
173 1 288 289
174 1 289 290
175 1 292 293
176 1 293 294
177 1 294 295
178 1 297 298
179 1 298 299
180 1 299 300
181 1 302 303
182 1 303 304
183 1 304 305
184 1 307 308
185 1 308 309
186 1 309 310
187 1 312 313
188 1 313 314
189 1 314 315
190 1 317 318
191 1 318 319
192 1 319 320
193 1 322 323
194 1 323 324
195 1 324 325
196 1 327 328
197 1 328 329
198 1 329 330
199 1 332 333
200 1 333 334
201 1 334 335
202 1 337 338
203 1 338 339
204 1 339 340
205 1 342 343
206 1 343 344
207 1 344 345
208 1 347 348
209 1 348 349
210 1 349 350
211 1 352 353
212 1 353 354
213 1 354 355
214 1 357 358
215 1 358 359
216 1 359 360
217 1 362 363
218 1 363 364
219 1 364 365
220 1 367 368
221 1 368 369
222 1 369 370
223 1 372 373
224 1 373 374
225 1 374 375
226 1 377 378
227 1 378 379
228 1 379 380
229 1 382 383
230 1 383 384
231 1 384 385
232 1 387 388
233 1 388 389
234 1 389 390
235 1 392 393
236 1 393 394
237 1 394 395
238 1 397 398
239 1 398 399
240 1 399 400
241 1 402 403
242 1 403 404
243 1 404 405
244 1 407 408
245 1 408 409
246 1 409 410
247 1 412 413
248 1 413 414
249 1 414 415
250 1 417 418
251 1 418 419
252 1 419 420
253 1 422 423
254 1 423 424
255 1 424 425
256 1 427 428
257 1 428 429
258 1 429 430
259 1 432 433
260 1 433 434
261 1 434 435
262 1 437 438
263 1 438 439
264 1 439 440
265 1 442 443
266 1 443 444
267 1 444 445
268 1 447 448
269 1 448 449
270 1 449 450
271 1 452 453
272 1 453 454
273 1 454 455
274 1 457 458
275 1 458 459
276 1 459 460
277 1 462 463
278 1 463 464
279 1 464 465
280 1 467 468
281 1 468 469
282 1 469 470
283 1 472 473
284 1 473 474
285 1 474 475
286 1 477 478
287 1 478 479
288 1 479 480
289 1 482 483
290 1 483 484
291 1 484 485
292 1 487 488
293 1 488 489
294 1 489 490
295 1 492 493
296 1 493 494
297 1 494 495
298 1 497 498
299 1 498 499
300 1 499 500
301 1 502 503
302 1 503 504
303 1 504 505
304 1 507 508
305 1 508 509
306 1 509 510
307 1 512 513
308 1 513 514
309 1 514 515
310 1 517 518
311 1 518 519
312 1 519 520
313 1 522 523
314 1 523 524
315 1 524 525
316 1 527 528
317 1 528 529
318 1 529 530
319 1 532 533
320 1 533 534
321 1 534 535
322 1 537 538
323 1 538 539
324 1 539 540
325 1 542 543
326 1 543 544
327 1 544 545
328 1 547 548
329 1 548 549
330 1 549 550
331 1 552 553
332 1 553 554
333 1 554 555
334 1 557 558
335 1 558 559
336 1 559 560
337 1 562 563
338 1 563 564
339 1 564 565
340 1 567 568
341 1 568 569
342 1 569 570
343 1 572 573
344 1 573 574
345 1 574 575
346 1 577 578
347 1 578 579
348 1 579 580
349 1 582 583
350 1 583 584
351 1 584 585
352 1 587 588
353 1 588 589
354 1 589 590
355 1 592 593
356 1 593 594
357 1 594 595
358 1 597 598
359 1 598 599
360 1 599 600
361 1 602 603
362 1 603 604
363 1 604 605
364 1 607 608
365 1 608 609
366 1 609 610
367 1 612 613
368 1 613 614
369 1 614 615
370 1 617 618
371 1 618 619
372 1 619 620
373 1 622 623
374 1 623 624
375 1 624 625
376 1 627 628
377 1 628 629
378 1 629 630
379 1 632 633
380 1 633 634
381 1 634 635
382 1 637 638
383 1 638 639
384 1 639 640
385 1 642 643
386 1 643 644
387 1 644 645
388 1 647 648
389 1 648 649
390 1 649 650
391 1 652 653
392 1 653 654
393 1 654 655
394 1 657 658
395 1 658 659
396 1 659 660
397 1 662 663
398 1 663 664
399 1 664 665
400 1 667 668
401 1 668 669
402 1 669 670
403 1 672 673
404 1 673 674
405 1 674 675
406 1 677 678
407 1 678 679
408 1 679 680
409 1 682 683
410 1 683 684
411 1 684 685
412 1 687 688
413 1 688 689
414 1 689 690
415 1 692 693
416 1 693 694
417 1 694 695
418 1 697 698
419 1 698 699
420 1 699 700
421 1 702 703
422 1 703 704
423 1 704 705
424 1 707 708
425 1 708 709
426 1 709 710
427 1 712 713
428 1 713 714
429 1 714 715
430 1 717 718
431 1 718 719
432 1 719 720
433 1 722 723
434 1 723 724
435 1 724 725
436 1 727 728
437 1 728 729
438 1 729 730
439 1 732 733
440 1 733 734
441 1 734 735
442 1 737 738
443 1 738 739
444 1 739 740
445 1 742 743
446 1 743 744
447 1 744 745
448 1 747 748
449 1 748 749
450 1 749 750
451 1 752 753
452 1 753 754
453 1 754 755
454 1 757 758
455 1 758 759
456 1 759 760
457 1 762 763
458 1 763 764
459 1 764 765
460 1 767 768
461 1 768 769
462 1 769 770
463 1 772 773
464 1 773 774
465 1 774 775
466 1 777 778
467 1 778 779
468 1 779 780
469 1 782 783
470 1 783 784
471 1 784 785
472 1 787 788
473 1 788 789
474 1 789 790
475 1 792 793
476 1 793 794
477 1 794 795
478 1 797 798
479 1 798 799
480 1 799 800
481 1 802 803
482 1 803 804
483 1 804 805
484 1 807 808
485 1 808 809
486 1 809 810
487 1 812 813
488 1 813 814
489 1 814 815
490 1 817 818
491 1 818 819
492 1 819 820
493 1 822 823
494 1 823 824
495 1 824 825
496 1 827 828
497 1 828 829
498 1 829 830
499 1 832 833
500 1 833 834
501 1 834 835
502 1 837 838
503 1 838 839
504 1 839 840
505 1 842 843
506 1 843 844
507 1 844 845
508 1 847 848
509 1 848 849
510 1 849 850
511 1 852 853
512 1 853 854
513 1 854 855
514 1 857 858
515 1 858 859
516 1 859 860
517 1 862 863
518 1 863 864
519 1 864 865
520 1 867 868
521 1 868 869
522 1 869 870
523 1 872 873
524 1 873 874
525 1 874 875
526 1 877 878
527 1 878 879
528 1 879 880
529 1 882 883
530 1 883 884
531 1 884 885
532 1 887 888
533 1 888 889
534 1 889 890
535 1 892 893
536 1 893 894
537 1 894 895
538 1 897 898
539 1 898 899
540 1 899 900
541 1 902 903
542 1 903 904
543 1 904 905
544 1 907 908
545 1 908 909
546 1 909 910
547 1 912 913
548 1 913 914
549 1 914 915
550 1 917 918
551 1 918 919
552 1 919 920
553 1 922 923
554 1 923 924
555 1 924 925
556 1 927 928
557 1 928 929
558 1 929 930
559 1 932 933
560 1 933 934
561 1 934 935
562 1 937 938
563 1 938 939
564 1 939 940
565 1 942 943
566 1 943 944
567 1 944 945
568 1 947 948
569 1 948 949
570 1 949 950
571 1 952 953
572 1 953 954
573 1 954 955
574 1 957 958
575 1 958 959
576 1 959 960
577 1 962 963
578 1 963 964
579 1 964 965
580 1 967 968
581 1 968 969
582 1 969 970
583 1 972 973
584 1 973 974
585 1 974 975
586 1 977 978
587 1 978 979
588 1 979 980
589 1 982 983
590 1 983 984
591 1 984 985
592 1 987 988
593 1 988 989
594 1 989 990
595 1 992 993
596 1 993 994
597 1 994 995
598 1 997 998
599 1 998 999
600 1 999 1000
601 1 1002 1003
602 1 1003 1004
603 1 1004 1005
604 1 1007 1008
605 1 1008 1009
606 1 1009 1010
607 1 1012 1013
608 1 1013 1014
609 1 1014 1015
610 1 1017 1018
611 1 1018 1019
612 1 1019 1020
613 1 1022 1023
614 1 1023 1024
615 1 1024 1025
616 1 1027 1028
617 1 1028 1029
618 1 1029 1030
619 1 1032 1033
620 1 1033 1034
621 1 1034 1035
622 1 1037 1038
623 1 1038 1039
624 1 1039 1040
625 1 1042 1043
626 1 1043 1044
627 1 1044 1045
628 1 1047 1048
629 1 1048 1049
630 1 1049 1050
631 1 1052 1053
632 1 1053 1054
633 1 1054 1055
634 1 1057 1058
635 1 1058 1059
636 1 1059 1060
637 1 1062 1063
638 1 1063 1064
639 1 1064 1065
640 1 1067 1068
641 1 1068 1069
642 1 1069 1070
643 1 1072 1073
644 1 1073 1074
645 1 1074 1075
646 1 1077 1078
647 1 1078 1079
648 1 1079 1080
649 1 1082 1083
650 1 1083 1084
651 1 1084 1085
652 1 1087 1088
653 1 1088 1089
654 1 1089 1090
655 1 1092 1093
656 1 1093 1094
657 1 1094 1095
658 1 1097 1098
659 1 1098 1099
660 1 1099 1100
661 1 1102 1103
662 1 1103 1104
663 1 1104 1105
664 1 1107 1108
665 1 1108 1109
666 1 1109 1110
667 1 1112 1113
668 1 1113 1114
669 1 1114 1115
670 1 1117 1118
671 1 1118 1119
672 1 1119 1120
673 1 1122 1123
674 1 1123 1124
675 1 1124 1125
676 1 1127 1128
677 1 1128 1129
678 1 1129 1130
679 1 1132 1133
680 1 1133 1134
681 1 1134 1135
682 1 1137 1138
683 1 1138 1139
684 1 1139 1140
685 1 1142 1143
686 1 1143 1144
687 1 1144 1145
688 1 1147 1148
689 1 1148 1149
690 1 1149 1150
691 1 1152 1153
692 1 1153 1154
693 1 1154 1155
694 1 1157 1158
695 1 1158 1159
696 1 1159 1160
697 1 1162 1163
698 1 1163 1164
699 1 1164 1165
700 1 1167 1168
701 1 1168 1169
702 1 1169 1170
703 1 1172 1173
704 1 1173 1174
705 1 1174 1175
706 1 1177 1178
707 1 1178 1179
708 1 1179 1180
709 1 1182 1183
710 1 1183 1184
711 1 1184 1185
712 1 1187 1188
713 1 1188 1189
714 1 1189 1190
715 1 1192 1193
716 1 1193 1194
717 1 1194 1195
718 1 1197 1198
719 1 1198 1199
720 1 1199 1200
721 1 1202 1203
722 1 1203 1204
723 1 1204 1205
724 1 1207 1208
725 1 1208 1209
726 1 1209 1210
727 1 1212 1213
728 1 1213 1214
729 1 1214 1215
730 1 1217 1218
731 1 1218 1219
732 1 1219 1220
733 1 1222 1223
734 1 1223 1224
735 1 1224 1225
736 1 1227 1228
737 1 1228 1229
738 1 1229 1230
739 1 1232 1233
740 1 1233 1234
741 1 1234 1235
742 1 1237 1238
743 1 1238 1239
744 1 1239 1240
745 1 1242 1243
746 1 1243 1244
747 1 1244 1245
748 1 1247 1248
749 1 1248 1249
750 1 1249 1250
751 2 1 6
752 1 5 7
753 2 6 11
754 1 10 12
755 2 11 16
756 1 15 17
757 2 16 21
758 1 20 22
759 2 21 26
760 1 25 27
761 2 26 31
762 1 30 32
763 2 31 36
764 1 35 37
765 2 36 41
766 1 40 42
767 2 41 46
768 1 45 47
769 2 46 51
770 1 50 52
771 2 51 56
772 1 55 57
773 2 56 61
774 1 60 62
775 2 61 66
776 1 65 67
777 2 66 71
778 1 70 72
779 2 71 76
780 1 75 77
781 2 76 81
782 1 80 82
783 2 81 86
784 1 85 87
785 2 86 91
786 1 90 92
787 2 91 96
788 1 95 97
789 2 96 101
790 1 100 102
791 2 101 106
792 1 105 107
793 2 106 111
794 1 110 112
795 2 111 116
796 1 115 117
797 2 116 121
798 1 120 122
799 2 126 131
800 1 130 132
801 2 131 136
802 1 135 137
803 2 136 141
804 1 140 142
805 2 141 146
806 1 145 147
807 2 146 151
808 1 150 152
809 2 151 156
810 1 155 157
811 2 156 161
812 1 160 162
813 2 161 166
814 1 165 167
815 2 166 171
816 1 170 172
817 2 171 176
818 1 175 177
819 2 176 181
820 1 180 182
821 2 181 186
822 1 185 187
823 2 186 191
824 1 190 192
825 2 191 196
826 1 195 197
827 2 196 201
828 1 200 202
829 2 201 206
830 1 205 207
831 2 206 211
832 1 210 212
833 2 211 216
834 1 215 217
835 2 216 221
836 1 220 222
837 2 221 226
838 1 225 227
839 2 226 231
840 1 230 232
841 2 231 236
842 1 235 237
843 2 236 241
844 1 240 242
845 2 241 246
846 1 245 247
847 2 251 256
848 1 255 257
849 2 256 261
850 1 260 262
851 2 261 266
852 1 265 267
853 2 266 271
854 1 270 272
855 2 271 276
856 1 275 277
857 2 276 281
858 1 280 282
859 2 281 286
860 1 285 287
861 2 286 291
862 1 290 292
863 2 291 296
864 1 295 297
865 2 296 301
866 1 300 302
867 2 301 306
868 1 305 307
869 2 306 311
870 1 310 312
871 2 311 316
872 1 315 317
873 2 316 321
874 1 320 322
875 2 321 326
876 1 325 327
877 2 326 331
878 1 330 332
879 2 331 336
880 1 335 337
881 2 336 341
882 1 340 342
883 2 341 346
884 1 345 347
885 2 346 351
886 1 350 352
887 2 351 356
888 1 355 357
889 2 356 361
890 1 360 362
891 2 361 366
892 1 365 367
893 2 366 371
894 1 370 372
895 2 376 381
896 1 380 382
897 2 381 386
898 1 385 387
899 2 386 391
900 1 390 392
901 2 391 396
902 1 395 397
903 2 396 401
904 1 400 402
905 2 401 406
906 1 405 407
907 2 406 411
908 1 410 412
909 2 411 416
910 1 415 417
911 2 416 421
912 1 420 422
913 2 421 426
914 1 425 427
915 2 426 431
916 1 430 432
917 2 431 436
918 1 435 437
919 2 436 441
920 1 440 442
921 2 441 446
922 1 445 447
923 2 446 451
924 1 450 452
925 2 451 456
926 1 455 457
927 2 456 461
928 1 460 462
929 2 461 466
930 1 465 467
931 2 466 471
932 1 470 472
933 2 471 476
934 1 475 477
935 2 476 481
936 1 480 482
937 2 481 486
938 1 485 487
939 2 486 491
940 1 490 492
941 2 491 496
942 1 495 497
943 2 501 506
944 1 505 507
945 2 506 511
946 1 510 512
947 2 511 516
948 1 515 517
949 2 516 521
950 1 520 522
951 2 521 526
952 1 525 527
953 2 526 531
954 1 530 532
955 2 531 536
956 1 535 537
957 2 536 541
958 1 540 542
959 2 541 546
960 1 545 547
961 2 546 551
962 1 550 552
963 2 551 556
964 1 555 557
965 2 556 561
966 1 560 562
967 2 561 566
968 1 565 567
969 2 566 571
970 1 570 572
971 2 571 576
972 1 575 577
973 2 576 581
974 1 580 582
975 2 581 586
976 1 585 587
977 2 586 591
978 1 590 592
979 2 591 596
980 1 595 597
981 2 596 601
982 1 600 602
983 2 601 606
984 1 605 607
985 2 606 611
986 1 610 612
987 2 611 616
988 1 615 617
989 2 616 621
990 1 620 622
991 2 626 631
992 1 630 632
993 2 631 636
994 1 635 637
995 2 636 641
996 1 640 642
997 2 641 646
998 1 645 647
999 2 646 651
1000 1 650 652
1001 2 651 656
1002 1 655 657
1003 2 656 661
1004 1 660 662
1005 2 661 666
1006 1 665 667
1007 2 666 671
1008 1 670 672
1009 2 671 676
1010 1 675 677
1011 2 676 681
1012 1 680 682
1013 2 681 686
1014 1 685 687
1015 2 686 691
1016 1 690 692
1017 2 691 696
1018 1 695 697
1019 2 696 701
1020 1 700 702
1021 2 701 706
1022 1 705 707
1023 2 706 711
1024 1 710 712
1025 2 711 716
1026 1 715 717
1027 2 716 721
1028 1 720 722
1029 2 721 726
1030 1 725 727
1031 2 726 731
1032 1 730 732
1033 2 731 736
1034 1 735 737
1035 2 736 741
1036 1 740 742
1037 2 741 746
1038 1 745 747
1039 2 751 756
1040 1 755 757
1041 2 756 761
1042 1 760 762
1043 2 761 766
1044 1 765 767
1045 2 766 771
1046 1 770 772
1047 2 771 776
1048 1 775 777
1049 2 776 781
1050 1 780 782
1051 2 781 786
1052 1 785 787
1053 2 786 791
1054 1 790 792
1055 2 791 796
1056 1 795 797
1057 2 796 801
1058 1 800 802
1059 2 801 806
1060 1 805 807
1061 2 806 811
1062 1 810 812
1063 2 811 816
1064 1 815 817
1065 2 816 821
1066 1 820 822
1067 2 821 826
1068 1 825 827
1069 2 826 831
1070 1 830 832
1071 2 831 836
1072 1 835 837
1073 2 836 841
1074 1 840 842
1075 2 841 846
1076 1 845 847
1077 2 846 851
1078 1 850 852
1079 2 851 856
1080 1 855 857
1081 2 856 861
1082 1 860 862
1083 2 861 866
1084 1 865 867
1085 2 866 871
1086 1 870 872
1087 2 876 881
1088 1 880 882
1089 2 881 886
1090 1 885 887
1091 2 886 891
1092 1 890 892
1093 2 891 896
1094 1 895 897
1095 2 896 901
1096 1 900 902
1097 2 901 906
1098 1 905 907
1099 2 906 911
1100 1 910 912
1101 2 911 916
1102 1 915 917
1103 2 916 921
1104 1 920 922
1105 2 921 926
1106 1 925 927
1107 2 926 931
1108 1 930 932
1109 2 931 936
1110 1 935 937
1111 2 936 941
1112 1 940 942
1113 2 941 946
1114 1 945 947
1115 2 946 951
1116 1 950 952
1117 2 951 956
1118 1 955 957
1119 2 956 961
1120 1 960 962
1121 2 961 966
1122 1 965 967
1123 2 966 971
1124 1 970 972
1125 2 971 976
1126 1 975 977
1127 2 976 981
1128 1 980 982
1129 2 981 986
1130 1 985 987
1131 2 986 991
1132 1 990 992
1133 2 991 996
1134 1 995 997
1135 2 1001 1006
1136 1 1005 1007
1137 2 1006 1011
1138 1 1010 1012
1139 2 1011 1016
1140 1 1015 1017
1141 2 1016 1021
1142 1 1020 1022
1143 2 1021 1026
1144 1 1025 1027
1145 2 1026 1031
1146 1 1030 1032
1147 2 1031 1036
1148 1 1035 1037
1149 2 1036 1041
1150 1 1040 1042
1151 2 1041 1046
1152 1 1045 1047
1153 2 1046 1051
1154 1 1050 1052
1155 2 1051 1056
1156 1 1055 1057
1157 2 1056 1061
1158 1 1060 1062
1159 2 1061 1066
1160 1 1065 1067
1161 2 1066 1071
1162 1 1070 1072
1163 2 1071 1076
1164 1 1075 1077
1165 2 1076 1081
1166 1 1080 1082
1167 2 1081 1086
1168 1 1085 1087
1169 2 1086 1091
1170 1 1090 1092
1171 2 1091 1096
1172 1 1095 1097
1173 2 1096 1101
1174 1 1100 1102
1175 2 1101 1106
1176 1 1105 1107
1177 2 1106 1111
1178 1 1110 1112
1179 2 1111 1116
1180 1 1115 1117
1181 2 1116 1121
1182 1 1120 1122
1183 2 1126 1131
1184 1 1130 1132
1185 2 1131 1136
1186 1 1135 1137
1187 2 1136 1141
1188 1 1140 1142
1189 2 1141 1146
1190 1 1145 1147
1191 2 1146 1151
1192 1 1150 1152
1193 2 1151 1156
1194 1 1155 1157
1195 2 1156 1161
1196 1 1160 1162
1197 2 1161 1166
1198 1 1165 1167
1199 2 1166 1171
1200 1 1170 1172
1201 2 1171 1176
1202 1 1175 1177
1203 2 1176 1181
1204 1 1180 1182
1205 2 1181 1186
1206 1 1185 1187
1207 2 1186 1191
1208 1 1190 1192
1209 2 1191 1196
1210 1 1195 1197
1211 2 1196 1201
1212 1 1200 1202
1213 2 1201 1206
1214 1 1205 1207
1215 2 1206 1211
1216 1 1210 1212
1217 2 1211 1216
1218 1 1215 1217
1219 2 1216 1221
1220 1 1220 1222
1221 2 1221 1226
1222 1 1225 1227
1223 2 1226 1231
1224 1 1230 1232
1225 2 1231 1236
1226 1 1235 1237
1227 2 1236 1241
1228 1 1240 1242
1229 2 1241 1246
1230 1 1245 1247

Angles

1 1 2 3 4
2 1 3 4 5
3 1 7 8 9
4 1 8 9 10
5 1 12 13 14
6 1 13 14 15
7 1 17 18 19
8 1 18 19 20
9 1 22 23 24
10 1 23 24 25
11 1 27 28 29
12 1 28 29 30
13 1 32 33 34
14 1 33 34 35
15 1 37 38 39
16 1 38 39 40
17 1 42 43 44
18 1 43 44 45
19 1 47 48 49
20 1 48 49 50
21 1 52 53 54
22 1 53 54 55
23 1 57 58 59
24 1 58 59 60
25 1 62 63 64
26 1 63 64 65
27 1 67 68 69
28 1 68 69 70
29 1 72 73 74
30 1 73 74 75
31 1 77 78 79
32 1 78 79 80
33 1 82 83 84
34 1 83 84 85
35 1 87 88 89
36 1 88 89 90
37 1 92 93 94
38 1 93 94 95
39 1 97 98 99
40 1 98 99 100
41 1 102 103 104
42 1 103 104 105
43 1 107 108 109
44 1 108 109 110
45 1 112 113 114
46 1 113 114 115
47 1 117 118 119
48 1 118 119 120
49 1 122 123 124
50 1 123 124 125
51 1 127 128 129
52 1 128 129 130
53 1 132 133 134
54 1 133 134 135
55 1 137 138 139
56 1 138 139 140
57 1 142 143 144
58 1 143 144 145
59 1 147 148 149
60 1 148 149 150
61 1 152 153 154
62 1 153 154 155
63 1 157 158 159
64 1 158 159 160
65 1 162 163 164
66 1 163 164 165
67 1 167 168 169
68 1 168 169 170
69 1 172 173 174
70 1 173 174 175
71 1 177 178 179
72 1 178 179 180
73 1 182 183 184
74 1 183 184 185
75 1 187 188 189
76 1 188 189 190
77 1 192 193 194
78 1 193 194 195
79 1 197 198 199
80 1 198 199 200
81 1 202 203 204
82 1 203 204 205
83 1 207 208 209
84 1 208 209 210
85 1 212 213 214
86 1 213 214 215
87 1 217 218 219
88 1 218 219 220
89 1 222 223 224
90 1 223 224 225
91 1 227 228 229
92 1 228 229 230
93 1 232 233 234
94 1 233 234 235
95 1 237 238 239
96 1 238 239 240
97 1 242 243 244
98 1 243 244 245
99 1 247 248 249
100 1 248 249 250
101 1 252 253 254
102 1 253 254 255
103 1 257 258 259
104 1 258 259 260
105 1 262 263 264
106 1 263 264 265
107 1 267 268 269
108 1 268 269 270
109 1 272 273 274
110 1 273 274 275
111 1 277 278 279
112 1 278 279 280
113 1 282 283 284
114 1 283 284 285
115 1 287 288 289
116 1 288 289 290
117 1 292 293 294
118 1 293 294 295
119 1 297 298 299
120 1 298 299 300
121 1 302 303 304
122 1 303 304 305
123 1 307 308 309
124 1 308 309 310
125 1 312 313 314
126 1 313 314 315
127 1 317 318 319
128 1 318 319 320
129 1 322 323 324
130 1 323 324 325
131 1 327 328 329
132 1 328 329 330
133 1 332 333 334
134 1 333 334 335
135 1 337 338 339
136 1 338 339 340
137 1 342 343 344
138 1 343 344 345
139 1 347 348 349
140 1 348 349 350
141 1 352 353 354
142 1 353 354 355
143 1 357 358 359
144 1 358 359 360
145 1 362 363 364
146 1 363 364 365
147 1 367 368 369
148 1 368 369 370
149 1 372 373 374
150 1 373 374 375
151 1 377 378 379
152 1 378 379 380
153 1 382 383 384
154 1 383 384 385
155 1 387 388 389
156 1 388 389 390
157 1 392 393 394
158 1 393 394 395
159 1 397 398 399
160 1 398 399 400
161 1 402 403 404
162 1 403 404 405
163 1 407 408 409
164 1 408 409 410
165 1 412 413 414
166 1 413 414 415
167 1 417 418 419
168 1 418 419 420
169 1 422 423 424
170 1 423 424 425
171 1 427 428 429
172 1 428 429 430
173 1 432 433 434
174 1 433 434 435
175 1 437 438 439
176 1 438 439 440
177 1 442 443 444
178 1 443 444 445
179 1 447 448 449
180 1 448 449 450
181 1 452 453 454
182 1 453 454 455
183 1 457 458 459
184 1 458 459 460
185 1 462 463 464
186 1 463 464 465
187 1 467 468 469
188 1 468 469 470
189 1 472 473 474
190 1 473 474 475
191 1 477 478 479
192 1 478 479 480
193 1 482 483 484
194 1 483 484 485
195 1 487 488 489
196 1 488 489 490
197 1 492 493 494
198 1 493 494 495
199 1 497 498 499
200 1 498 499 500
201 1 502 503 504
202 1 503 504 505
203 1 507 508 509
204 1 508 509 510
205 1 512 513 514
206 1 513 514 515
207 1 517 518 519
208 1 518 519 520
209 1 522 523 524
210 1 523 524 525
211 1 527 528 529
212 1 528 529 530
213 1 532 533 534
214 1 533 534 535
215 1 537 538 539
216 1 538 539 540
217 1 542 543 544
218 1 543 544 545
219 1 547 548 549
220 1 548 549 550
221 1 552 553 554
222 1 553 554 555
223 1 557 558 559
224 1 558 559 560
225 1 562 563 564
226 1 563 564 565
227 1 567 568 569
228 1 568 569 570
229 1 572 573 574
230 1 573 574 575
231 1 577 578 579
232 1 578 579 580
233 1 582 583 584
234 1 583 584 585
235 1 587 588 589
236 1 588 589 590
237 1 592 593 594
238 1 593 594 595
239 1 597 598 599
240 1 598 599 600
241 1 602 603 604
242 1 603 604 605
243 1 607 608 609
244 1 608 609 610
245 1 612 613 614
246 1 613 614 615
247 1 617 618 619
248 1 618 619 620
249 1 622 623 624
250 1 623 624 625
251 1 627 628 629
252 1 628 629 630
253 1 632 633 634
254 1 633 634 635
255 1 637 638 639
256 1 638 639 640
257 1 642 643 644
258 1 643 644 645
259 1 647 648 649
260 1 648 649 650
261 1 652 653 654
262 1 653 654 655
263 1 657 658 659
264 1 658 659 660
265 1 662 663 664
266 1 663 664 665
267 1 667 668 669
268 1 668 669 670
269 1 672 673 674
270 1 673 674 675
271 1 677 678 679
272 1 678 679 680
273 1 682 683 684
274 1 683 684 685
275 1 687 688 689
276 1 688 689 690
277 1 692 693 694
278 1 693 694 695
279 1 697 698 699
280 1 698 699 700
281 1 702 703 704
282 1 703 704 705
283 1 707 708 709
284 1 708 709 710
285 1 712 713 714
286 1 713 714 715
287 1 717 718 719
288 1 718 719 720
289 1 722 723 724
290 1 723 724 725
291 1 727 728 729
292 1 728 729 730
293 1 732 733 734
294 1 733 734 735
295 1 737 738 739
296 1 738 739 740
297 1 742 743 744
298 1 743 744 745
299 1 747 748 749
300 1 748 749 750
301 1 752 753 754
302 1 753 754 755
303 1 757 758 759
304 1 758 759 760
305 1 762 763 764
306 1 763 764 765
307 1 767 768 769
308 1 768 769 770
309 1 772 773 774
310 1 773 774 775
311 1 777 778 779
312 1 778 779 780
313 1 782 783 784
314 1 783 784 785
315 1 787 788 789
316 1 788 789 790
317 1 792 793 794
318 1 793 794 795
319 1 797 798 799
320 1 798 799 800
321 1 802 803 804
322 1 803 804 805
323 1 807 808 809
324 1 808 809 810
325 1 812 813 814
326 1 813 814 815
327 1 817 818 819
328 1 818 819 820
329 1 822 823 824
330 1 823 824 825
331 1 827 828 829
332 1 828 829 830
333 1 832 833 834
334 1 833 834 835
335 1 837 838 839
336 1 838 839 840
337 1 842 843 844
338 1 843 844 845
339 1 847 848 849
340 1 848 849 850
341 1 852 853 854
342 1 853 854 855
343 1 857 858 859
344 1 858 859 860
345 1 862 863 864
346 1 863 864 865
347 1 867 868 869
348 1 868 869 870
349 1 872 873 874
350 1 873 874 875
351 1 877 878 879
352 1 878 879 880
353 1 882 883 884
354 1 883 884 885
355 1 887 888 889
356 1 888 889 890
357 1 892 893 894
358 1 893 894 895
359 1 897 898 899
360 1 898 899 900
361 1 902 903 904
362 1 903 904 905
363 1 907 908 909
364 1 908 909 910
365 1 912 913 914
366 1 913 914 915
367 1 917 918 919
368 1 918 919 920
369 1 922 923 924
370 1 923 924 925
371 1 927 928 929
372 1 928 929 930
373 1 932 933 934
374 1 933 934 935
375 1 937 938 939
376 1 938 939 940
377 1 942 943 944
378 1 943 944 945
379 1 947 948 949
380 1 948 949 950
381 1 952 953 954
382 1 953 954 955
383 1 957 958 959
384 1 958 959 960
385 1 962 963 964
386 1 963 964 965
387 1 967 968 969
388 1 968 969 970
389 1 972 973 974
390 1 973 974 975
391 1 977 978 979
392 1 978 979 980
393 1 982 983 984
394 1 983 984 985
395 1 987 988 989
396 1 988 989 990
397 1 992 993 994
398 1 993 994 995
399 1 997 998 999
400 1 998 999 1000
401 1 1002 1003 1004
402 1 1003 1004 1005
403 1 1007 1008 1009
404 1 1008 1009 1010
405 1 1012 1013 1014
406 1 1013 1014 1015
407 1 1017 1018 1019
408 1 1018 1019 1020
409 1 1022 1023 1024
410 1 1023 1024 1025
411 1 1027 1028 1029
412 1 1028 1029 1030
413 1 1032 1033 1034
414 1 1033 1034 1035
415 1 1037 1038 1039
416 1 1038 1039 1040
417 1 1042 1043 1044
418 1 1043 1044 1045
419 1 1047 1048 1049
420 1 1048 1049 1050
421 1 1052 1053 1054
422 1 1053 1054 1055
423 1 1057 1058 1059
424 1 1058 1059 1060
425 1 1062 1063 1064
426 1 1063 1064 1065
427 1 1067 1068 1069
428 1 1068 1069 1070
429 1 1072 1073 1074
430 1 1073 1074 1075
431 1 1077 1078 1079
432 1 1078 1079 1080
433 1 1082 1083 1084
434 1 1083 1084 1085
435 1 1087 1088 1089
436 1 1088 1089 1090
437 1 1092 1093 1094
438 1 1093 1094 1095
439 1 1097 1098 1099
440 1 1098 1099 1100
441 1 1102 1103 1104
442 1 1103 1104 1105
443 1 1107 1108 1109
444 1 1108 1109 1110
445 1 1112 1113 1114
446 1 1113 1114 1115
447 1 1117 1118 1119
448 1 1118 1119 1120
449 1 1122 1123 1124
450 1 1123 1124 1125
451 1 1127 1128 1129
452 1 1128 1129 1130
453 1 1132 1133 1134
454 1 1133 1134 1135
455 1 1137 1138 1139
456 1 1138 1139 1140
457 1 1142 1143 1144
458 1 1143 1144 1145
459 1 1147 1148 1149
460 1 1148 1149 1150
461 1 1152 1153 1154
462 1 1153 1154 1155
463 1 1157 1158 1159
464 1 1158 1159 1160
465 1 1162 1163 1164
466 1 1163 1164 1165
467 1 1167 1168 1169
468 1 1168 1169 1170
469 1 1172 1173 1174
470 1 1173 1174 1175
471 1 1177 1178 1179
472 1 1178 1179 1180
473 1 1182 1183 1184
474 1 1183 1184 1185
475 1 1187 1188 1189
476 1 1188 1189 1190
477 1 1192 1193 1194
478 1 1193 1194 1195
479 1 1197 1198 1199
480 1 1198 1199 1200
481 1 1202 1203 1204
482 1 1203 1204 1205
483 1 1207 1208 1209
484 1 1208 1209 1210
485 1 1212 1213 1214
486 1 1213 1214 1215
487 1 1217 1218 1219
488 1 1218 1219 1220
489 1 1222 1223 1224
490 1 1223 1224 1225
491 1 1227 1228 1229
492 1 1228 1229 1230
493 1 1232 1233 1234
494 1 1233 1234 1235
495 1 1237 1238 1239
496 1 1238 1239 1240
497 1 1242 1243 1244
498 1 1243 1244 1245
499 1 1247 1248 1249
500 1 1248 1249 1250
501 2 1 6 11
502 1 4 5 7
503 1 5 7 8
504 2 6 11 16
505 1 9 10 12
506 1 10 12 13
507 2 11 16 21
508 1 14 15 17
509 1 15 17 18
510 2 16 21 26
511 1 19 20 22
512 1 20 22 23
513 2 21 26 31
514 1 24 25 27
515 1 25 27 28
516 2 26 31 36
517 1 29 30 32
518 1 30 32 33
519 2 31 36 41
520 1 34 35 37
521 1 35 37 38
522 2 36 41 46
523 1 39 40 42
524 1 40 42 43
525 2 41 46 51
526 1 44 45 47
527 1 45 47 48
528 2 46 51 56
529 1 49 50 52
530 1 50 52 53
531 2 51 56 61
532 1 54 55 57
533 1 55 57 58
534 2 56 61 66
535 1 59 60 62
536 1 60 62 63
537 2 61 66 71
538 1 64 65 67
539 1 65 67 68
540 2 66 71 76
541 1 69 70 72
542 1 70 72 73
543 2 71 76 81
544 1 74 75 77
545 1 75 77 78
546 2 76 81 86
547 1 79 80 82
548 1 80 82 83
549 2 81 86 91
550 1 84 85 87
551 1 85 87 88
552 2 86 91 96
553 1 89 90 92
554 1 90 92 93
555 2 91 96 101
556 1 94 95 97
557 1 95 97 98
558 2 96 101 106
559 1 99 100 102
560 1 100 102 103
561 2 101 106 111
562 1 104 105 107
563 1 105 107 108
564 2 106 111 116
565 1 109 110 112
566 1 110 112 113
567 2 111 116 121
568 1 114 115 117
569 1 115 117 118
570 1 119 120 122
571 1 120 122 123
572 2 126 131 136
573 1 129 130 132
574 1 130 132 133
575 2 131 136 141
576 1 134 135 137
577 1 135 137 138
578 2 136 141 146
579 1 139 140 142
580 1 140 142 143
581 2 141 146 151
582 1 144 145 147
583 1 145 147 148
584 2 146 151 156
585 1 149 150 152
586 1 150 152 153
587 2 151 156 161
588 1 154 155 157
589 1 155 157 158
590 2 156 161 166
591 1 159 160 162
592 1 160 162 163
593 2 161 166 171
594 1 164 165 167
595 1 165 167 168
596 2 166 171 176
597 1 169 170 172
598 1 170 172 173
599 2 171 176 181
600 1 174 175 177
601 1 175 177 178
602 2 176 181 186
603 1 179 180 182
604 1 180 182 183
605 2 181 186 191
606 1 184 185 187
607 1 185 187 188
608 2 186 191 196
609 1 189 190 192
610 1 190 192 193
611 2 191 196 201
612 1 194 195 197
613 1 195 197 198
614 2 196 201 206
615 1 199 200 202
616 1 200 202 203
617 2 201 206 211
618 1 204 205 207
619 1 205 207 208
620 2 206 211 216
621 1 209 210 212
622 1 210 212 213
623 2 211 216 221
624 1 214 215 217
625 1 215 217 218
626 2 216 221 226
627 1 219 220 222
628 1 220 222 223
629 2 221 226 231
630 1 224 225 227
631 1 225 227 228
632 2 226 231 236
633 1 229 230 232
634 1 230 232 233
635 2 231 236 241
636 1 234 235 237
637 1 235 237 238
638 2 236 241 246
639 1 239 240 242
640 1 240 242 243
641 1 244 245 247
642 1 245 247 248
643 2 251 256 261
644 1 254 255 257
645 1 255 257 258
646 2 256 261 266
647 1 259 260 262
648 1 260 262 263
649 2 261 266 271
650 1 264 265 267
651 1 265 267 268
652 2 266 271 276
653 1 269 270 272
654 1 270 272 273
655 2 271 276 281
656 1 274 275 277
657 1 275 277 278
658 2 276 281 286
659 1 279 280 282
660 1 280 282 283
661 2 281 286 291
662 1 284 285 287
663 1 285 287 288
664 2 286 291 296
665 1 289 290 292
666 1 290 292 293
667 2 291 296 301
668 1 294 295 297
669 1 295 297 298
670 2 296 301 306
671 1 299 300 302
672 1 300 302 303
673 2 301 306 311
674 1 304 305 307
675 1 305 307 308
676 2 306 311 316
677 1 309 310 312
678 1 310 312 313
679 2 311 316 321
680 1 314 315 317
681 1 315 317 318
682 2 316 321 326
683 1 319 320 322
684 1 320 322 323
685 2 321 326 331
686 1 324 325 327
687 1 325 327 328
688 2 326 331 336
689 1 329 330 332
690 1 330 332 333
691 2 331 336 341
692 1 334 335 337
693 1 335 337 338
694 2 336 341 346
695 1 339 340 342
696 1 340 342 343
697 2 341 346 351
698 1 344 345 347
699 1 345 347 348
700 2 346 351 356
701 1 349 350 352
702 1 350 352 353
703 2 351 356 361
704 1 354 355 357
705 1 355 357 358
706 2 356 361 366
707 1 359 360 362
708 1 360 362 363
709 2 361 366 371
710 1 364 365 367
711 1 365 367 368
712 1 369 370 372
713 1 370 372 373
714 2 376 381 386
715 1 379 380 382
716 1 380 382 383
717 2 381 386 391
718 1 384 385 387
719 1 385 387 388
720 2 386 391 396
721 1 389 390 392
722 1 390 392 393
723 2 391 396 401
724 1 394 395 397
725 1 395 397 398
726 2 396 401 406
727 1 399 400 402
728 1 400 402 403
729 2 401 406 411
730 1 404 405 407
731 1 405 407 408
732 2 406 411 416
733 1 409 410 412
734 1 410 412 413
735 2 411 416 421
736 1 414 415 417
737 1 415 417 418
738 2 416 421 426
739 1 419 420 422
740 1 420 422 423
741 2 421 426 431
742 1 424 425 427
743 1 425 427 428
744 2 426 431 436
745 1 429 430 432
746 1 430 432 433
747 2 431 436 441
748 1 434 435 437
749 1 435 437 438
750 2 436 441 446
751 1 439 440 442
752 1 440 442 443
753 2 441 446 451
754 1 444 445 447
755 1 445 447 448
756 2 446 451 456
757 1 449 450 452
758 1 450 452 453
759 2 451 456 461
760 1 454 455 457
761 1 455 457 458
762 2 456 461 466
763 1 459 460 462
764 1 460 462 463
765 2 461 466 471
766 1 464 465 467
767 1 465 467 468
768 2 466 471 476
769 1 469 470 472
770 1 470 472 473
771 2 471 476 481
772 1 474 475 477
773 1 475 477 478
774 2 476 481 486
775 1 479 480 482
776 1 480 482 483
777 2 481 486 491
778 1 484 485 487
779 1 485 487 488
780 2 486 491 496
781 1 489 490 492
782 1 490 492 493
783 1 494 495 497
784 1 495 497 498
785 2 501 506 511
786 1 504 505 507
787 1 505 507 508
788 2 506 511 516
789 1 509 510 512
790 1 510 512 513
791 2 511 516 521
792 1 514 515 517
793 1 515 517 518
794 2 516 521 526
795 1 519 520 522
796 1 520 522 523
797 2 521 526 531
798 1 524 525 527
799 1 525 527 528
800 2 526 531 536
801 1 529 530 532
802 1 530 532 533
803 2 531 536 541
804 1 534 535 537
805 1 535 537 538
806 2 536 541 546
807 1 539 540 542
808 1 540 542 543
809 2 541 546 551
810 1 544 545 547
811 1 545 547 548
812 2 546 551 556
813 1 549 550 552
814 1 550 552 553
815 2 551 556 561
816 1 554 555 557
817 1 555 557 558
818 2 556 561 566
819 1 559 560 562
820 1 560 562 563
821 2 561 566 571
822 1 564 565 567
823 1 565 567 568
824 2 566 571 576
825 1 569 570 572
826 1 570 572 573
827 2 571 576 581
828 1 574 575 577
829 1 575 577 578
830 2 576 581 586
831 1 579 580 582
832 1 580 582 583
833 2 581 586 591
834 1 584 585 587
835 1 585 587 588
836 2 586 591 596
837 1 589 590 592
838 1 590 592 593
839 2 591 596 601
840 1 594 595 597
841 1 595 597 598
842 2 596 601 606
843 1 599 600 602
844 1 600 602 603
845 2 601 606 611
846 1 604 605 607
847 1 605 607 608
848 2 606 611 616
849 1 609 610 612
850 1 610 612 613
851 2 611 616 621
852 1 614 615 617
853 1 615 617 618
854 1 619 620 622
855 1 620 622 623
856 2 626 631 636
857 1 629 630 632
858 1 630 632 633
859 2 631 636 641
860 1 634 635 637
861 1 635 637 638
862 2 636 641 646
863 1 639 640 642
864 1 640 642 643
865 2 641 646 651
866 1 644 645 647
867 1 645 647 648
868 2 646 651 656
869 1 649 650 652
870 1 650 652 653
871 2 651 656 661
872 1 654 655 657
873 1 655 657 658
874 2 656 661 666
875 1 659 660 662
876 1 660 662 663
877 2 661 666 671
878 1 664 665 667
879 1 665 667 668
880 2 666 671 676
881 1 669 670 672
882 1 670 672 673
883 2 671 676 681
884 1 674 675 677
885 1 675 677 678
886 2 676 681 686
887 1 679 680 682
888 1 680 682 683
889 2 681 686 691
890 1 684 685 687
891 1 685 687 688
892 2 686 691 696
893 1 689 690 692
894 1 690 692 693
895 2 691 696 701
896 1 694 695 697
897 1 695 697 698
898 2 696 701 706
899 1 699 700 702
900 1 700 702 703
901 2 701 706 711
902 1 704 705 707
903 1 705 707 708
904 2 706 711 716
905 1 709 710 712
906 1 710 712 713
907 2 711 716 721
908 1 714 715 717
909 1 715 717 718
910 2 716 721 726
911 1 719 720 722
912 1 720 722 723
913 2 721 726 731
914 1 724 725 727
915 1 725 727 728
916 2 726 731 736
917 1 729 730 732
918 1 730 732 733
919 2 731 736 741
920 1 734 735 737
921 1 735 737 738
922 2 736 741 746
923 1 739 740 742
924 1 740 742 743
925 1 744 745 747
926 1 745 747 748
927 2 751 756 761
928 1 754 755 757
929 1 755 757 758
930 2 756 761 766
931 1 759 760 762
932 1 760 762 763
933 2 761 766 771
934 1 764 765 767
935 1 765 767 768
936 2 766 771 776
937 1 769 770 772
938 1 770 772 773
939 2 771 776 781
940 1 774 775 777
941 1 775 777 778
942 2 776 781 786
943 1 779 780 782
944 1 780 782 783
945 2 781 786 791
946 1 784 785 787
947 1 785 787 788
948 2 786 791 796
949 1 789 790 792
950 1 790 792 793
951 2 791 796 801
952 1 794 795 797
953 1 795 797 798
954 2 796 801 806
955 1 799 800 802
956 1 800 802 803
957 2 801 806 811
958 1 804 805 807
959 1 805 807 808
960 2 806 811 816
961 1 809 810 812
962 1 810 812 813
963 2 811 816 821
964 1 814 815 817
965 1 815 817 818
966 2 816 821 826
967 1 819 820 822
968 1 820 822 823
969 2 821 826 831
970 1 824 825 827
971 1 825 827 828
972 2 826 831 836
973 1 829 830 832
974 1 830 832 833
975 2 831 836 841
976 1 834 835 837
977 1 835 837 838
978 2 836 841 846
979 1 839 840 842
980 1 840 842 843
981 2 841 846 851
982 1 844 845 847
983 1 845 847 848
984 2 846 851 856
985 1 849 850 852
986 1 850 852 853
987 2 851 856 861
988 1 854 855 857
989 1 855 857 858
990 2 856 861 866
991 1 859 860 862
992 1 860 862 863
993 2 861 866 871
994 1 864 865 867
995 1 865 867 868
996 1 869 870 872
997 1 870 872 873
998 2 876 881 886
999 1 879 880 882
1000 1 880 882 883
1001 2 881 886 891
1002 1 884 885 887
1003 1 885 887 888
1004 2 886 891 896
1005 1 889 890 892
1006 1 890 892 893
1007 2 891 896 901
1008 1 894 895 897
1009 1 895 897 898
1010 2 896 901 906
1011 1 899 900 902
1012 1 900 902 903
1013 2 901 906 911
1014 1 904 905 907
1015 1 905 907 908
1016 2 906 911 916
1017 1 909 910 912
1018 1 910 912 913
1019 2 911 916 921
1020 1 914 915 917
1021 1 915 917 918
1022 2 916 921 926
1023 1 919 920 922
1024 1 920 922 923
1025 2 921 926 931
1026 1 924 925 927
1027 1 925 927 928
1028 2 926 931 936
1029 1 929 930 932
1030 1 930 932 933
1031 2 931 936 941
1032 1 934 935 937
1033 1 935 937 938
1034 2 936 941 946
1035 1 939 940 942
1036 1 940 942 943
1037 2 941 946 951
1038 1 944 945 947
1039 1 945 947 948
1040 2 946 951 956
1041 1 949 950 952
1042 1 950 952 953
1043 2 951 956 961
1044 1 954 955 957
1045 1 955 957 958
1046 2 956 961 966
1047 1 959 960 962
1048 1 960 962 963
1049 2 961 966 971
1050 1 964 965 967
1051 1 965 967 968
1052 2 966 971 976
1053 1 969 970 972
1054 1 970 972 973
1055 2 971 976 981
1056 1 974 975 977
1057 1 975 977 978
1058 2 976 981 986
1059 1 979 980 982
1060 1 980 982 983
1061 2 981 986 991
1062 1 984 985 987
1063 1 985 987 988
1064 2 986 991 996
1065 1 989 990 992
1066 1 990 992 993
1067 1 994 995 997
1068 1 995 997 998
1069 2 1001 1006 1011
1070 1 1004 1005 1007
1071 1 1005 1007 1008
1072 2 1006 1011 1016
1073 1 1009 1010 1012
1074 1 1010 1012 1013
1075 2 1011 1016 1021
1076 1 1014 1015 1017
1077 1 1015 1017 1018
1078 2 1016 1021 1026
1079 1 1019 1020 1022
1080 1 1020 1022 1023
1081 2 1021 1026 1031
1082 1 1024 1025 1027
1083 1 1025 1027 1028
1084 2 1026 1031 1036
1085 1 1029 1030 1032
1086 1 1030 1032 1033
1087 2 1031 1036 1041
1088 1 1034 1035 1037
1089 1 1035 1037 1038
1090 2 1036 1041 1046
1091 1 1039 1040 1042
1092 1 1040 1042 1043
1093 2 1041 1046 1051
1094 1 1044 1045 1047
1095 1 1045 1047 1048
1096 2 1046 1051 1056
1097 1 1049 1050 1052
1098 1 1050 1052 1053
1099 2 1051 1056 1061
1100 1 1054 1055 1057
1101 1 1055 1057 1058
1102 2 1056 1061 1066
1103 1 1059 1060 1062
1104 1 1060 1062 1063
1105 2 1061 1066 1071
1106 1 1064 1065 1067
1107 1 1065 1067 1068
1108 2 1066 1071 1076
1109 1 1069 1070 1072
1110 1 1070 1072 1073
1111 2 1071 1076 1081
1112 1 1074 1075 1077
1113 1 1075 1077 1078
1114 2 1076 1081 1086
1115 1 1079 1080 1082
1116 1 1080 1082 1083
1117 2 1081 1086 1091
1118 1 1084 1085 1087
1119 1 1085 1087 1088
1120 2 1086 1091 1096
1121 1 1089 1090 1092
1122 1 1090 1092 1093
1123 2 1091 1096 1101
1124 1 1094 1095 1097
1125 1 1095 1097 1098
1126 2 1096 1101 1106
1127 1 1099 1100 1102
1128 1 1100 1102 1103
1129 2 1101 1106 1111
1130 1 1104 1105 1107
1131 1 1105 1107 1108
1132 2 1106 1111 1116
1133 1 1109 1110 1112
1134 1 1110 1112 1113
1135 2 1111 1116 1121
1136 1 1114 1115 1117
1137 1 1115 1117 1118
1138 1 1119 1120 1122
1139 1 1120 1122 1123
1140 2 1126 1131 1136
1141 1 1129 1130 1132
1142 1 1130 1132 1133
1143 2 1131 1136 1141
1144 1 1134 1135 1137
1145 1 1135 1137 1138
1146 2 1136 1141 1146
1147 1 1139 1140 1142
1148 1 1140 1142 1143
1149 2 1141 1146 1151
1150 1 1144 1145 1147
1151 1 1145 1147 1148
1152 2 1146 1151 1156
1153 1 1149 1150 1152
1154 1 1150 1152 1153
1155 2 1151 1156 1161
1156 1 1154 1155 1157
1157 1 1155 1157 1158
1158 2 1156 1161 1166
1159 1 1159 1160 1162
1160 1 1160 1162 1163
1161 2 1161 1166 1171
1162 1 1164 1165 1167
1163 1 1165 1167 1168
1164 2 1166 1171 1176
1165 1 1169 1170 1172
1166 1 1170 1172 1173
1167 2 1171 1176 1181
1168 1 1174 1175 1177
1169 1 1175 1177 1178
1170 2 1176 1181 1186
1171 1 1179 1180 1182
1172 1 1180 1182 1183
1173 2 1181 1186 1191
1174 1 1184 1185 1187
1175 1 1185 1187 1188
1176 2 1186 1191 1196
1177 1 1189 1190 1192
1178 1 1190 1192 1193
1179 2 1191 1196 1201
1180 1 1194 1195 1197
1181 1 1195 1197 1198
1182 2 1196 1201 1206
1183 1 1199 1200 1202
1184 1 1200 1202 1203
1185 2 1201 1206 1211
1186 1 1204 1205 1207
1187 1 1205 1207 1208
1188 2 1206 1211 1216
1189 1 1209 1210 1212
1190 1 1210 1212 1213
1191 2 1211 1216 1221
1192 1 1214 1215 1217
1193 1 1215 1217 1218
1194 2 1216 1221 1226
1195 1 1219 1220 1222
1196 1 1220 1222 1223
1197 2 1221 1226 1231
1198 1 1224 1225 1227
1199 1 1225 1227 1228
1200 2 1226 1231 1236
1201 1 1229 1230 1232
1202 1 1230 1232 1233
1203 2 1231 1236 1241
1204 1 1234 1235 1237
1205 1 1235 1237 1238
1206 2 1236 1241 1246
1207 1 1239 1240 1242
1208 1 1240 1242 1243
1209 1 1244 1245 1247
1210 1 1245 1247 1248

Dihedrals

1 1 2 3 4 5
2 1 7 8 9 10
3 1 12 13 14 15
4 1 17 18 19 20
5 1 22 23 24 25
6 1 27 28 29 30
7 1 32 33 34 35
8 1 37 38 39 40
9 1 42 43 44 45
10 1 47 48 49 50
11 1 52 53 54 55
12 1 57 58 59 60
13 1 62 63 64 65
14 1 67 68 69 70
15 1 72 73 74 75
16 1 77 78 79 80
17 1 82 83 84 85
18 1 87 88 89 90
19 1 92 93 94 95
20 1 97 98 99 100
21 1 102 103 104 105
22 1 107 108 109 110
23 1 112 113 114 115
24 1 117 118 119 120
25 1 122 123 124 125
26 1 127 128 129 130
27 1 132 133 134 135
28 1 137 138 139 140
29 1 142 143 144 145
30 1 147 148 149 150
31 1 152 153 154 155
32 1 157 158 159 160
33 1 162 163 164 165
34 1 167 168 169 170
35 1 172 173 174 175
36 1 177 178 179 180
37 1 182 183 184 185
38 1 187 188 189 190
39 1 192 193 194 195
40 1 197 198 199 200
41 1 202 203 204 205
42 1 207 208 209 210
43 1 212 213 214 215
44 1 217 218 219 220
45 1 222 223 224 225
46 1 227 228 229 230
47 1 232 233 234 235
48 1 237 238 239 240
49 1 242 243 244 245
50 1 247 248 249 250
51 1 252 253 254 255
52 1 257 258 259 260
53 1 262 263 264 265
54 1 267 268 269 270
55 1 272 273 274 275
56 1 277 278 279 280
57 1 282 283 284 285
58 1 287 288 289 290
59 1 292 293 294 295
60 1 297 298 299 300
61 1 302 303 304 305
62 1 307 308 309 310
63 1 312 313 314 315
64 1 317 318 319 320
65 1 322 323 324 325
66 1 327 328 329 330
67 1 332 333 334 335
68 1 337 338 339 340
69 1 342 343 344 345
70 1 347 348 349 350
71 1 352 353 354 355
72 1 357 358 359 360
73 1 362 363 364 365
74 1 367 368 369 370
75 1 372 373 374 375
76 1 377 378 379 380
77 1 382 383 384 385
78 1 387 388 389 390
79 1 392 393 394 395
80 1 397 398 399 400
81 1 402 403 404 405
82 1 407 408 409 410
83 1 412 413 414 415
84 1 417 418 419 420
85 1 422 423 424 425
86 1 427 428 429 430
87 1 432 433 434 435
88 1 437 438 439 440
89 1 442 443 444 445
90 1 447 448 449 450
91 1 452 453 454 455
92 1 457 458 459 460
93 1 462 463 464 465
94 1 467 468 469 470
95 1 472 473 474 475
96 1 477 478 479 480
97 1 482 483 484 485
98 1 487 488 489 490
99 1 492 493 494 495
100 1 497 498 499 500
101 1 502 503 504 505
102 1 507 508 509 510
103 1 512 513 514 515
104 1 517 518 519 520
105 1 522 523 524 525
106 1 527 528 529 530
107 1 532 533 534 535
108 1 537 538 539 540
109 1 542 543 544 545
110 1 547 548 549 550
111 1 552 553 554 555
112 1 557 558 559 560
113 1 562 563 564 565
114 1 567 568 569 570
115 1 572 573 574 575
116 1 577 578 579 580
117 1 582 583 584 585
118 1 587 588 589 590
119 1 592 593 594 595
120 1 597 598 599 600
121 1 602 603 604 605
122 1 607 608 609 610
123 1 612 613 614 615
124 1 617 618 619 620
125 1 622 623 624 625
126 1 627 628 629 630
127 1 632 633 634 635
128 1 637 638 639 640
129 1 642 643 644 645
130 1 647 648 649 650
131 1 652 653 654 655
132 1 657 658 659 660
133 1 662 663 664 665
134 1 667 668 669 670
135 1 672 673 674 675
136 1 677 678 679 680
137 1 682 683 684 685
138 1 687 688 689 690
139 1 692 693 694 695
140 1 697 698 699 700
141 1 702 703 704 705
142 1 707 708 709 710
143 1 712 713 714 715
144 1 717 718 719 720
145 1 722 723 724 725
146 1 727 728 729 730
147 1 732 733 734 735
148 1 737 738 739 740
149 1 742 743 744 745
150 1 747 748 749 750
151 1 752 753 754 755
152 1 757 758 759 760
153 1 762 763 764 765
154 1 767 768 769 770
155 1 772 773 774 775
156 1 777 778 779 780
157 1 782 783 784 785
158 1 787 788 789 790
159 1 792 793 794 795
160 1 797 798 799 800
161 1 802 803 804 805
162 1 807 808 809 810
163 1 812 813 814 815
164 1 817 818 819 820
165 1 822 823 824 825
166 1 827 828 829 830
167 1 832 833 834 835
168 1 837 838 839 840
169 1 842 843 844 845
170 1 847 848 849 850
171 1 852 853 854 855
172 1 857 858 859 860
173 1 862 863 864 865
174 1 867 868 869 870
175 1 872 873 874 875
176 1 877 878 879 880
177 1 882 883 884 885
178 1 887 888 889 890
179 1 892 893 894 895
180 1 897 898 899 900
181 1 902 903 904 905
182 1 907 908 909 910
183 1 912 913 914 915
184 1 917 918 919 920
185 1 922 923 924 925
186 1 927 928 929 930
187 1 932 933 934 935
188 1 937 938 939 940
189 1 942 943 944 945
190 1 947 948 949 950
191 1 952 953 954 955
192 1 957 958 959 960
193 1 962 963 964 965
194 1 967 968 969 970
195 1 972 973 974 975
196 1 977 978 979 980
197 1 982 983 984 985
198 1 987 988 989 990
199 1 992 993 994 995
200 1 997 998 999 1000
201 1 1002 1003 1004 1005
202 1 1007 1008 1009 1010
203 1 1012 1013 1014 1015
204 1 1017 1018 1019 1020
205 1 1022 1023 1024 1025
206 1 1027 1028 1029 1030
207 1 1032 1033 1034 1035
208 1 1037 1038 1039 1040
209 1 1042 1043 1044 1045
210 1 1047 1048 1049 1050
211 1 1052 1053 1054 1055
212 1 1057 1058 1059 1060
213 1 1062 1063 1064 1065
214 1 1067 1068 1069 1070
215 1 1072 1073 1074 1075
216 1 1077 1078 1079 1080
217 1 1082 1083 1084 1085
218 1 1087 1088 1089 1090
219 1 1092 1093 1094 1095
220 1 1097 1098 1099 1100
221 1 1102 1103 1104 1105
222 1 1107 1108 1109 1110
223 1 1112 1113 1114 1115
224 1 1117 1118 1119 1120
225 1 1122 1123 1124 1125
226 1 1127 1128 1129 1130
227 1 1132 1133 1134 1135
228 1 1137 1138 1139 1140
229 1 1142 1143 1144 1145
230 1 1147 1148 1149 1150
231 1 1152 1153 1154 1155
232 1 1157 1158 1159 1160
233 1 1162 1163 1164 1165
234 1 1167 1168 1169 1170
235 1 1172 1173 1174 1175
236 1 1177 1178 1179 1180
237 1 1182 1183 1184 1185
238 1 1187 1188 1189 1190
239 1 1192 1193 1194 1195
240 1 1197 1198 1199 1200
241 1 1202 1203 1204 1205
242 1 1207 1208 1209 1210
243 1 1212 1213 1214 1215
244 1 1217 1218 1219 1220
245 1 1222 1223 1224 1225
246 1 1227 1228 1229 1230
247 1 1232 1233 1234 1235
248 1 1237 1238 1239 1240
249 1 1242 1243 1244 1245
250 1 1247 1248 1249 1250
251 2 1 6 11 16
252 3 3 4 5 7
253 3 4 5 7 8
254 3 5 7 8 9
255 2 6 11 16 21
256 3 8 9 10 12
257 3 9 10 12 13
258 3 10 12 13 14
259 2 11 16 21 26
260 3 13 14 15 17
261 3 14 15 17 18
262 3 15 17 18 19
263 2 16 21 26 31
264 3 18 19 20 22
265 3 19 20 22 23
266 3 20 22 23 24
267 2 21 26 31 36
268 3 23 24 25 27
269 3 24 25 27 28
270 3 25 27 28 29
271 2 26 31 36 41
272 3 28 29 30 32
273 3 29 30 32 33
274 3 30 32 33 34
275 2 31 36 41 46
276 3 33 34 35 37
277 3 34 35 37 38
278 3 35 37 38 39
279 2 36 41 46 51
280 3 38 39 40 42
281 3 39 40 42 43
282 3 40 42 43 44
283 2 41 46 51 56
284 3 43 44 45 47
285 3 44 45 47 48
286 3 45 47 48 49
287 2 46 51 56 61
288 3 48 49 50 52
289 3 49 50 52 53
290 3 50 52 53 54
291 2 51 56 61 66
292 3 53 54 55 57
293 3 54 55 57 58
294 3 55 57 58 59
295 2 56 61 66 71
296 3 58 59 60 62
297 3 59 60 62 63
298 3 60 62 63 64
299 2 61 66 71 76
300 3 63 64 65 67
301 3 64 65 67 68
302 3 65 67 68 69
303 2 66 71 76 81
304 3 68 69 70 72
305 3 69 70 72 73
306 3 70 72 73 74
307 2 71 76 81 86
308 3 73 74 75 77
309 3 74 75 77 78
310 3 75 77 78 79
311 2 76 81 86 91
312 3 78 79 80 82
313 3 79 80 82 83
314 3 80 82 83 84
315 2 81 86 91 96
316 3 83 84 85 87
317 3 84 85 87 88
318 3 85 87 88 89
319 2 86 91 96 101
320 3 88 89 90 92
321 3 89 90 92 93
322 3 90 92 93 94
323 2 91 96 101 106
324 3 93 94 95 97
325 3 94 95 97 98
326 3 95 97 98 99
327 2 96 101 106 111
328 3 98 99 100 102
329 3 99 100 102 103
330 3 100 102 103 104
331 2 101 106 111 116
332 3 103 104 105 107
333 3 104 105 107 108
334 3 105 107 108 109
335 2 106 111 116 121
336 3 108 109 110 112
337 3 109 110 112 113
338 3 110 112 113 114
339 3 113 114 115 117
340 3 114 115 117 118
341 3 115 117 118 119
342 3 118 119 120 122
343 3 119 120 122 123
344 3 120 122 123 124
345 2 126 131 136 141
346 3 128 129 130 132
347 3 129 130 132 133
348 3 130 132 133 134
349 2 131 136 141 146
350 3 133 134 135 137
351 3 134 135 137 138
352 3 135 137 138 139
353 2 136 141 146 151
354 3 138 139 140 142
355 3 139 140 142 143
356 3 140 142 143 144
357 2 141 146 151 156
358 3 143 144 145 147
359 3 144 145 147 148
360 3 145 147 148 149
361 2 146 151 156 161
362 3 148 149 150 152
363 3 149 150 152 153
364 3 150 152 153 154
365 2 151 156 161 166
366 3 153 154 155 157
367 3 154 155 157 158
368 3 155 157 158 159
369 2 156 161 166 171
370 3 158 159 160 162
371 3 159 160 162 163
372 3 160 162 163 164
373 2 161 166 171 176
374 3 163 164 165 167
375 3 164 165 167 168
376 3 165 167 168 169
377 2 166 171 176 181
378 3 168 169 170 172
379 3 169 170 172 173
380 3 170 172 173 174
381 2 171 176 181 186
382 3 173 174 175 177
383 3 174 175 177 178
384 3 175 177 178 179
385 2 176 181 186 191
386 3 178 179 180 182
387 3 179 180 182 183
388 3 180 182 183 184
389 2 181 186 191 196
390 3 183 184 185 187
391 3 184 185 187 188
392 3 185 187 188 189
393 2 186 191 196 201
394 3 188 189 190 192
395 3 189 190 192 193
396 3 190 192 193 194
397 2 191 196 201 206
398 3 193 194 195 197
399 3 194 195 197 198
400 3 195 197 198 199
401 2 196 201 206 211
402 3 198 199 200 202
403 3 199 200 202 203
404 3 200 202 203 204
405 2 201 206 211 216
406 3 203 204 205 207
407 3 204 205 207 208
408 3 205 207 208 209
409 2 206 211 216 221
410 3 208 209 210 212
411 3 209 210 212 213
412 3 210 212 213 214
413 2 211 216 221 226
414 3 213 214 215 217
415 3 214 215 217 218
416 3 215 217 218 219
417 2 216 221 226 231
418 3 218 219 220 222
419 3 219 220 222 223
420 3 220 222 223 224
421 2 221 226 231 236
422 3 223 224 225 227
423 3 224 225 227 228
424 3 225 227 228 229
425 2 226 231 236 241
426 3 228 229 230 232
427 3 229 230 232 233
428 3 230 232 233 234
429 2 231 236 241 246
430 3 233 234 235 237
431 3 234 235 237 238
432 3 235 237 238 239
433 3 238 239 240 242
434 3 239 240 242 243
435 3 240 242 243 244
436 3 243 244 245 247
437 3 244 245 247 248
438 3 245 247 248 249
439 2 251 256 261 266
440 3 253 254 255 257
441 3 254 255 257 258
442 3 255 257 258 259
443 2 256 261 266 271
444 3 258 259 260 262
445 3 259 260 262 263
446 3 260 262 263 264
447 2 261 266 271 276
448 3 263 264 265 267
449 3 264 265 267 268
450 3 265 267 268 269
451 2 266 271 276 281
452 3 268 269 270 272
453 3 269 270 272 273
454 3 270 272 273 274
455 2 271 276 281 286
456 3 273 274 275 277
457 3 274 275 277 278
458 3 275 277 278 279
459 2 276 281 286 291
460 3 278 279 280 282
461 3 279 280 282 283
462 3 280 282 283 284
463 2 281 286 291 296
464 3 283 284 285 287
465 3 284 285 287 288
466 3 285 287 288 289
467 2 286 291 296 301
468 3 288 289 290 292
469 3 289 290 292 293
470 3 290 292 293 294
471 2 291 296 301 306
472 3 293 294 295 297
473 3 294 295 297 298
474 3 295 297 298 299
475 2 296 301 306 311
476 3 298 299 300 302
477 3 299 300 302 303
478 3 300 302 303 304
479 2 301 306 311 316
480 3 303 304 305 307
481 3 304 305 307 308
482 3 305 307 308 309
483 2 306 311 316 321
484 3 308 309 310 312
485 3 309 310 312 313
486 3 310 312 313 314
487 2 311 316 321 326
488 3 313 314 315 317
489 3 314 315 317 318
490 3 315 317 318 319
491 2 316 321 326 331
492 3 318 319 320 322
493 3 319 320 322 323
494 3 320 322 323 324
495 2 321 326 331 336
496 3 323 324 325 327
497 3 324 325 327 328
498 3 325 327 328 329
499 2 326 331 336 341
500 3 328 329 330 332
501 3 329 330 332 333
502 3 330 332 333 334
503 2 331 336 341 346
504 3 333 334 335 337
505 3 334 335 337 338
506 3 335 337 338 339
507 2 336 341 346 351
508 3 338 339 340 342
509 3 339 340 342 343
510 3 340 342 343 344
511 2 341 346 351 356
512 3 343 344 345 347
513 3 344 345 347 348
514 3 345 347 348 349
515 2 346 351 356 361
516 3 348 349 350 352
517 3 349 350 352 353
518 3 350 352 353 354
519 2 351 356 361 366
520 3 353 354 355 357
521 3 354 355 357 358
522 3 355 357 358 359
523 2 356 361 366 371
524 3 358 359 360 362
525 3 359 360 362 363
526 3 360 362 363 364
527 3 363 364 365 367
528 3 364 365 367 368
529 3 365 367 368 369
530 3 368 369 370 372
531 3 369 370 372 373
532 3 370 372 373 374
533 2 376 381 386 391
534 3 378 379 380 382
535 3 379 380 382 383
536 3 380 382 383 384
537 2 381 386 391 396
538 3 383 384 385 387
539 3 384 385 387 388
540 3 385 387 388 389
541 2 386 391 396 401
542 3 388 389 390 392
543 3 389 390 392 393
544 3 390 392 393 394
545 2 391 396 401 406
546 3 393 394 395 397
547 3 394 395 397 398
548 3 395 397 398 399
549 2 396 401 406 411
550 3 398 399 400 402
551 3 399 400 402 403
552 3 400 402 403 404
553 2 401 406 411 416
554 3 403 404 405 407
555 3 404 405 407 408
556 3 405 407 408 409
557 2 406 411 416 421
558 3 408 409 410 412
559 3 409 410 412 413
560 3 410 412 413 414
561 2 411 416 421 426
562 3 413 414 415 417
563 3 414 415 417 418
564 3 415 417 418 419
565 2 416 421 426 431
566 3 418 419 420 422
567 3 419 420 422 423
568 3 420 422 423 424
569 2 421 426 431 436
570 3 423 424 425 427
571 3 424 425 427 428
572 3 425 427 428 429
573 2 426 431 436 441
574 3 428 429 430 432
575 3 429 430 432 433
576 3 430 432 433 434
577 2 431 436 441 446
578 3 433 434 435 437
579 3 434 435 437 438
580 3 435 437 438 439
581 2 436 441 446 451
582 3 438 439 440 442
583 3 439 440 442 443
584 3 440 442 443 444
585 2 441 446 451 456
586 3 443 444 445 447
587 3 444 445 447 448
588 3 445 447 448 449
589 2 446 451 456 461
590 3 448 449 450 452
591 3 449 450 452 453
592 3 450 452 453 454
593 2 451 456 461 466
594 3 453 454 455 457
595 3 454 455 457 458
596 3 455 457 458 459
597 2 456 461 466 471
598 3 458 459 460 462
599 3 459 460 462 463
600 3 460 462 463 464
601 2 461 466 471 476
602 3 463 464 465 467
603 3 464 465 467 468
604 3 465 467 468 469
605 2 466 471 476 481
606 3 468 469 470 472
607 3 469 470 472 473
608 3 470 472 473 474
609 2 471 476 481 486
610 3 473 474 475 477
611 3 474 475 477 478
612 3 475 477 478 479
613 2 476 481 486 491
614 3 478 479 480 482
615 3 479 480 482 483
616 3 480 482 483 484
617 2 481 486 491 496
618 3 483 484 485 487
619 3 484 485 487 488
620 3 485 487 488 489
621 3 488 489 490 492
622 3 489 490 492 493
623 3 490 492 493 494
624 3 493 494 495 497
625 3 494 495 497 498
626 3 495 497 498 499
627 2 501 506 511 516
628 3 503 504 505 507
629 3 504 505 507 508
630 3 505 507 508 509
631 2 506 511 516 521
632 3 508 509 510 512
633 3 509 510 512 513
634 3 510 512 513 514
635 2 511 516 521 526
636 3 513 514 515 517
637 3 514 515 517 518
638 3 515 517 518 519
639 2 516 521 526 531
640 3 518 519 520 522
641 3 519 520 522 523
642 3 520 522 523 524
643 2 521 526 531 536
644 3 523 524 525 527
645 3 524 525 527 528
646 3 525 527 528 529
647 2 526 531 536 541
648 3 528 529 530 532
649 3 529 530 532 533
650 3 530 532 533 534
651 2 531 536 541 546
652 3 533 534 535 537
653 3 534 535 537 538
654 3 535 537 538 539
655 2 536 541 546 551
656 3 538 539 540 542
657 3 539 540 542 543
658 3 540 542 543 544
659 2 541 546 551 556
660 3 543 544 545 547
661 3 544 545 547 548
662 3 545 547 548 549
663 2 546 551 556 561
664 3 548 549 550 552
665 3 549 550 552 553
666 3 550 552 553 554
667 2 551 556 561 566
668 3 553 554 555 557
669 3 554 555 557 558
670 3 555 557 558 559
671 2 556 561 566 571
672 3 558 559 560 562
673 3 559 560 562 563
674 3 560 562 563 564
675 2 561 566 571 576
676 3 563 564 565 567
677 3 564 565 567 568
678 3 565 567 568 569
679 2 566 571 576 581
680 3 568 569 570 572
681 3 569 570 572 573
682 3 570 572 573 574
683 2 571 576 581 586
684 3 573 574 575 577
685 3 574 575 577 578
686 3 575 577 578 579
687 2 576 581 586 591
688 3 578 579 580 582
689 3 579 580 582 583
690 3 580 582 583 584
691 2 581 586 591 596
692 3 583 584 585 587
693 3 584 585 587 588
694 3 585 587 588 589
695 2 586 591 596 601
696 3 588 589 590 592
697 3 589 590 592 593
698 3 590 592 593 594
699 2 591 596 601 606
700 3 593 594 595 597
701 3 594 595 597 598
702 3 595 597 598 599
703 2 596 601 606 611
704 3 598 599 600 602
705 3 599 600 602 603
706 3 600 602 603 604
707 2 601 606 611 616
708 3 603 604 605 607
709 3 604 605 607 608
710 3 605 607 608 609
711 2 606 611 616 621
712 3 608 609 610 612
713 3 609 610 612 613
714 3 610 612 613 614
715 3 613 614 615 617
716 3 614 615 617 618
717 3 615 617 618 619
718 3 618 619 620 622
719 3 619 620 622 623
720 3 620 622 623 624
721 2 626 631 636 641
722 3 628 629 630 632
723 3 629 630 632 633
724 3 630 632 633 634
725 2 631 636 641 646
726 3 633 634 635 637
727 3 634 635 637 638
728 3 635 637 638 639
729 2 636 641 646 651
730 3 638 639 640 642
731 3 639 640 642 643
732 3 640 642 643 644
733 2 641 646 651 656
734 3 643 644 645 647
735 3 644 645 647 648
736 3 645 647 648 649
737 2 646 651 656 661
738 3 648 649 650 652
739 3 649 650 652 653
740 3 650 652 653 654
741 2 651 656 661 666
742 3 653 654 655 657
743 3 654 655 657 658
744 3 655 657 658 659
745 2 656 661 666 671
746 3 658 659 660 662
747 3 659 660 662 663
748 3 660 662 663 664
749 2 661 666 671 676
750 3 663 664 665 667
751 3 664 665 667 668
752 3 665 667 668 669
753 2 666 671 676 681
754 3 668 669 670 672
755 3 669 670 672 673
756 3 670 672 673 674
757 2 671 676 681 686
758 3 673 674 675 677
759 3 674 675 677 678
760 3 675 677 678 679
761 2 676 681 686 691
762 3 678 679 680 682
763 3 679 680 682 683
764 3 680 682 683 684
765 2 681 686 691 696
766 3 683 684 685 687
767 3 684 685 687 688
768 3 685 687 688 689
769 2 686 691 696 701
770 3 688 689 690 692
771 3 689 690 692 693
772 3 690 692 693 694
773 2 691 696 701 706
774 3 693 694 695 697
775 3 694 695 697 698
776 3 695 697 698 699
777 2 696 701 706 711
778 3 698 699 700 702
779 3 699 700 702 703
780 3 700 702 703 704
781 2 701 706 711 716
782 3 703 704 705 707
783 3 704 705 707 708
784 3 705 707 708 709
785 2 706 711 716 721
786 3 708 709 710 712
787 3 709 710 712 713
788 3 710 712 713 714
789 2 711 716 721 726
790 3 713 714 715 717
791 3 714 715 717 718
792 3 715 717 718 719
793 2 716 721 726 731
794 3 718 719 720 722
795 3 719 720 722 723
796 3 720 722 723 724
797 2 721 726 731 736
798 3 723 724 725 727
799 3 724 725 727 728
800 3 725 727 728 729
801 2 726 731 736 741
802 3 728 729 730 732
803 3 729 730 732 733
804 3 730 732 733 734
805 2 731 736 741 746
806 3 733 734 735 737
807 3 734 735 737 738
808 3 735 737 738 739
809 3 738 739 740 742
810 3 739 740 742 743
811 3 740 742 743 744
812 3 743 744 745 747
813 3 744 745 747 748
814 3 745 747 748 749
815 2 751 756 761 766
816 3 753 754 755 757
817 3 754 755 757 758
818 3 755 757 758 759
819 2 756 761 766 771
820 3 758 759 760 762
821 3 759 760 762 763
822 3 760 762 763 764
823 2 761 766 771 776
824 3 763 764 765 767
825 3 764 765 767 768
826 3 765 767 768 769
827 2 766 771 776 781
828 3 768 769 770 772
829 3 769 770 772 773
830 3 770 772 773 774
831 2 771 776 781 786
832 3 773 774 775 777
833 3 774 775 777 778
834 3 775 777 778 779
835 2 776 781 786 791
836 3 778 779 780 782
837 3 779 780 782 783
838 3 780 782 783 784
839 2 781 786 791 796
840 3 783 784 785 787
841 3 784 785 787 788
842 3 785 787 788 789
843 2 786 791 796 801
844 3 788 789 790 792
845 3 789 790 792 793
846 3 790 792 793 794
847 2 791 796 801 806
848 3 793 794 795 797
849 3 794 795 797 798
850 3 795 797 798 799
851 2 796 801 806 811
852 3 798 799 800 802
853 3 799 800 802 803
854 3 800 802 803 804
855 2 801 806 811 816
856 3 803 804 805 807
857 3 804 805 807 808
858 3 805 807 808 809
859 2 806 811 816 821
860 3 808 809 810 812
861 3 809 810 812 813
862 3 810 812 813 814
863 2 811 816 821 826
864 3 813 814 815 817
865 3 814 815 817 818
866 3 815 817 818 819
867 2 816 821 826 831
868 3 818 819 820 822
869 3 819 820 822 823
870 3 820 822 823 824
871 2 821 826 831 836
872 3 823 824 825 827
873 3 824 825 827 828
874 3 825 827 828 829
875 2 826 831 836 841
876 3 828 829 830 832
877 3 829 830 832 833
878 3 830 832 833 834
879 2 831 836 841 846
880 3 833 834 835 837
881 3 834 835 837 838
882 3 835 837 838 839
883 2 836 841 846 851
884 3 838 839 840 842
885 3 839 840 842 843
886 3 840 842 843 844
887 2 841 846 851 856
888 3 843 844 845 847
889 3 844 845 847 848
890 3 845 847 848 849
891 2 846 851 856 861
892 3 848 849 850 852
893 3 849 850 852 853
894 3 850 852 853 854
895 2 851 856 861 866
896 3 853 854 855 857
897 3 854 855 857 858
898 3 855 857 858 859
899 2 856 861 866 871
900 3 858 859 860 862
901 3 859 860 862 863
902 3 860 862 863 864
903 3 863 864 865 867
904 3 864 865 867 868
905 3 865 867 868 869
906 3 868 869 870 872
907 3 869 870 872 873
908 3 870 872 873 874
909 2 876 881 886 891
910 3 878 879 880 882
911 3 879 880 882 883
912 3 880 882 883 884
913 2 881 886 891 896
914 3 883 884 885 887
915 3 884 885 887 888
916 3 885 887 888 889
917 2 886 891 896 901
918 3 888 889 890 892
919 3 889 890 892 893
920 3 890 892 893 894
921 2 891 896 901 906
922 3 893 894 895 897
923 3 894 895 897 898
924 3 895 897 898 899
925 2 896 901 906 911
926 3 898 899 900 902
927 3 899 900 902 903
928 3 900 902 903 904
929 2 901 906 911 916
930 3 903 904 905 907
931 3 904 905 907 908
932 3 905 907 908 909
933 2 906 911 916 921
934 3 908 909 910 912
935 3 909 910 912 913
936 3 910 912 913 914
937 2 911 916 921 926
938 3 913 914 915 917
939 3 914 915 917 918
940 3 915 917 918 919
941 2 916 921 926 931
942 3 918 919 920 922
943 3 919 920 922 923
944 3 920 922 923 924
945 2 921 926 931 936
946 3 923 924 925 927
947 3 924 925 927 928
948 3 925 927 928 929
949 2 926 931 936 941
950 3 928 929 930 932
951 3 929 930 932 933
952 3 930 932 933 934
953 2 931 936 941 946
954 3 933 934 935 937
955 3 934 935 937 938
956 3 935 937 938 939
957 2 936 941 946 951
958 3 938 939 940 942
959 3 939 940 942 943
960 3 940 942 943 944
961 2 941 946 951 956
962 3 943 944 945 947
963 3 944 945 947 948
964 3 945 947 948 949
965 2 946 951 956 961
966 3 948 949 950 952
967 3 949 950 952 953
968 3 950 952 953 954
969 2 951 956 961 966
970 3 953 954 955 957
971 3 954 955 957 958
972 3 955 957 958 959
973 2 956 961 966 971
974 3 958 959 960 962
975 3 959 960 962 963
976 3 960 962 963 964
977 2 961 966 971 976
978 3 963 964 965 967
979 3 964 965 967 968
980 3 965 967 968 969
981 2 966 971 976 981
982 3 968 969 970 972
983 3 969 970 972 973
984 3 970 972 973 974
985 2 971 976 981 986
986 3 973 974 975 977
987 3 974 975 977 978
988 3 975 977 978 979
989 2 976 981 986 991
990 3 978 979 980 982
991 3 979 980 982 983
992 3 980 982 983 984
993 2 981 986 991 996
994 3 983 984 985 987
995 3 984 985 987 988
996 3 985 987 988 989
997 3 988 989 990 992
998 3 989 990 992 993
999 3 990 992 993 994
1000 3 993 994 995 997
1001 3 994 995 997 998
1002 3 995 997 998 999
1003 2 1001 1006 1011 1016
1004 3 1003 1004 1005 1007
1005 3 1004 1005 1007 1008
1006 3 1005 1007 1008 1009
1007 2 1006 1011 1016 1021
1008 3 1008 1009 1010 1012
1009 3 1009 1010 1012 1013
1010 3 1010 1012 1013 1014
1011 2 1011 1016 1021 1026
1012 3 1013 1014 1015 1017
1013 3 1014 1015 1017 1018
1014 3 1015 1017 1018 1019
1015 2 1016 1021 1026 1031
1016 3 1018 1019 1020 1022
1017 3 1019 1020 1022 1023
1018 3 1020 1022 1023 1024
1019 2 1021 1026 1031 1036
1020 3 1023 1024 1025 1027
1021 3 1024 1025 1027 1028
1022 3 1025 1027 1028 1029
1023 2 1026 1031 1036 1041
1024 3 1028 1029 1030 1032
1025 3 1029 1030 1032 1033
1026 3 1030 1032 1033 1034
1027 2 1031 1036 1041 1046
1028 3 1033 1034 1035 1037
1029 3 1034 1035 1037 1038
1030 3 1035 1037 1038 1039
1031 2 1036 1041 1046 1051
1032 3 1038 1039 1040 1042
1033 3 1039 1040 1042 1043
1034 3 1040 1042 1043 1044
1035 2 1041 1046 1051 1056
1036 3 1043 1044 1045 1047
1037 3 1044 1045 1047 1048
1038 3 1045 1047 1048 1049
1039 2 1046 1051 1056 1061
1040 3 1048 1049 1050 1052
1041 3 1049 1050 1052 1053
1042 3 1050 1052 1053 1054
1043 2 1051 1056 1061 1066
1044 3 1053 1054 1055 1057
1045 3 1054 1055 1057 1058
1046 3 1055 1057 1058 1059
1047 2 1056 1061 1066 1071
1048 3 1058 1059 1060 1062
1049 3 1059 1060 1062 1063
1050 3 1060 1062 1063 1064
1051 2 1061 1066 1071 1076
1052 3 1063 1064 1065 1067
1053 3 1064 1065 1067 1068
1054 3 1065 1067 1068 1069
1055 2 1066 1071 1076 1081
1056 3 1068 1069 1070 1072
1057 3 1069 1070 1072 1073
1058 3 1070 1072 1073 1074
1059 2 1071 1076 1081 1086
1060 3 1073 1074 1075 1077
1061 3 1074 1075 1077 1078
1062 3 1075 1077 1078 1079
1063 2 1076 1081 1086 1091
1064 3 1078 1079 1080 1082
1065 3 1079 1080 1082 1083
1066 3 1080 1082 1083 1084
1067 2 1081 1086 1091 1096
1068 3 1083 1084 1085 1087
1069 3 1084 1085 1087 1088
1070 3 1085 1087 1088 1089
1071 2 1086 1091 1096 1101
1072 3 1088 1089 1090 1092
1073 3 1089 1090 1092 1093
1074 3 1090 1092 1093 1094
1075 2 1091 1096 1101 1106
1076 3 1093 1094 1095 1097
1077 3 1094 1095 1097 1098
1078 3 1095 1097 1098 1099
1079 2 1096 1101 1106 1111
1080 3 1098 1099 1100 1102
1081 3 1099 1100 1102 1103
1082 3 1100 1102 1103 1104
1083 2 1101 1106 1111 1116
1084 3 1103 1104 1105 1107
1085 3 1104 1105 1107 1108
1086 3 1105 1107 1108 1109
1087 2 1106 1111 1116 1121
1088 3 1108 1109 1110 1112
1089 3 1109 1110 1112 1113
1090 3 1110 1112 1113 1114
1091 3 1113 1114 1115 1117
1092 3 1114 1115 1117 1118
1093 3 1115 1117 1118 1119
1094 3 1118 1119 1120 1122
1095 3 1119 1120 1122 1123
1096 3 1120 1122 1123 1124
1097 2 1126 1131 1136 1141
1098 3 1128 1129 1130 1132
1099 3 1129 1130 1132 1133
1100 3 1130 1132 1133 1134
1101 2 1131 1136 1141 1146
1102 3 1133 1134 1135 1137
1103 3 1134 1135 1137 1138
1104 3 1135 1137 1138 1139
1105 2 1136 1141 1146 1151
1106 3 1138 1139 1140 1142
1107 3 1139 1140 1142 1143
1108 3 1140 1142 1143 1144
1109 2 1141 1146 1151 1156
1110 3 1143 1144 1145 1147
1111 3 1144 1145 1147 1148
1112 3 1145 1147 1148 1149
1113 2 1146 1151 1156 1161
1114 3 1148 1149 1150 1152
1115 3 1149 1150 1152 1153
1116 3 1150 1152 1153 1154
1117 2 1151 1156 1161 1166
1118 3 1153 1154 1155 1157
1119 3 1154 1155 1157 1158
1120 3 1155 1157 1158 1159
1121 2 1156 1161 1166 1171
1122 3 1158 1159 1160 1162
1123 3 1159 1160 1162 1163
1124 3 1160 1162 1163 1164
1125 2 1161 1166 1171 1176
1126 3 1163 1164 1165 1167
1127 3 1164 1165 1167 1168
1128 3 1165 1167 1168 1169
1129 2 1166 1171 1176 1181
1130 3 1168 1169 1170 1172
1131 3 1169 1170 1172 1173
1132 3 1170 1172 1173 1174
1133 2 1171 1176 1181 1186
1134 3 1173 1174 1175 1177
1135 3 1174 1175 1177 1178
1136 3 1175 1177 1178 1179
1137 2 1176 1181 1186 1191
1138 3 1178 1179 1180 1182
1139 3 1179 1180 1182 1183
1140 3 1180 1182 1183 1184
1141 2 1181 1186 1191 1196
1142 3 1183 1184 1185 1187
1143 3 1184 1185 1187 1188
1144 3 1185 1187 1188 1189
1145 2 1186 1191 1196 1201
1146 3 1188 1189 1190 1192
1147 3 1189 1190 1192 1193
1148 3 1190 1192 1193 1194
1149 2 1191 1196 1201 1206
1150 3 1193 1194 1195 1197
1151 3 1194 1195 1197 1198
1152 3 1195 1197 1198 1199
1153 2 1196 1201 1206 1211
1154 3 1198 1199 1200 1202
1155 3 1199 1200 1202 1203
1156 3 1200 1202 1203 1204
1157 2 1201 1206 1211 1216
1158 3 1203 1204 1205 1207
1159 3 1204 1205 1207 1208
1160 3 1205 1207 1208 1209
1161 2 1206 1211 1216 1221
1162 3 1208 1209 1210 1212
1163 3 1209 1210 1212 1213
1164 3 1210 1212 1213 1214
1165 2 1211 1216 1221 1226
1166 3 1213 1214 1215 1217
1167 3 1214 1215 1217 1218
1168 3 1215 1217 1218 1219
1169 2 1216 1221 1226 1231
1170 3 1218 1219 1220 1222
1171 3 1219 1220 1222 1223
1172 3 1220 1222 1223 1224
1173 2 1221 1226 1231 1236
1174 3 1223 1224 1225 1227
1175 3 1224 1225 1227 1228
1176 3 1225 1227 1228 1229
1177 2 1226 1231 1236 1241
1178 3 1228 1229 1230 1232
1179 3 1229 1230 1232 1233
1180 3 1230 1232 1233 1234
1181 2 1231 1236 1241 1246
1182 3 1233 1234 1235 1237
1183 3 1234 1235 1237 1238
1184 3 1235 1237 1238 1239
1185 3 1238 1239 1240 1242
1186 3 1239 1240 1242 1243
1187 3 1240 1242 1243 1244
1188 3 1243 1244 1245 1247
1189 3 1244 1245 1247 1248
1190 3 1245 1247 1248 1249
