LAMMPS data file for backmapping — generated by backmap-prep

1500 atoms
1480 bonds
1460 angles
1440 dihedrals
0 impropers

4 atom types
3 bond types
3 angle types
2 dihedral types
0 improper types

0.0 60.185500 xlo xhi
0.0 60.185500 ylo yhi
0.0 60.185500 zlo zhi

Masses

1 29.062000 # A (CG)
2 15.035000 # CH3
3 14.027000 # CH2
4 28.054000 # B (CG)

Atoms # full

1 1 1 0 27.140000 15.210000 53.010000 0 0 0
2 1 2 0 26.520000 14.990000 53.340000 0 0 0
3 1 3 0 27.810000 15.450000 52.650000 0 0 0
4 2 4 0 28.490000 15.600000 50.950000 0 0 0
5 2 3 0 27.860000 15.370000 51.300000 0 0 0
6 2 3 0 29.130000 15.830000 50.600000 0 0 0
7 3 4 0 27.610000 15.790000 48.760000 0 0 0
8 3 3 0 26.990000 15.540000 49.130000 0 0 0
9 3 3 0 28.230000 16.040000 48.390000 0 0 0
10 4 4 0 26.730000 15.240000 46.600000 0 0 0
11 4 3 0 26.140000 14.960000 47.000000 0 0 0
12 4 3 0 27.320000 15.520000 46.210000 0 0 0
13 5 4 0 25.170000 13.360000 46.270000 0 0 0
14 5 3 0 24.610000 13.040000 46.670000 0 0 0
15 5 3 0 25.740000 13.680000 45.870000 0 0 0
16 6 4 0 25.420000 11.430000 45.020000 0 0 0
17 6 3 0 24.840000 11.100000 45.390000 0 0 0
18 6 3 0 25.990000 11.770000 44.650000 0 0 0
19 7 4 0 24.130000 9.640000 43.920000 0 0 0
20 7 3 0 23.500000 9.340000 44.230000 0 0 0
21 7 3 0 24.750000 9.940000 43.600000 0 0 0
22 8 4 0 22.570000 8.590000 45.340000 0 0 0
23 8 3 0 21.880000 8.390000 45.590000 0 0 0
24 8 3 0 23.260000 8.790000 45.090000 0 0 0
25 9 4 0 23.120000 7.680000 47.460000 0 0 0
26 9 3 0 22.400000 7.620000 47.710000 0 0 0
27 9 3 0 23.840000 7.750000 47.220000 0 0 0
28 10 4 0 23.380000 7.380000 49.970000 0 0 0
29 10 3 0 22.700000 7.400000 50.310000 0 0 0
30 10 3 0 24.060000 7.360000 49.630000 0 0 0
31 11 4 0 21.190000 7.050000 51.170000 0 0 0
32 11 3 0 20.620000 7.010000 51.680000 0 0 0
33 11 3 0 21.760000 7.100000 50.660000 0 0 0
34 12 4 0 19.530000 6.460000 52.780000 0 0 0
35 12 3 0 19.140000 6.190000 53.370000 0 0 0
36 12 3 0 19.920000 6.740000 52.190000 0 0 0
37 13 4 0 18.610000 5.030000 54.690000 0 0 0
38 13 3 0 18.330000 4.480000 55.140000 0 0 0
39 13 3 0 18.890000 5.570000 54.240000 0 0 0
40 14 4 0 20.390000 4.490000 56.130000 0 0 0
41 14 3 0 20.030000 3.840000 56.280000 0 0 0
42 14 3 0 20.750000 5.150000 55.980000 0 0 0
43 15 4 0 22.200000 2.960000 55.460000 0 0 0
44 15 3 0 21.600000 2.510000 55.340000 0 0 0
45 15 3 0 22.800000 3.410000 55.570000 0 0 0
46 16 4 0 21.490000 0.980000 54.220000 0 0 0
47 16 3 0 20.740000 0.990000 54.120000 0 0 0
48 16 3 0 22.240000 0.980000 54.310000 0 0 0
49 17 4 0 22.310000 58.750000 54.400000 0 -1 0
50 17 3 0 21.660000 59.060000 54.650000 0 -1 0
51 17 3 0 22.960000 58.440000 54.150000 0 -1 0
52 18 4 0 20.760000 57.550000 55.820000 0 -1 0
53 18 3 0 20.340000 57.720000 56.430000 0 -1 0
54 18 3 0 21.190000 57.380000 55.210000 0 -1 0
55 19 4 0 19.800000 56.620000 57.960000 0 -1 0
56 19 3 0 19.490000 56.360000 58.600000 0 -1 0
57 19 3 0 20.110000 56.880000 57.320000 0 -1 0
58 20 4 0 19.380000 55.240000 59.870000 0 -1 0
59 20 3 0 18.940000 54.740000 0.054500 0 -1 1
60 20 3 0 19.820000 55.740000 59.500000 0 -1 0
61 21 4 0 17.570000 54.390000 1.040000 0 -1 1
62 21 3 0 16.920000 54.050000 1.220000 0 -1 1
63 21 3 0 18.220000 54.740000 0.860000 0 -1 1
64 22 4 0 15.900000 56.040000 0.350000 0 -1 1
65 22 3 0 15.200000 55.950000 0.640000 0 -1 1
66 22 3 0 16.590000 56.130000 0.060000 0 -1 1
67 23 4 0 14.570000 56.110000 58.370000 0 -1 0
68 23 3 0 14.020000 55.980000 58.880000 0 -1 0
69 23 3 0 15.120000 56.230000 57.860000 0 -1 0
70 24 4 0 13.870000 57.710000 56.650000 0 -1 0
71 24 3 0 13.460000 57.280000 57.120000 0 -1 0
72 24 3 0 14.280000 58.140000 56.180000 0 -1 0
73 25 4 0 15.190000 59.530000 56.040000 0 -1 0
74 25 3 0 14.750000 58.930000 56.160000 0 -1 0
75 25 3 0 15.640000 60.140000 55.920000 0 -1 0
76 26 4 0 16.690000 0.760000 56.970000 0 0 0
77 26 3 0 16.050000 0.400000 56.810000 0 0 0
78 26 3 0 17.340000 1.120000 57.130000 0 0 0
79 27 4 0 18.860000 0.580000 58.080000 0 0 0
80 27 3 0 18.110000 0.700000 58.030000 0 0 0
81 27 3 0 19.600000 0.450000 58.130000 0 0 0
82 28 4 0 20.710000 0.610000 59.630000 0 0 0
83 28 3 0 20.180000 0.990000 60.020000 0 0 0
84 28 3 0 21.230000 0.230000 59.230000 0 0 0
85 29 4 0 21.540000 2.910000 59.900000 0 0 0
86 29 3 0 21.350000 3.050000 0.434500 0 0 1
87 29 3 0 21.720000 2.770000 59.180000 0 0 0
88 30 4 0 20.500000 4.510000 1.150000 0 0 1
89 30 3 0 20.440000 4.160000 1.820000 0 0 1
90 30 3 0 20.560000 4.860000 0.480000 0 0 1
91 31 4 0 21.440000 6.590000 2.070000 0 0 1
92 31 3 0 21.170000 5.930000 2.350000 0 0 1
93 31 3 0 21.710000 7.250000 1.790000 0 0 1
94 32 4 0 20.830000 8.590000 0.720000 0 0 1
95 32 3 0 20.230000 8.120000 0.620000 0 0 1
96 32 3 0 21.430000 9.050000 0.820000 0 0 1
97 33 4 0 19.770000 10.550000 1.390000 0 0 1
98 33 3 0 19.020000 10.520000 1.260000 0 0 1
99 33 3 0 20.520000 10.570000 1.510000 0 0 1
100 34 4 0 17.680000 10.940000 2.590000 0 0 1
101 34 3 0 16.970000 11.120000 2.800000 0 0 1
102 34 3 0 18.390000 10.770000 2.380000 0 0 1
103 35 4 0 15.440000 11.220000 3.490000 0 0 1
104 35 3 0 14.950000 11.170000 4.070000 0 0 1
105 35 3 0 15.920000 11.260000 2.910000 0 0 1
106 36 4 0 14.150000 9.250000 4.070000 0 0 1
107 36 3 0 13.950000 8.790000 4.640000 0 0 1
108 36 3 0 14.340000 9.710000 3.490000 0 0 1
109 37 4 0 13.230000 8.530000 6.170000 0 0 1
110 37 3 0 13.050000 7.860000 6.490000 0 0 1
111 37 3 0 13.410000 9.190000 5.850000 0 0 1
112 38 4 0 11.940000 9.320000 7.980000 0 0 1
113 38 3 0 11.440000 8.770000 8.140000 0 0 1
114 38 3 0 12.440000 9.870000 7.820000 0 0 1
115 39 4 0 11.170000 8.650000 10.400000 0 0 1
116 39 3 0 10.430000 8.620000 10.540000 0 0 1
117 39 3 0 11.920000 8.680000 10.260000 0 0 1
118 40 4 0 9.410000 9.800000 11.390000 0 0 1
119 40 3 0 8.790000 10.220000 11.560000 0 0 1
120 40 3 0 10.020000 9.380000 11.210000 0 0 1
121 41 4 0 7.250000 10.580000 12.250000 0 0 1
122 41 3 0 6.700000 11.050000 12.510000 0 0 1
123 41 3 0 7.790000 10.110000 12.000000 0 0 1
124 42 4 0 4.850000 10.790000 11.230000 0 0 1
125 42 3 0 4.180000 10.900000 11.570000 0 0 1
126 42 3 0 5.520000 10.670000 10.890000 0 0 1
127 43 4 0 2.770000 9.420000 11.830000 0 0 1
128 43 3 0 2.240000 8.930000 12.080000 0 0 1
129 43 3 0 3.290000 9.910000 11.590000 0 0 1
130 44 4 0 0.750000 9.700000 10.500000 0 0 1
131 44 3 0 0.600000 8.960000 10.610000 0 0 1
132 44 3 0 0.900000 10.440000 10.390000 0 0 1
133 45 4 0 58.980000 8.590000 10.200000 -1 0 1
134 45 3 0 58.920000 7.860000 10.380000 -1 0 1
135 45 3 0 59.040000 9.330000 10.020000 -1 0 1
136 46 4 0 56.550000 8.390000 9.320000 -1 0 1
137 46 3 0 56.200000 7.840000 9.720000 -1 0 1
138 46 3 0 56.890000 8.940000 8.930000 -1 0 1
139 47 4 0 54.410000 9.580000 8.990000 -1 0 1
140 47 3 0 53.780000 9.490000 9.400000 -1 0 1
141 47 3 0 55.050000 9.670000 8.580000 -1 0 1
142 48 4 0 52.970000 9.030000 6.850000 -1 0 1
143 48 3 0 52.300000 9.230000 7.150000 -1 0 1
144 48 3 0 53.640000 8.820000 6.560000 -1 0 1
145 49 4 0 50.610000 9.560000 6.330000 -1 0 1
146 49 3 0 49.970000 9.760000 6.680000 -1 0 1
147 49 3 0 51.250000 9.370000 5.980000 -1 0 1
148 50 1 0 49.070000 10.450000 7.980000 -1 0 1
149 50 3 0 48.520000 10.440000 8.540000 -1 0 1
150 50 2 0 49.580000 10.450000 7.450000 -1 0 1
151 51 1 0 31.150000 0.134500 52.110000 0 1 0
152 51 2 0 30.530000 60.100000 52.440000 0 0 0
153 51 3 0 31.820000 0.374500 51.750000 0 1 0
154 52 4 0 32.720000 1.590000 52.940000 0 1 0
155 52 3 0 32.080000 1.360000 53.290000 0 1 0
156 52 3 0 33.360000 1.820000 52.590000 0 1 0
157 53 4 0 32.100000 1.970000 55.340000 0 1 0
158 53 3 0 31.480000 1.720000 55.710000 0 1 0
159 53 3 0 32.720000 2.220000 54.970000 0 1 0
160 54 4 0 32.160000 1.070000 57.610000 0 1 0
161 54 3 0 31.570000 0.790000 58.010000 0 1 0
162 54 3 0 32.750000 1.350000 57.220000 0 1 0
163 55 4 0 32.620000 58.990000 57.060000 0 0 0
164 55 3 0 32.060000 58.670000 57.460000 0 0 0
165 55 3 0 33.190000 59.310000 56.660000 0 0 0
166 56 4 0 32.370000 57.200000 55.530000 0 0 0
167 56 3 0 31.790000 56.860000 55.900000 0 0 0
168 56 3 0 32.950000 57.530000 55.160000 0 0 0
169 57 4 0 29.930000 56.890000 54.960000 0 0 0
170 57 3 0 29.300000 56.590000 55.270000 0 0 0
171 57 3 0 30.550000 57.190000 54.640000 0 0 0
172 58 4 0 28.330000 57.810000 56.390000 0 0 0
173 58 3 0 27.640000 57.610000 56.640000 0 0 0
174 58 3 0 29.020000 58.010000 56.140000 0 0 0
175 59 4 0 27.230000 58.670000 58.440000 0 0 0
176 59 3 0 26.510000 58.610000 58.690000 0 0 0
177 59 3 0 27.950000 58.730000 58.190000 0 0 0
178 60 4 0 28.920000 58.420000 60.150000 0 0 0
179 60 3 0 28.240000 58.440000 0.314500 0 0 1
180 60 3 0 29.600000 58.400000 59.800000 0 0 0
181 61 4 0 29.600000 58.480000 2.190000 0 0 1
182 61 3 0 29.040000 58.430000 2.700000 0 0 1
183 61 3 0 30.170000 58.530000 1.680000 0 0 1
184 62 4 0 30.020000 58.620000 4.700000 0 0 1
185 62 3 0 29.630000 58.350000 5.290000 0 0 1
186 62 3 0 30.410000 58.890000 4.110000 0 0 1
187 63 4 0 30.980000 0.544500 5.590000 0 1 1
188 63 3 0 30.700000 0.004500 6.040000 0 1 1
189 63 3 0 31.260000 1.094500 5.130000 0 1 1
190 64 4 0 31.830000 2.090000 7.320000 0 1 1
191 64 3 0 31.470000 1.440000 7.470000 0 1 1
192 64 3 0 32.190000 2.750000 7.170000 0 1 1
193 65 4 0 32.850000 3.670000 8.850000 0 1 1
194 65 3 0 32.240000 3.220000 8.730000 0 1 1
195 65 3 0 33.460000 4.120000 8.960000 0 1 1
196 66 4 0 34.890000 4.710000 9.860000 0 1 1
197 66 3 0 34.130000 4.720000 9.760000 0 1 1
198 66 3 0 35.640000 4.710000 9.960000 0 1 1
199 67 4 0 37.090000 4.920000 8.980000 0 1 1
200 67 3 0 36.440000 5.230000 9.230000 0 1 1
201 67 3 0 37.740000 4.610000 8.730000 0 1 1
202 68 4 0 37.640000 6.310000 6.920000 0 1 1
203 68 3 0 37.210000 6.480000 7.530000 0 1 1
204 68 3 0 38.060000 6.140000 6.320000 0 1 1
205 69 4 0 39.900000 6.610000 6.090000 0 1 1
206 69 3 0 39.590000 6.350000 6.730000 0 1 1
207 69 3 0 40.210000 6.870000 5.450000 0 1 1
208 70 4 0 41.330000 7.380000 4.430000 0 1 1
209 70 3 0 40.900000 6.880000 4.800000 0 1 1
210 70 3 0 41.760000 7.870000 4.060000 0 1 1
211 71 4 0 41.550000 5.970000 2.580000 0 1 1
212 71 3 0 40.900000 5.620000 2.760000 0 1 1
213 71 3 0 42.200000 6.320000 2.400000 0 1 1
214 72 4 0 43.140000 5.660000 0.870000 0 1 1
215 72 3 0 42.450000 5.570000 1.160000 0 1 1
216 72 3 0 43.830000 5.750000 0.580000 0 1 1
217 73 4 0 45.430000 4.740000 1.070000 0 1 1
218 73 3 0 44.880000 4.610000 1.580000 0 1 1
219 73 3 0 45.980000 4.860000 0.560000 0 1 1
220 74 4 0 46.540000 5.110000 59.210000 0 1 0
221 74 3 0 46.130000 4.670000 59.680000 0 1 0
222 74 3 0 46.950000 5.540000 58.740000 0 1 0
223 75 4 0 47.310000 4.210000 57.160000 0 1 0
224 75 3 0 46.870000 3.610000 57.280000 0 1 0
225 75 3 0 47.760000 4.820000 57.040000 0 1 0
226 76 4 0 49.510000 3.350000 57.450000 0 1 0
227 76 3 0 48.860000 2.990000 57.290000 0 1 0
228 76 3 0 50.150000 3.710000 57.610000 0 1 0
229 77 4 0 50.100000 2.330000 59.540000 0 1 0
230 77 3 0 49.350000 2.450000 59.490000 0 1 0
231 77 3 0 50.850000 2.200000 59.590000 0 1 0
232 78 4 0 52.140000 0.920000 59.970000 0 1 0
233 78 3 0 51.620000 1.300000 0.184500 0 1 1
234 78 3 0 52.670000 0.540000 59.570000 0 1 0
235 79 4 0 53.460000 2.210000 1.230000 0 1 1
236 79 3 0 53.280000 2.350000 1.960000 0 1 1
237 79 3 0 53.640000 2.070000 0.500000 0 1 1
238 80 4 0 54.840000 4.050000 2.040000 0 1 1
239 80 3 0 54.780000 3.700000 2.710000 0 1 1
240 80 3 0 54.900000 4.400000 1.370000 0 1 1
241 81 4 0 56.820000 5.510000 1.510000 0 1 1
242 81 3 0 56.550000 4.850000 1.790000 0 1 1
243 81 3 0 57.090000 6.170000 1.230000 0 1 1
244 82 4 0 57.850000 6.950000 0.030000 0 1 1
245 82 3 0 57.260000 6.480000 60.115500 0 1 0
246 82 3 0 58.450000 7.410000 0.130000 0 1 1
247 83 4 0 56.490000 8.560000 59.110000 0 1 0
248 83 3 0 55.740000 8.530000 58.980000 0 1 0
249 83 3 0 57.240000 8.580000 59.230000 0 1 0
250 84 4 0 55.690000 10.260000 57.420000 0 1 0
251 84 3 0 54.980000 10.440000 57.630000 0 1 0
252 84 3 0 56.400000 10.090000 57.210000 0 1 0
253 85 4 0 54.140000 12.160000 58.100000 0 1 0
254 85 3 0 53.650000 12.110000 58.680000 0 1 0
255 85 3 0 54.620000 12.200000 57.520000 0 1 0
256 86 4 0 51.800000 12.500000 58.940000 0 1 0
257 86 3 0 51.600000 12.040000 59.520000 0 1 0
258 86 3 0 51.990000 12.960000 58.370000 0 1 0
259 87 4 0 49.820000 12.200000 0.074500 0 1 1
260 87 3 0 49.650000 11.530000 0.394500 0 1 1
261 87 3 0 50.000000 12.860000 59.940000 0 1 0
262 88 4 0 48.130000 12.410000 1.840000 0 1 1
263 88 3 0 47.630000 11.860000 2.000000 0 1 1
264 88 3 0 48.630000 12.960000 1.680000 0 1 1
265 89 4 0 49.230000 13.330000 3.810000 0 1 1
266 89 3 0 48.490000 13.300000 3.950000 0 1 1
267 89 3 0 49.980000 13.360000 3.680000 0 1 1
268 90 4 0 49.000000 15.180000 5.270000 0 1 1
269 90 3 0 48.380000 15.600000 5.440000 0 1 1
270 90 3 0 49.620000 14.760000 5.100000 0 1 1
271 91 4 0 47.390000 14.800000 6.940000 0 1 1
272 91 3 0 46.840000 15.270000 7.190000 0 1 1
273 91 3 0 47.930000 14.330000 6.680000 0 1 1
274 92 4 0 44.920000 14.690000 7.360000 0 1 1
275 92 3 0 44.250000 14.800000 7.690000 0 1 1
276 92 3 0 45.590000 14.570000 7.030000 0 1 1
277 93 4 0 42.790000 14.170000 6.650000 0 1 1
278 93 3 0 42.260000 13.680000 6.900000 0 1 1
279 93 3 0 43.310000 14.660000 6.410000 0 1 1
280 94 4 0 40.820000 12.780000 7.580000 0 1 1
281 94 3 0 40.670000 12.040000 7.690000 0 1 1
282 94 3 0 40.970000 13.520000 7.470000 0 1 1
283 95 4 0 39.120000 11.770000 5.940000 0 1 1
284 95 3 0 39.060000 11.040000 6.120000 0 1 1
285 95 3 0 39.180000 12.510000 5.760000 0 1 1
286 96 4 0 37.070000 10.760000 6.430000 0 1 1
287 96 3 0 36.720000 10.210000 6.830000 0 1 1
288 96 3 0 37.410000 11.310000 6.040000 0 1 1
289 97 4 0 35.020000 9.500000 6.180000 0 1 1
290 97 3 0 34.390000 9.410000 6.590000 0 1 1
291 97 3 0 35.660000 9.590000 5.770000 0 1 1
292 98 4 0 34.750000 8.700000 8.560000 0 1 1
293 98 3 0 34.080000 8.900000 8.850000 0 1 1
294 98 3 0 35.420000 8.490000 8.270000 0 1 1
295 99 4 0 34.110000 10.220000 10.660000 0 1 1
296 99 3 0 33.470000 10.420000 11.020000 0 1 1
297 99 3 0 34.750000 10.030000 10.300000 0 1 1
298 100 1 0 34.640000 9.660000 12.940000 0 1 1
299 100 3 0 34.090000 9.650000 13.500000 0 1 1
300 100 2 0 35.150000 9.660000 12.410000 0 1 1
301 101 1 0 59.090000 23.990000 12.600000 0 0 0
302 101 2 0 58.470000 23.770000 12.930000 0 0 0
303 101 3 0 59.760000 24.230000 12.240000 0 0 0
304 102 4 0 57.520000 24.920000 11.110000 0 0 0
305 102 3 0 56.880000 24.690000 11.460000 0 0 0
306 102 3 0 58.160000 25.150000 10.760000 0 0 0
307 103 4 0 55.000000 24.240000 10.990000 0 0 0
308 103 3 0 54.380000 23.990000 11.360000 0 0 0
309 103 3 0 55.620000 24.490000 10.620000 0 0 0
310 104 4 0 53.090000 23.690000 12.430000 0 0 0
311 104 3 0 52.500000 23.410000 12.830000 0 0 0
312 104 3 0 53.680000 23.970000 12.040000 0 0 0
313 105 4 0 51.360000 22.910000 14.120000 0 0 0
314 105 3 0 50.800000 22.590000 14.520000 0 0 0
315 105 3 0 51.930000 23.230000 13.720000 0 0 0
316 106 4 0 49.950000 20.990000 14.600000 0 0 0
317 106 3 0 49.380000 20.660000 14.970000 0 0 0
318 106 3 0 50.530000 21.330000 14.230000 0 0 0
319 107 4 0 48.890000 19.920000 16.660000 0 0 0
320 107 3 0 48.270000 19.620000 16.970000 0 0 0
321 107 3 0 49.520000 20.220000 16.340000 0 0 0
322 108 4 0 46.760000 18.960000 17.270000 0 0 0
323 108 3 0 46.070000 18.760000 17.520000 0 0 0
324 108 3 0 47.450000 19.160000 17.020000 0 0 0
325 109 4 0 47.900000 17.000000 18.290000 0 0 0
326 109 3 0 47.180000 16.940000 18.530000 0 0 0
327 109 3 0 48.620000 17.070000 18.040000 0 0 0
328 110 4 0 48.120000 14.630000 18.030000 0 0 0
329 110 3 0 47.440000 14.650000 18.370000 0 0 0
330 110 3 0 48.800000 14.610000 17.680000 0 0 0
331 111 4 0 49.440000 12.840000 17.160000 0 0 0
332 111 3 0 48.880000 12.800000 17.670000 0 0 0
333 111 3 0 50.000000 12.880000 16.650000 0 0 0
334 112 4 0 51.650000 12.840000 18.000000 0 0 0
335 112 3 0 51.260000 12.560000 18.590000 0 0 0
336 112 3 0 52.040000 13.120000 17.410000 0 0 0
337 113 4 0 52.540000 12.000000 20.060000 0 0 0
338 113 3 0 52.260000 11.450000 20.510000 0 0 0
339 113 3 0 52.820000 12.540000 19.600000 0 0 0
340 114 4 0 54.500000 12.700000 21.160000 0 0 0
341 114 3 0 54.140000 12.050000 21.310000 0 0 0
342 114 3 0 54.860000 13.360000 21.010000 0 0 0
343 115 4 0 55.640000 13.330000 23.300000 0 0 0
344 115 3 0 55.030000 12.880000 23.180000 0 0 0
345 115 3 0 56.250000 13.780000 23.410000 0 0 0
346 116 4 0 55.210000 15.690000 23.920000 0 0 0
347 116 3 0 54.460000 15.700000 23.820000 0 0 0
348 116 3 0 55.960000 15.690000 24.010000 0 0 0
349 117 4 0 54.350000 16.940000 25.820000 0 0 0
350 117 3 0 53.700000 17.250000 26.070000 0 0 0
351 117 3 0 55.000000 16.630000 25.570000 0 0 0
352 118 4 0 55.420000 17.530000 28.060000 0 0 0
353 118 3 0 54.990000 17.700000 28.670000 0 0 0
354 118 3 0 55.850000 17.360000 27.460000 0 0 0
355 119 4 0 55.950000 19.840000 28.810000 0 0 0
356 119 3 0 55.640000 19.580000 29.450000 0 0 0
357 119 3 0 56.260000 20.100000 28.170000 0 0 0
358 120 4 0 56.660000 21.800000 30.330000 0 0 0
359 120 3 0 56.230000 21.310000 30.700000 0 0 0
360 120 3 0 57.100000 22.290000 29.960000 0 0 0
361 121 4 0 55.550000 23.760000 29.710000 0 0 0
362 121 3 0 54.900000 23.410000 29.890000 0 0 0
363 121 3 0 56.200000 24.100000 29.530000 0 0 0
364 122 4 0 54.730000 24.630000 27.560000 0 0 0
365 122 3 0 54.030000 24.540000 27.850000 0 0 0
366 122 3 0 55.420000 24.720000 27.270000 0 0 0
367 123 4 0 54.570000 22.500000 26.210000 0 0 0
368 123 3 0 54.020000 22.370000 26.720000 0 0 0
369 123 3 0 55.120000 22.620000 25.700000 0 0 0
370 124 4 0 55.910000 21.970000 24.310000 0 0 0
371 124 3 0 55.500000 21.540000 24.780000 0 0 0
372 124 3 0 56.320000 22.400000 23.840000 0 0 0
373 125 4 0 55.950000 20.180000 22.610000 0 0 0
374 125 3 0 55.500000 19.580000 22.730000 0 0 0
375 125 3 0 56.390000 20.790000 22.490000 0 0 0
376 126 4 0 54.920000 19.610000 20.300000 0 0 0
377 126 3 0 54.280000 19.250000 20.130000 0 0 0
378 126 3 0 55.560000 19.970000 20.460000 0 0 0
379 127 4 0 54.770000 17.490000 19.440000 0 0 0
380 127 3 0 54.020000 17.610000 19.390000 0 0 0
381 127 3 0 55.520000 17.360000 19.490000 0 0 0
382 128 4 0 56.160000 15.820000 18.970000 0 0 0
383 128 3 0 55.630000 16.200000 19.360000 0 0 0
384 128 3 0 56.680000 15.440000 18.570000 0 0 0
385 129 4 0 57.310000 13.910000 18.160000 0 0 0
386 129 3 0 57.130000 14.050000 18.890000 0 0 0
387 129 3 0 57.490000 13.770000 17.440000 0 0 0
388 130 4 0 58.930000 13.080000 19.740000 0 0 0
389 130 3 0 58.870000 12.730000 20.410000 0 0 0
390 130 3 0 58.990000 13.430000 19.070000 0 0 0
391 131 4 0 0.830000 11.880000 19.950000 1 0 0
392 131 3 0 0.560000 11.220000 20.240000 1 0 0
393 131 3 0 1.100000 12.540000 19.670000 1 0 0
394 132 4 0 0.810000 10.710000 22.070000 1 0 0
395 132 3 0 0.210000 10.240000 21.960000 1 0 0
396 132 3 0 1.400000 11.170000 22.170000 1 0 0
397 133 4 0 1.580000 11.050000 24.530000 1 0 0
398 133 3 0 0.830000 11.020000 24.400000 1 0 0
399 133 3 0 2.330000 11.070000 24.650000 1 0 0
400 134 4 0 2.810000 11.070000 26.570000 1 0 0
401 134 3 0 2.100000 11.250000 26.780000 1 0 0
402 134 3 0 3.520000 10.900000 26.360000 1 0 0
403 135 4 0 3.540000 13.490000 26.750000 1 0 0
404 135 3 0 3.050000 13.440000 27.330000 1 0 0
405 135 3 0 4.020000 13.530000 26.170000 1 0 0
406 136 4 0 5.280000 14.860000 27.610000 1 0 0
407 136 3 0 5.080000 14.400000 28.190000 1 0 0
408 136 3 0 5.470000 15.320000 27.040000 1 0 0
409 137 4 0 7.260000 15.240000 26.420000 1 0 0
410 137 3 0 7.080000 14.580000 26.740000 1 0 0
411 137 3 0 7.440000 15.910000 26.100000 1 0 0
412 138 4 0 9.160000 16.590000 27.160000 1 0 0
413 138 3 0 8.660000 16.040000 27.320000 1 0 0
414 138 3 0 9.660000 17.140000 27.000000 1 0 0
415 139 4 0 11.610000 17.000000 26.830000 1 0 0
416 139 3 0 10.870000 16.970000 26.960000 1 0 0
417 139 3 0 12.360000 17.030000 26.690000 1 0 0
418 140 4 0 13.450000 16.230000 28.360000 1 0 0
419 140 3 0 12.830000 16.650000 28.530000 1 0 0
420 140 3 0 14.060000 15.810000 28.180000 1 0 0
421 141 4 0 15.770000 16.850000 28.610000 1 0 0
422 141 3 0 15.220000 17.320000 28.870000 1 0 0
423 141 3 0 16.310000 16.380000 28.360000 1 0 0
424 142 4 0 16.470000 19.260000 29.590000 1 0 0
425 142 3 0 15.800000 19.370000 29.930000 1 0 0
426 142 3 0 17.140000 19.140000 29.250000 1 0 0
427 143 4 0 18.660000 19.860000 29.090000 1 0 0
428 143 3 0 18.130000 19.370000 29.330000 1 0 0
429 143 3 0 19.180000 20.350000 28.840000 1 0 0
430 144 4 0 20.240000 20.890000 30.470000 1 0 0
431 144 3 0 20.090000 20.150000 30.580000 1 0 0
432 144 3 0 20.390000 21.630000 30.360000 1 0 0
433 145 4 0 21.150000 22.320000 32.150000 1 0 0
434 145 3 0 21.090000 21.590000 32.330000 1 0 0
435 145 3 0 21.210000 23.060000 31.970000 1 0 0
436 146 4 0 23.270000 22.560000 33.140000 1 0 0
437 146 3 0 22.920000 22.010000 33.530000 1 0 0
438 146 3 0 23.610000 23.110000 32.750000 1 0 0
439 147 4 0 24.600000 21.590000 34.960000 1 0 0
440 147 3 0 23.970000 21.500000 35.370000 1 0 0
441 147 3 0 25.240000 21.680000 34.550000 1 0 0
442 148 4 0 25.640000 20.480000 36.580000 1 0 0
443 148 3 0 24.970000 20.680000 36.880000 1 0 0
444 148 3 0 26.310000 20.270000 36.280000 1 0 0
445 149 4 0 25.700000 18.490000 37.880000 1 0 0
446 149 3 0 25.060000 18.690000 38.230000 1 0 0
447 149 3 0 26.340000 18.300000 37.520000 1 0 0
448 150 1 0 24.220000 18.620000 39.680000 1 0 0
449 150 3 0 23.670000 18.610000 40.240000 1 0 0
450 150 2 0 24.730000 18.620000 39.150000 1 0 0
451 151 1 0 17.260000 60.010000 15.160000 0 0 0
452 151 2 0 16.640000 59.790000 15.490000 0 0 0
453 151 3 0 17.930000 0.064500 14.800000 0 1 0
454 152 4 0 17.320000 1.700000 13.410000 0 1 0
455 152 3 0 16.690000 1.470000 13.760000 0 1 0
456 152 3 0 17.960000 1.930000 13.060000 0 1 0
457 153 4 0 16.150000 1.710000 11.410000 0 1 0
458 153 3 0 15.530000 1.460000 11.780000 0 1 0
459 153 3 0 16.770000 1.960000 11.040000 0 1 0
460 154 4 0 14.920000 3.240000 9.940000 0 1 0
461 154 3 0 14.330000 2.960000 10.340000 0 1 0
462 154 3 0 15.510000 3.520000 9.550000 0 1 0
463 155 4 0 14.200000 4.840000 8.240000 0 1 0
464 155 3 0 13.640000 4.520000 8.640000 0 1 0
465 155 3 0 14.770000 5.160000 7.840000 0 1 0
466 156 4 0 12.760000 3.600000 6.840000 0 1 0
467 156 3 0 12.180000 3.270000 7.210000 0 1 0
468 156 3 0 13.340000 3.940000 6.470000 0 1 0
469 157 4 0 12.860000 3.960000 4.490000 0 1 0
470 157 3 0 12.240000 3.660000 4.800000 0 1 0
471 157 3 0 13.490000 4.260000 4.170000 0 1 0
472 158 4 0 10.530000 3.460000 3.700000 0 1 0
473 158 3 0 9.840000 3.260000 3.950000 0 1 0
474 158 3 0 11.220000 3.660000 3.450000 0 1 0
475 159 4 0 8.230000 4.380000 3.790000 0 1 0
476 159 3 0 7.510000 4.320000 4.030000 0 1 0
477 159 3 0 8.950000 4.450000 3.540000 0 1 0
478 160 4 0 5.990000 4.310000 3.010000 0 1 0
479 160 3 0 5.310000 4.330000 3.350000 0 1 0
480 160 3 0 6.670000 4.290000 2.670000 0 1 0
481 161 4 0 3.700000 5.100000 2.950000 0 1 0
482 161 3 0 3.140000 5.060000 3.460000 0 1 0
483 161 3 0 4.270000 5.150000 2.440000 0 1 0
484 162 4 0 1.420000 5.190000 2.880000 0 1 0
485 162 3 0 1.030000 4.920000 3.470000 0 1 0
486 162 3 0 1.810000 5.470000 2.290000 0 1 0
487 163 4 0 0.230000 3.080000 3.150000 0 1 0
488 163 3 0 60.135500 2.530000 3.600000 -1 1 0
489 163 3 0 0.510000 3.620000 2.690000 0 1 0
490 164 4 0 58.810000 1.410000 4.200000 -1 1 0
491 164 3 0 58.450000 0.760000 4.350000 -1 1 0
492 164 3 0 59.170000 2.070000 4.050000 -1 1 0
493 165 4 0 57.220000 0.300000 5.910000 -1 1 0
494 165 3 0 56.620000 60.035500 5.790000 -1 0 0
495 165 3 0 57.830000 0.750000 6.020000 -1 1 0
496 166 4 0 55.910000 0.560000 7.960000 -1 1 0
497 166 3 0 55.160000 0.570000 7.860000 -1 1 0
498 166 3 0 56.670000 0.560000 8.060000 -1 1 0
499 167 4 0 54.690000 59.350000 9.580000 -1 0 0
500 167 3 0 54.040000 59.660000 9.830000 -1 0 0
501 167 3 0 55.340000 59.040000 9.330000 -1 0 0
502 168 4 0 52.620000 59.830000 10.580000 -1 0 0
503 168 3 0 52.200000 60.000000 11.190000 -1 0 0
504 168 3 0 53.040000 59.660000 9.980000 -1 0 0
505 169 4 0 50.490000 58.530000 11.580000 -1 0 0
506 169 3 0 50.180000 58.270000 12.220000 -1 0 0
507 169 3 0 50.800000 58.790000 10.940000 -1 0 0
508 170 4 0 49.470000 59.910000 13.270000 -1 0 0
509 170 3 0 49.040000 59.410000 13.640000 -1 0 0
510 170 3 0 49.900000 0.214500 12.900000 -1 1 0
511 171 4 0 47.780000 1.600000 13.150000 -1 1 0
512 171 3 0 47.130000 1.260000 13.330000 -1 1 0
513 171 3 0 48.430000 1.950000 12.970000 -1 1 0
514 172 4 0 47.940000 2.680000 11.020000 -1 1 0
515 172 3 0 47.240000 2.590000 11.310000 -1 1 0
516 172 3 0 48.630000 2.770000 10.730000 -1 1 0
517 173 4 0 48.210000 1.240000 9.200000 -1 1 0
518 173 3 0 47.660000 1.110000 9.710000 -1 1 0
519 173 3 0 48.760000 1.360000 8.690000 -1 1 0
520 174 4 0 48.290000 0.084500 7.230000 -1 1 0
521 174 3 0 47.880000 59.840000 7.700000 -1 0 0
522 174 3 0 48.700000 0.524500 6.760000 -1 1 0
523 175 4 0 50.020000 58.640000 6.580000 -1 0 0
524 175 3 0 49.570000 58.030000 6.700000 -1 0 0
525 175 3 0 50.460000 59.250000 6.460000 -1 0 0
526 176 4 0 50.070000 56.620000 8.110000 -1 0 0
527 176 3 0 49.420000 56.260000 7.940000 -1 0 0
528 176 3 0 50.720000 56.980000 8.280000 -1 0 0
529 177 4 0 51.040000 54.930000 9.670000 -1 0 0
530 177 3 0 50.300000 55.050000 9.620000 -1 0 0
531 177 3 0 51.780000 54.810000 9.720000 -1 0 0
532 178 4 0 50.000000 52.600000 10.340000 -1 0 0
533 178 3 0 49.470000 52.980000 10.730000 -1 0 0
534 178 3 0 50.530000 52.220000 9.940000 -1 0 0
535 179 4 0 50.320000 51.810000 12.600000 -1 0 0
536 179 3 0 50.140000 51.960000 13.330000 -1 0 0
537 179 3 0 50.500000 51.670000 11.880000 -1 0 0
538 180 4 0 51.220000 49.660000 12.180000 -1 0 0
539 180 3 0 51.160000 49.310000 12.850000 -1 0 0
540 180 3 0 51.280000 50.010000 11.510000 -1 0 0
541 181 4 0 51.270000 47.480000 10.940000 -1 0 0
542 181 3 0 51.000000 46.830000 11.230000 -1 0 0
543 181 3 0 51.540000 48.140000 10.660000 -1 0 0
544 182 4 0 52.470000 47.190000 9.090000 -1 0 0
545 182 3 0 51.880000 46.720000 8.990000 -1 0 0
546 182 3 0 53.060000 47.650000 9.190000 -1 0 0
547 183 4 0 52.530000 47.520000 6.690000 -1 0 0
548 183 3 0 51.780000 47.490000 6.560000 -1 0 0
549 183 3 0 53.280000 47.550000 6.810000 -1 0 0
550 184 4 0 53.890000 47.610000 4.420000 -1 0 0
551 184 3 0 53.180000 47.790000 4.630000 -1 0 0
552 184 3 0 54.600000 47.440000 4.210000 -1 0 0
553 185 4 0 53.730000 49.310000 2.670000 -1 0 0
554 185 3 0 53.240000 49.260000 3.250000 -1 0 0
555 185 3 0 54.210000 49.350000 2.090000 -1 0 0
556 186 4 0 55.370000 49.710000 1.120000 -1 0 0
557 186 3 0 55.170000 49.250000 1.690000 -1 0 0
558 186 3 0 55.560000 50.170000 0.550000 -1 0 0
559 187 4 0 55.640000 51.470000 59.760000 -1 0 -1
560 187 3 0 55.460000 50.810000 60.080000 -1 0 -1
561 187 3 0 55.820000 52.130000 59.440000 -1 0 -1
562 188 4 0 56.060000 53.700000 60.005500 -1 0 -1
563 188 3 0 55.560000 53.150000 60.165500 -1 0 -1
564 188 3 0 56.560000 54.250000 59.845500 -1 0 -1
565 189 4 0 57.940000 54.680000 0.850000 -1 0 0
566 189 3 0 57.200000 54.650000 0.990000 -1 0 0
567 189 3 0 58.690000 54.710000 0.720000 -1 0 0
568 190 4 0 58.290000 53.840000 3.020000 -1 0 0
569 190 3 0 57.670000 54.260000 3.190000 -1 0 0
570 190 3 0 58.900000 53.420000 2.840000 -1 0 0
571 191 4 0 57.340000 53.350000 5.150000 -1 0 0
572 191 3 0 56.790000 53.820000 5.400000 -1 0 0
573 191 3 0 57.880000 52.880000 4.890000 -1 0 0
574 192 4 0 59.130000 52.170000 6.420000 -1 0 0
575 192 3 0 58.460000 52.280000 6.750000 -1 0 0
576 192 3 0 59.800000 52.050000 6.090000 -1 0 0
577 193 4 0 60.010000 49.860000 6.130000 -1 0 0
578 193 3 0 59.490000 49.370000 6.370000 -1 0 0
579 193 3 0 0.344500 50.350000 5.890000 0 0 0
580 194 4 0 59.520000 47.520000 6.180000 -1 0 0
581 194 3 0 59.370000 46.780000 6.290000 -1 0 0
582 194 3 0 59.670000 48.260000 6.070000 -1 0 0
583 195 4 0 58.250000 45.730000 5.100000 -1 0 0
584 195 3 0 58.190000 45.000000 5.280000 -1 0 0
585 195 3 0 58.310000 46.470000 4.920000 -1 0 0
586 196 4 0 57.200000 44.910000 7.110000 -1 0 0
587 196 3 0 56.850000 44.360000 7.500000 -1 0 0
588 196 3 0 57.540000 45.460000 6.710000 -1 0 0
589 197 4 0 55.340000 43.600000 7.440000 -1 0 0
590 197 3 0 54.710000 43.510000 7.850000 -1 0 0
591 197 3 0 55.980000 43.690000 7.030000 -1 0 0
592 198 4 0 55.580000 41.320000 6.580000 -1 0 0
593 198 3 0 54.910000 41.520000 6.880000 -1 0 0
594 198 3 0 56.250000 41.110000 6.290000 -1 0 0
595 199 4 0 55.900000 38.980000 5.990000 -1 0 0
596 199 3 0 55.260000 39.180000 6.340000 -1 0 0
597 199 3 0 56.540000 38.790000 5.640000 -1 0 0
598 200 1 0 56.820000 37.930000 4.150000 -1 0 0
599 200 3 0 56.270000 37.920000 4.710000 -1 0 0
600 200 2 0 57.330000 37.930000 3.620000 -1 0 0
601 201 1 0 33.320000 8.740000 32.990000 0 0 0
602 201 2 0 32.700000 8.520000 33.320000 0 0 0
603 201 3 0 33.990000 8.980000 32.630000 0 0 0
604 202 4 0 35.060000 8.950000 34.720000 0 0 0
605 202 3 0 34.420000 8.720000 35.070000 0 0 0
606 202 3 0 35.700000 9.180000 34.370000 0 0 0
607 203 4 0 36.810000 8.230000 36.320000 0 0 0
608 203 3 0 36.190000 7.980000 36.690000 0 0 0
609 203 3 0 37.430000 8.480000 35.950000 0 0 0
610 204 4 0 38.270000 9.130000 37.980000 0 0 0
611 204 3 0 37.680000 8.850000 38.380000 0 0 0
612 204 3 0 38.860000 9.410000 37.590000 0 0 0
613 205 4 0 38.980000 8.840000 40.330000 0 0 0
614 205 3 0 38.420000 8.520000 40.730000 0 0 0
615 205 3 0 39.550000 9.160000 39.930000 0 0 0
616 206 4 0 40.210000 9.500000 42.280000 0 0 0
617 206 3 0 39.630000 9.160000 42.650000 0 0 0
618 206 3 0 40.790000 9.840000 41.910000 0 0 0
619 207 4 0 40.790000 10.410000 44.560000 0 0 0
620 207 3 0 40.160000 10.110000 44.870000 0 0 0
621 207 3 0 41.410000 10.710000 44.240000 0 0 0
622 208 4 0 40.330000 9.410000 46.740000 0 0 0
623 208 3 0 39.640000 9.210000 46.990000 0 0 0
624 208 3 0 41.020000 9.610000 46.490000 0 0 0
625 209 4 0 39.860000 9.850000 49.020000 0 0 0
626 209 3 0 39.140000 9.790000 49.260000 0 0 0
627 209 3 0 40.580000 9.920000 48.770000 0 0 0
628 210 4 0 39.770000 8.830000 51.120000 0 0 0
629 210 3 0 39.090000 8.850000 51.460000 0 0 0
630 210 3 0 40.450000 8.810000 50.780000 0 0 0
631 211 4 0 41.410000 9.050000 53.010000 0 0 0
632 211 3 0 40.850000 9.010000 53.520000 0 0 0
633 211 3 0 41.970000 9.100000 52.500000 0 0 0
634 212 4 0 41.330000 10.880000 54.830000 0 0 0
635 212 3 0 40.940000 10.610000 55.420000 0 0 0
636 212 3 0 41.720000 11.160000 54.240000 0 0 0
637 213 4 0 41.220000 11.990000 56.940000 0 0 0
638 213 3 0 40.940000 11.440000 57.390000 0 0 0
639 213 3 0 41.500000 12.530000 56.490000 0 0 0
640 214 4 0 42.280000 10.140000 58.590000 0 0 0
641 214 3 0 41.920000 9.490000 58.740000 0 0 0
642 214 3 0 42.640000 10.800000 58.440000 0 0 0
643 215 4 0 43.190000 10.300000 0.680000 0 0 1
644 215 3 0 42.580000 9.850000 0.560000 0 0 1
645 215 3 0 43.800000 10.750000 0.790000 0 0 1
646 216 4 0 41.490000 10.460000 2.200000 0 0 1
647 216 3 0 40.740000 10.470000 2.100000 0 0 1
648 216 3 0 42.240000 10.460000 2.300000 0 0 1
649 217 4 0 39.660000 12.360000 2.090000 0 0 1
650 217 3 0 39.010000 12.670000 2.340000 0 0 1
651 217 3 0 40.310000 12.050000 1.840000 0 0 1
652 218 4 0 38.860000 14.650000 2.640000 0 0 1
653 218 3 0 38.440000 14.820000 3.250000 0 0 1
654 218 3 0 39.290000 14.480000 2.040000 0 0 1
655 219 4 0 36.970000 16.170000 2.820000 0 0 1
656 219 3 0 36.660000 15.910000 3.460000 0 0 1
657 219 3 0 37.280000 16.430000 2.180000 0 0 1
658 220 4 0 34.960000 14.860000 3.170000 0 0 1
659 220 3 0 34.530000 14.360000 3.540000 0 0 1
660 220 3 0 35.390000 15.350000 2.800000 0 0 1
661 221 4 0 32.860000 13.810000 4.010000 0 0 1
662 221 3 0 32.210000 13.470000 4.190000 0 0 1
663 221 3 0 33.510000 14.160000 3.830000 0 0 1
664 222 4 0 31.340000 12.640000 5.640000 0 0 1
665 222 3 0 30.640000 12.550000 5.930000 0 0 1
666 222 3 0 32.030000 12.730000 5.350000 0 0 1
667 223 4 0 29.260000 11.590000 5.470000 0 0 1
668 223 3 0 28.710000 11.460000 5.980000 0 0 1
669 223 3 0 29.810000 11.710000 4.960000 0 0 1
670 224 4 0 27.920000 12.610000 7.380000 0 0 1
671 224 3 0 27.510000 12.170000 7.850000 0 0 1
672 224 3 0 28.330000 13.040000 6.910000 0 0 1
673 225 4 0 25.630000 13.570000 7.830000 0 0 1
674 225 3 0 25.190000 12.970000 7.950000 0 0 1
675 225 3 0 26.080000 14.180000 7.710000 0 0 1
676 226 4 0 25.780000 13.810000 10.140000 0 0 1
677 226 3 0 25.140000 13.450000 9.970000 0 0 1
678 226 3 0 26.430000 14.170000 10.300000 0 0 1
679 227 4 0 25.480000 11.940000 11.900000 0 0 1
680 227 3 0 24.740000 12.060000 11.850000 0 0 1
681 227 3 0 26.230000 11.810000 11.950000 0 0 1
682 228 4 0 27.140000 12.360000 13.570000 0 0 1
683 228 3 0 26.610000 12.740000 13.960000 0 0 1
684 228 3 0 27.660000 11.980000 13.170000 0 0 1
685 229 4 0 29.190000 11.170000 13.930000 0 0 1
686 229 3 0 29.010000 11.310000 14.660000 0 0 1
687 229 3 0 29.380000 11.030000 13.210000 0 0 1
688 230 4 0 31.160000 9.650000 14.550000 0 0 1
689 230 3 0 31.100000 9.300000 15.220000 0 0 1
690 230 3 0 31.220000 10.000000 13.880000 0 0 1
691 231 4 0 30.830000 7.600000 13.340000 0 0 1
692 231 3 0 30.560000 6.940000 13.630000 0 0 1
693 231 3 0 31.100000 8.260000 13.060000 0 0 1
694 232 4 0 29.740000 7.010000 11.150000 0 0 1
695 232 3 0 29.140000 6.540000 11.050000 0 0 1
696 232 3 0 30.340000 7.470000 11.250000 0 0 1
697 233 4 0 30.330000 7.660000 8.970000 0 0 1
698 233 3 0 29.580000 7.630000 8.840000 0 0 1
699 233 3 0 31.080000 7.680000 9.090000 0 0 1
700 234 4 0 29.150000 7.950000 6.840000 0 0 1
701 234 3 0 28.440000 8.130000 7.050000 0 0 1
702 234 3 0 29.860000 7.780000 6.630000 0 0 1
703 235 4 0 29.990000 6.270000 5.170000 0 0 1
704 235 3 0 29.500000 6.220000 5.750000 0 0 1
705 235 3 0 30.470000 6.310000 4.590000 0 0 1
706 236 4 0 28.480000 4.390000 4.770000 0 0 1
707 236 3 0 28.280000 3.930000 5.340000 0 0 1
708 236 3 0 28.670000 4.850000 4.190000 0 0 1
709 237 4 0 27.440000 3.130000 2.950000 0 0 1
710 237 3 0 27.270000 2.460000 3.270000 0 0 1
711 237 3 0 27.620000 3.800000 2.630000 0 0 1
712 238 4 0 26.460000 3.440000 0.660000 0 0 1
713 238 3 0 25.960000 2.890000 0.820000 0 0 1
714 238 3 0 26.960000 3.990000 0.500000 0 0 1
715 239 4 0 25.790000 5.010000 59.150000 0 0 0
716 239 3 0 25.050000 4.980000 59.280000 0 0 0
717 239 3 0 26.540000 5.040000 59.020000 0 0 0
718 240 4 0 26.140000 4.840000 56.750000 0 0 0
719 240 3 0 25.520000 5.260000 56.920000 0 0 0
720 240 3 0 26.750000 4.420000 56.570000 0 0 0
721 241 4 0 26.580000 4.840000 54.450000 0 0 0
722 241 3 0 26.030000 5.310000 54.710000 0 0 0
723 241 3 0 27.120000 4.370000 54.200000 0 0 0
724 242 4 0 28.310000 4.330000 52.900000 0 0 0
725 242 3 0 27.640000 4.440000 53.240000 0 0 0
726 242 3 0 28.980000 4.210000 52.560000 0 0 0
727 243 4 0 29.310000 3.900000 50.650000 0 0 0
728 243 3 0 28.780000 3.410000 50.900000 0 0 0
729 243 3 0 29.830000 4.390000 50.410000 0 0 0
730 244 4 0 27.810000 4.450000 48.730000 0 0 0
731 244 3 0 27.660000 3.710000 48.840000 0 0 0
732 244 3 0 27.960000 5.190000 48.620000 0 0 0
733 245 4 0 27.230000 4.770000 46.540000 0 0 0
734 245 3 0 27.170000 4.040000 46.720000 0 0 0
735 245 3 0 27.290000 5.510000 46.360000 0 0 0
736 246 4 0 26.650000 4.420000 44.260000 0 0 0
737 246 3 0 26.300000 3.870000 44.660000 0 0 0
738 246 3 0 26.990000 4.970000 43.860000 0 0 0
739 247 4 0 24.440000 3.470000 43.450000 0 0 0
740 247 3 0 23.810000 3.380000 43.860000 0 0 0
741 247 3 0 25.080000 3.560000 43.040000 0 0 0
742 248 4 0 22.360000 3.740000 42.320000 0 0 0
743 248 3 0 21.690000 3.940000 42.610000 0 0 0
744 248 3 0 23.030000 3.530000 42.030000 0 0 0
745 249 4 0 20.230000 3.010000 43.470000 0 0 0
746 249 3 0 19.590000 3.210000 43.830000 0 0 0
747 249 3 0 20.870000 2.820000 43.120000 0 0 0
748 250 1 0 18.340000 3.030000 41.810000 0 0 0
749 250 3 0 17.790000 3.020000 42.370000 0 0 0
750 250 2 0 18.850000 3.030000 41.280000 0 0 0
751 251 1 0 49.120000 31.810000 53.360000 0 0 0
752 251 2 0 48.500000 31.590000 53.690000 0 0 0
753 251 3 0 49.790000 32.050000 53.000000 0 0 0
754 252 4 0 50.580000 32.850000 51.680000 0 0 0
755 252 3 0 49.950000 32.620000 52.030000 0 0 0
756 252 3 0 51.220000 33.080000 51.330000 0 0 0
757 253 4 0 52.360000 33.530000 49.790000 0 0 0
758 253 3 0 51.740000 33.280000 50.160000 0 0 0
759 253 3 0 52.980000 33.780000 49.420000 0 0 0
760 254 4 0 52.640000 34.280000 47.370000 0 0 0
761 254 3 0 52.050000 34.000000 47.770000 0 0 0
762 254 3 0 53.230000 34.560000 46.980000 0 0 0
763 255 4 0 52.320000 33.630000 44.820000 0 0 0
764 255 3 0 51.760000 33.310000 45.220000 0 0 0
765 255 3 0 52.890000 33.950000 44.420000 0 0 0
766 256 4 0 50.830000 33.800000 43.000000 0 0 0
767 256 3 0 50.260000 33.460000 43.370000 0 0 0
768 256 3 0 51.410000 34.130000 42.630000 0 0 0
769 257 4 0 48.850000 32.630000 43.860000 0 0 0
770 257 3 0 48.220000 32.330000 44.170000 0 0 0
771 257 3 0 49.470000 32.930000 43.540000 0 0 0
772 258 4 0 47.810000 30.390000 43.800000 0 0 0
773 258 3 0 47.120000 30.190000 44.050000 0 0 0
774 258 3 0 48.500000 30.590000 43.550000 0 0 0
775 259 4 0 45.750000 29.540000 43.040000 0 0 0
776 259 3 0 45.030000 29.480000 43.290000 0 0 0
777 259 3 0 46.470000 29.610000 42.800000 0 0 0
778 260 4 0 44.980000 27.200000 43.020000 0 0 0
779 260 3 0 44.300000 27.220000 43.360000 0 0 0
780 260 3 0 45.660000 27.180000 42.680000 0 0 0
781 261 4 0 44.660000 24.990000 43.690000 0 0 0
782 261 3 0 44.100000 24.950000 44.200000 0 0 0
783 261 3 0 45.220000 25.040000 43.180000 0 0 0
784 262 4 0 45.870000 23.040000 43.670000 0 0 0
785 262 3 0 45.480000 22.760000 44.260000 0 0 0
786 262 3 0 46.260000 23.320000 43.080000 0 0 0
787 263 4 0 47.690000 21.780000 44.950000 0 0 0
788 263 3 0 47.410000 21.230000 45.400000 0 0 0
789 263 3 0 47.970000 22.320000 44.500000 0 0 0
790 264 4 0 49.870000 21.350000 45.970000 0 0 0
791 264 3 0 49.510000 20.690000 46.120000 0 0 0
792 264 3 0 50.230000 22.000000 45.820000 0 0 0
793 265 4 0 51.450000 20.320000 44.340000 0 0 0
794 265 3 0 50.840000 19.870000 44.220000 0 0 0
795 265 3 0 52.050000 20.770000 44.450000 0 0 0
796 266 4 0 52.580000 18.410000 44.490000 0 0 0
797 266 3 0 51.830000 18.420000 44.390000 0 0 0
798 266 3 0 53.330000 18.410000 44.580000 0 0 0
799 267 4 0 53.320000 16.190000 44.310000 0 0 0
800 267 3 0 52.670000 16.500000 44.560000 0 0 0
801 267 3 0 53.970000 15.880000 44.060000 0 0 0
802 268 4 0 55.730000 16.070000 44.350000 0 0 0
803 268 3 0 55.300000 16.240000 44.950000 0 0 0
804 268 3 0 56.160000 15.900000 43.740000 0 0 0
805 269 4 0 56.960000 17.850000 45.440000 0 0 0
806 269 3 0 56.650000 17.590000 46.080000 0 0 0
807 269 3 0 57.270000 18.110000 44.800000 0 0 0
808 270 4 0 59.180000 17.760000 45.230000 0 0 0
809 270 3 0 58.750000 17.260000 45.600000 0 0 0
810 270 3 0 59.620000 18.250000 44.860000 0 0 0
811 271 4 0 0.360000 16.900000 43.570000 1 0 0
812 271 3 0 59.895500 16.550000 43.750000 0 0 0
813 271 3 0 1.010000 17.250000 43.390000 1 0 0
814 272 4 0 59.220000 14.650000 42.870000 0 0 0
815 272 3 0 58.520000 14.560000 43.160000 0 0 0
816 272 3 0 59.910000 14.740000 42.580000 0 0 0
817 273 4 0 58.310000 14.140000 40.540000 0 0 0
818 273 3 0 57.760000 14.010000 41.050000 0 0 0
819 273 3 0 58.860000 14.260000 40.030000 0 0 0
820 274 4 0 56.560000 15.360000 39.740000 0 0 0
821 274 3 0 56.150000 14.920000 40.210000 0 0 0
822 274 3 0 56.970000 15.790000 39.270000 0 0 0
823 275 4 0 54.830000 16.530000 38.810000 0 0 0
824 275 3 0 54.380000 15.930000 38.930000 0 0 0
825 275 3 0 55.270000 17.140000 38.690000 0 0 0
826 276 4 0 52.850000 17.100000 37.330000 0 0 0
827 276 3 0 52.210000 16.740000 37.160000 0 0 0
828 276 3 0 53.500000 17.460000 37.500000 0 0 0
829 277 4 0 52.450000 16.410000 35.000000 0 0 0
830 277 3 0 51.710000 16.530000 34.950000 0 0 0
831 277 3 0 53.190000 16.280000 35.050000 0 0 0
832 278 4 0 51.650000 16.530000 32.690000 0 0 0
833 278 3 0 51.120000 16.910000 33.080000 0 0 0
834 278 3 0 52.170000 16.150000 32.290000 0 0 0
835 279 4 0 52.760000 14.730000 31.300000 0 0 0
836 279 3 0 52.580000 14.880000 32.020000 0 0 0
837 279 3 0 52.940000 14.590000 30.580000 0 0 0
838 280 4 0 54.280000 13.410000 32.450000 0 0 0
839 280 3 0 54.220000 13.060000 33.120000 0 0 0
840 280 3 0 54.340000 13.760000 31.780000 0 0 0
841 281 4 0 56.010000 12.920000 34.030000 0 0 0
842 281 3 0 55.740000 12.260000 34.310000 0 0 0
843 281 3 0 56.280000 13.580000 33.750000 0 0 0
844 282 4 0 58.220000 12.710000 35.080000 0 0 0
845 282 3 0 57.620000 12.240000 34.980000 0 0 0
846 282 3 0 58.810000 13.170000 35.180000 0 0 0
847 283 4 0 60.090000 12.470000 36.280000 0 0 0
848 283 3 0 59.340000 12.440000 36.150000 0 0 0
849 283 3 0 0.654500 12.500000 36.410000 1 0 0
850 284 4 0 1.670000 13.810000 37.360000 1 0 0
851 284 3 0 0.960000 13.990000 37.570000 1 0 0
852 284 3 0 2.380000 13.640000 37.150000 1 0 0
853 285 4 0 2.190000 14.820000 39.450000 1 0 0
854 285 3 0 1.700000 14.770000 40.030000 1 0 0
855 285 3 0 2.670000 14.860000 38.870000 1 0 0
856 286 4 0 4.120000 16.110000 39.890000 1 0 0
857 286 3 0 3.920000 15.650000 40.460000 1 0 0
858 286 3 0 4.310000 16.570000 39.310000 1 0 0
859 287 4 0 6.060000 17.060000 40.880000 1 0 0
860 287 3 0 5.880000 16.390000 41.200000 1 0 0
861 287 3 0 6.240000 17.720000 40.560000 1 0 0
862 288 4 0 7.010000 19.260000 39.960000 1 0 0
863 288 3 0 6.510000 18.710000 40.120000 1 0 0
864 288 3 0 7.510000 19.810000 39.800000 1 0 0
865 289 4 0 8.300000 20.780000 41.250000 1 0 0
866 289 3 0 7.560000 20.750000 41.380000 1 0 0
867 289 3 0 9.050000 20.810000 41.120000 1 0 0
868 290 4 0 9.980000 19.700000 42.590000 1 0 0
869 290 3 0 9.360000 20.120000 42.770000 1 0 0
870 290 3 0 10.590000 19.280000 42.420000 1 0 0
871 291 4 0 12.250000 20.570000 41.830000 1 0 0
872 291 3 0 11.710000 21.040000 42.080000 1 0 0
873 291 3 0 12.800000 20.100000 41.570000 1 0 0
874 292 4 0 13.040000 22.320000 40.260000 1 0 0
875 292 3 0 12.370000 22.440000 40.590000 1 0 0
876 292 3 0 13.710000 22.200000 39.920000 1 0 0
877 293 4 0 12.750000 21.700000 37.870000 1 0 0
878 293 3 0 12.220000 21.210000 38.120000 1 0 0
879 293 3 0 13.270000 22.190000 37.620000 1 0 0
880 294 4 0 11.430000 19.740000 37.390000 1 0 0
881 294 3 0 11.280000 19.000000 37.500000 1 0 0
882 294 3 0 11.580000 20.480000 37.280000 1 0 0
883 295 4 0 10.200000 20.100000 35.340000 1 0 0
884 295 3 0 10.140000 19.370000 35.520000 1 0 0
885 295 3 0 10.260000 20.830000 35.160000 1 0 0
886 296 4 0 9.950000 22.280000 34.400000 1 0 0
887 296 3 0 9.600000 21.730000 34.790000 1 0 0
888 296 3 0 10.290000 22.830000 34.010000 1 0 0
889 297 4 0 11.400000 23.870000 33.650000 1 0 0
890 297 3 0 10.770000 23.780000 34.060000 1 0 0
891 297 3 0 12.040000 23.960000 33.240000 1 0 0
892 298 4 0 11.080000 26.150000 32.840000 1 0 0
893 298 3 0 10.410000 26.350000 33.130000 1 0 0
894 298 3 0 11.750000 25.950000 32.540000 1 0 0
895 299 4 0 12.160000 27.800000 31.200000 1 0 0
896 299 3 0 11.520000 28.000000 31.550000 1 0 0
897 299 3 0 12.800000 27.600000 30.850000 1 0 0
898 300 1 0 13.670000 27.560000 29.410000 1 0 0
899 300 3 0 13.120000 27.550000 29.970000 1 0 0
900 300 2 0 14.180000 27.560000 28.880000 1 0 0
901 301 1 0 7.130000 33.390000 59.440000 0 0 0
902 301 2 0 6.510000 33.170000 59.770000 0 0 0
903 301 3 0 7.800000 33.630000 59.080000 0 0 0
904 302 4 0 4.950000 32.980000 0.350000 0 0 1
905 302 3 0 4.320000 32.750000 0.700000 0 0 1
906 302 3 0 5.590000 33.210000 0.000000 0 0 1
907 303 4 0 3.220000 32.070000 59.250000 0 0 0
908 303 3 0 2.600000 31.820000 59.620000 0 0 0
909 303 3 0 3.840000 32.320000 58.880000 0 0 0
910 304 4 0 0.780000 32.050000 58.570000 0 0 0
911 304 3 0 0.190000 31.770000 58.970000 0 0 0
912 304 3 0 1.370000 32.330000 58.180000 0 0 0
913 305 4 0 59.745500 33.390000 56.850000 -1 0 0
914 305 3 0 59.185500 33.070000 57.250000 -1 0 0
915 305 3 0 0.130000 33.710000 56.450000 0 0 0
916 306 4 0 57.460000 33.810000 57.340000 -1 0 0
917 306 3 0 56.890000 33.470000 57.710000 -1 0 0
918 306 3 0 58.040000 34.140000 56.970000 -1 0 0
919 307 4 0 55.750000 34.990000 58.540000 -1 0 0
920 307 3 0 55.130000 34.690000 58.850000 -1 0 0
921 307 3 0 56.380000 35.290000 58.220000 -1 0 0
922 308 4 0 53.590000 34.100000 58.830000 -1 0 0
923 308 3 0 52.900000 33.900000 59.080000 -1 0 0
924 308 3 0 54.280000 34.300000 58.580000 -1 0 0
925 309 4 0 53.000000 32.500000 0.274500 -1 0 1
926 309 3 0 52.280000 32.440000 0.524500 -1 0 1
927 309 3 0 53.720000 32.560000 0.024500 -1 0 1
928 310 4 0 53.690000 33.140000 2.490000 -1 0 1
929 310 3 0 53.010000 33.160000 2.830000 -1 0 1
930 310 3 0 54.370000 33.120000 2.150000 -1 0 1
931 311 4 0 53.130000 35.280000 3.500000 -1 0 1
932 311 3 0 52.560000 35.240000 4.010000 -1 0 1
933 311 3 0 53.690000 35.330000 2.990000 -1 0 1
934 312 4 0 51.080000 35.830000 2.260000 -1 0 1
935 312 3 0 50.690000 35.560000 2.850000 -1 0 1
936 312 3 0 51.470000 36.110000 1.670000 -1 0 1
937 313 4 0 48.960000 35.590000 1.090000 -1 0 1
938 313 3 0 48.680000 35.050000 1.540000 -1 0 1
939 313 3 0 49.240000 36.140000 0.630000 -1 0 1
940 314 4 0 46.750000 35.970000 1.610000 -1 0 1
941 314 3 0 46.390000 35.320000 1.760000 -1 0 1
942 314 3 0 47.110000 36.630000 1.460000 -1 0 1
943 315 4 0 46.230000 34.200000 3.000000 -1 0 1
944 315 3 0 45.620000 33.750000 2.880000 -1 0 1
945 315 3 0 46.840000 34.650000 3.110000 -1 0 1
946 316 4 0 45.680000 31.760000 3.250000 -1 0 1
947 316 3 0 44.920000 31.770000 3.150000 -1 0 1
948 316 3 0 46.430000 31.760000 3.350000 -1 0 1
949 317 4 0 43.960000 30.510000 4.070000 -1 0 1
950 317 3 0 43.310000 30.820000 4.320000 -1 0 1
951 317 3 0 44.610000 30.200000 3.820000 -1 0 1
952 318 4 0 41.940000 29.540000 4.660000 -1 0 1
953 318 3 0 41.520000 29.710000 5.270000 -1 0 1
954 318 3 0 42.360000 29.370000 4.060000 -1 0 1
955 319 4 0 41.190000 30.220000 7.060000 -1 0 1
956 319 3 0 40.880000 29.960000 7.700000 -1 0 1
957 319 3 0 41.500000 30.480000 6.420000 -1 0 1
958 320 4 0 40.450000 32.500000 7.040000 -1 0 1
959 320 3 0 40.020000 32.000000 7.410000 -1 0 1
960 320 3 0 40.880000 33.000000 6.670000 -1 0 1
961 321 4 0 38.060000 32.760000 6.930000 -1 0 1
962 321 3 0 37.410000 32.410000 7.110000 -1 0 1
963 321 3 0 38.710000 33.110000 6.750000 -1 0 1
964 322 4 0 37.200000 34.880000 7.460000 -1 0 1
965 322 3 0 36.510000 34.790000 7.750000 -1 0 1
966 322 3 0 37.890000 34.970000 7.170000 -1 0 1
967 323 4 0 37.640000 36.400000 5.720000 -1 0 1
968 323 3 0 37.090000 36.270000 6.230000 -1 0 1
969 323 3 0 38.190000 36.520000 5.210000 -1 0 1
970 324 4 0 39.810000 37.040000 5.420000 -1 0 1
971 324 3 0 39.400000 36.600000 5.890000 -1 0 1
972 324 3 0 40.220000 37.480000 4.950000 -1 0 1
973 325 4 0 40.700000 38.670000 4.010000 -1 0 1
974 325 3 0 40.260000 38.070000 4.130000 -1 0 1
975 325 3 0 41.150000 39.280000 3.890000 -1 0 1
976 326 4 0 40.730000 39.810000 1.950000 -1 0 1
977 326 3 0 40.090000 39.450000 1.780000 -1 0 1
978 326 3 0 41.380000 40.170000 2.110000 -1 0 1
979 327 4 0 42.790000 41.020000 1.270000 -1 0 1
980 327 3 0 42.040000 41.140000 1.220000 -1 0 1
981 327 3 0 43.540000 40.900000 1.320000 -1 0 1
982 328 4 0 44.990000 40.530000 1.860000 -1 0 1
983 328 3 0 44.460000 40.910000 2.250000 -1 0 1
984 328 3 0 45.510000 40.150000 1.460000 -1 0 1
985 329 4 0 45.980000 40.820000 3.930000 -1 0 1
986 329 3 0 45.790000 40.960000 4.660000 -1 0 1
987 329 3 0 46.170000 40.670000 3.210000 -1 0 1
988 330 4 0 46.230000 42.730000 5.290000 -1 0 1
989 330 3 0 46.170000 42.380000 5.960000 -1 0 1
990 330 3 0 46.290000 43.080000 4.620000 -1 0 1
991 331 4 0 47.660000 43.160000 7.020000 -1 0 1
992 331 3 0 47.390000 42.500000 7.300000 -1 0 1
993 331 3 0 47.930000 43.810000 6.730000 -1 0 1
994 332 4 0 48.830000 43.930000 8.890000 -1 0 1
995 332 3 0 48.230000 43.460000 8.790000 -1 0 1
996 332 3 0 49.420000 44.390000 8.990000 -1 0 1
997 333 4 0 48.480000 42.930000 11.090000 -1 0 1
998 333 3 0 47.730000 42.900000 10.960000 -1 0 1
999 333 3 0 49.230000 42.960000 11.210000 -1 0 1
1000 334 4 0 46.660000 42.900000 12.460000 -1 0 1
1001 334 3 0 45.950000 43.080000 12.670000 -1 0 1
1002 334 3 0 47.370000 42.730000 12.250000 -1 0 1
1003 335 4 0 45.900000 41.680000 14.250000 -1 0 1
1004 335 3 0 45.410000 41.630000 14.830000 -1 0 1
1005 335 3 0 46.380000 41.720000 13.670000 -1 0 1
1006 336 4 0 43.610000 42.290000 15.150000 -1 0 1
1007 336 3 0 43.410000 41.830000 15.720000 -1 0 1
1008 336 3 0 43.800000 42.750000 14.580000 -1 0 1
1009 337 4 0 42.360000 41.550000 17.240000 -1 0 1
1010 337 3 0 42.180000 40.880000 17.560000 -1 0 1
1011 337 3 0 42.530000 42.220000 16.920000 -1 0 1
1012 338 4 0 43.620000 41.040000 19.090000 -1 0 1
1013 338 3 0 43.120000 40.490000 19.250000 -1 0 1
1014 338 3 0 44.120000 41.590000 18.930000 -1 0 1
1015 339 4 0 44.120000 39.190000 20.740000 -1 0 1
1016 339 3 0 43.380000 39.160000 20.870000 -1 0 1
1017 339 3 0 44.870000 39.220000 20.600000 -1 0 1
1018 340 4 0 45.130000 37.040000 20.100000 -1 0 1
1019 340 3 0 44.510000 37.460000 20.270000 -1 0 1
1020 340 3 0 45.740000 36.620000 19.920000 -1 0 1
1021 341 4 0 44.150000 34.840000 20.770000 -1 0 1
1022 341 3 0 43.610000 35.310000 21.030000 -1 0 1
1023 341 3 0 44.700000 34.370000 20.510000 -1 0 1
1024 342 4 0 44.050000 32.480000 21.250000 -1 0 1
1025 342 3 0 43.380000 32.600000 21.590000 -1 0 1
1026 342 3 0 44.720000 32.360000 20.910000 -1 0 1
1027 343 4 0 46.370000 31.320000 21.420000 -1 0 1
1028 343 3 0 45.840000 30.830000 21.670000 -1 0 1
1029 343 3 0 46.890000 31.810000 21.170000 -1 0 1
1030 344 4 0 47.030000 29.170000 20.320000 -1 0 1
1031 344 3 0 46.880000 28.430000 20.430000 -1 0 1
1032 344 3 0 47.180000 29.910000 20.210000 -1 0 1
1033 345 4 0 49.380000 29.340000 20.020000 -1 0 1
1034 345 3 0 49.320000 28.610000 20.200000 -1 0 1
1035 345 3 0 49.440000 30.080000 19.840000 -1 0 1
1036 346 4 0 51.770000 29.890000 19.760000 -1 0 1
1037 346 3 0 51.420000 29.340000 20.150000 -1 0 1
1038 346 3 0 52.110000 30.440000 19.370000 -1 0 1
1039 347 4 0 53.770000 28.810000 20.700000 -1 0 1
1040 347 3 0 53.140000 28.720000 21.110000 -1 0 1
1041 347 3 0 54.410000 28.900000 20.290000 -1 0 1
1042 348 4 0 55.260000 27.100000 21.310000 -1 0 1
1043 348 3 0 54.590000 27.300000 21.600000 -1 0 1
1044 348 3 0 55.930000 26.890000 21.010000 -1 0 1
1045 349 4 0 54.300000 26.470000 23.280000 -1 0 1
1046 349 3 0 53.650000 26.670000 23.630000 -1 0 1
1047 349 3 0 54.940000 26.270000 22.920000 -1 0 1
1048 350 1 0 52.190000 25.990000 24.420000 -1 0 1
1049 350 3 0 51.640000 25.980000 24.980000 -1 0 1
1050 350 2 0 52.700000 25.990000 23.890000 -1 0 1
1051 351 1 0 32.010000 14.420000 14.730000 0 0 0
1052 351 2 0 31.390000 14.200000 15.060000 0 0 0
1053 351 3 0 32.680000 14.660000 14.370000 0 0 0
1054 352 4 0 33.470000 12.400000 15.510000 0 0 0
1055 352 3 0 32.840000 12.170000 15.860000 0 0 0
1056 352 3 0 34.110000 12.630000 15.160000 0 0 0
1057 353 4 0 34.730000 12.680000 17.650000 0 0 0
1058 353 3 0 34.110000 12.430000 18.020000 0 0 0
1059 353 3 0 35.350000 12.930000 17.280000 0 0 0
1060 354 4 0 34.740000 14.310000 19.360000 0 0 0
1061 354 3 0 34.150000 14.030000 19.760000 0 0 0
1062 354 3 0 35.330000 14.590000 18.970000 0 0 0
1063 355 4 0 35.160000 16.400000 20.710000 0 0 0
1064 355 3 0 34.600000 16.080000 21.110000 0 0 0
1065 355 3 0 35.730000 16.720000 20.310000 0 0 0
1066 356 4 0 34.660000 18.610000 19.610000 0 0 0
1067 356 3 0 34.090000 18.280000 19.980000 0 0 0
1068 356 3 0 35.240000 18.950000 19.240000 0 0 0
1069 357 4 0 36.480000 19.260000 18.070000 0 0 0
1070 357 3 0 35.860000 18.960000 18.380000 0 0 0
1071 357 3 0 37.110000 19.560000 17.750000 0 0 0
1072 358 4 0 37.900000 20.990000 17.050000 0 0 0
1073 358 3 0 37.210000 20.790000 17.300000 0 0 0
1074 358 3 0 38.590000 21.190000 16.800000 0 0 0
1075 359 4 0 37.020000 21.420000 14.960000 0 0 0
1076 359 3 0 36.300000 21.350000 15.200000 0 0 0
1077 359 3 0 37.740000 21.480000 14.710000 0 0 0
1078 360 4 0 37.360000 20.780000 12.670000 0 0 0
1079 360 3 0 36.680000 20.800000 13.010000 0 0 0
1080 360 3 0 38.040000 20.760000 12.320000 0 0 0
1081 361 4 0 35.620000 21.170000 11.150000 0 0 0
1082 361 3 0 35.050000 21.120000 11.660000 0 0 0
1083 361 3 0 36.190000 21.220000 10.640000 0 0 0
1084 362 4 0 33.430000 21.300000 10.240000 0 0 0
1085 362 3 0 33.040000 21.030000 10.830000 0 0 0
1086 362 3 0 33.820000 21.570000 9.650000 0 0 0
1087 363 4 0 31.440000 22.440000 10.150000 0 0 0
1088 363 3 0 31.160000 21.900000 10.600000 0 0 0
1089 363 3 0 31.720000 22.990000 9.690000 0 0 0
1090 364 4 0 29.980000 22.640000 11.990000 0 0 0
1091 364 3 0 29.620000 21.990000 12.140000 0 0 0
1092 364 3 0 30.340000 23.290000 11.840000 0 0 0
1093 365 4 0 27.580000 22.640000 11.080000 0 0 0
1094 365 3 0 26.970000 22.190000 10.960000 0 0 0
1095 365 3 0 28.190000 23.090000 11.190000 0 0 0
1096 366 4 0 25.260000 23.140000 11.250000 0 0 0
1097 366 3 0 24.500000 23.150000 11.150000 0 0 0
1098 366 3 0 26.010000 23.140000 11.350000 0 0 0
1099 367 4 0 24.950000 24.570000 9.210000 0 0 0
1100 367 3 0 24.300000 24.880000 9.460000 0 0 0
1101 367 3 0 25.600000 24.260000 8.960000 0 0 0
1102 368 4 0 25.210000 26.860000 8.860000 0 0 0
1103 368 3 0 24.780000 27.030000 9.470000 0 0 0
1104 368 3 0 25.630000 26.690000 8.260000 0 0 0
1105 369 4 0 23.370000 28.530000 9.460000 0 0 0
1106 369 3 0 23.060000 28.270000 10.100000 0 0 0
1107 369 3 0 23.680000 28.790000 8.820000 0 0 0
1108 370 4 0 20.950000 28.760000 9.620000 0 0 0
1109 370 3 0 20.520000 28.260000 9.990000 0 0 0
1110 370 3 0 21.390000 29.250000 9.250000 0 0 0
1111 371 4 0 18.580000 28.040000 9.860000 0 0 0
1112 371 3 0 17.930000 27.690000 10.040000 0 0 0
1113 371 3 0 19.230000 28.380000 9.680000 0 0 0
1114 372 4 0 17.670000 28.670000 11.980000 0 0 0
1115 372 3 0 16.970000 28.580000 12.270000 0 0 0
1116 372 3 0 18.360000 28.760000 11.690000 0 0 0
1117 373 4 0 15.830000 28.060000 13.350000 0 0 0
1118 373 3 0 15.280000 27.930000 13.860000 0 0 0
1119 373 3 0 16.380000 28.180000 12.840000 0 0 0
1120 374 4 0 15.630000 27.950000 15.700000 0 0 0
1121 374 3 0 15.220000 27.520000 16.170000 0 0 0
1122 374 3 0 16.040000 28.380000 15.230000 0 0 0
1123 375 4 0 14.190000 26.490000 16.860000 0 0 0
1124 375 3 0 13.750000 25.890000 16.980000 0 0 0
1125 375 3 0 14.640000 27.100000 16.740000 0 0 0
1126 376 4 0 12.460000 25.850000 15.340000 0 0 0
1127 376 3 0 11.820000 25.490000 15.170000 0 0 0
1128 376 3 0 13.110000 26.210000 15.500000 0 0 0
1129 377 4 0 11.490000 25.960000 13.050000 0 0 0
1130 377 3 0 10.750000 26.080000 13.000000 0 0 0
1131 377 3 0 12.240000 25.830000 13.100000 0 0 0
1132 378 4 0 10.850000 27.580000 11.490000 0 0 0
1133 378 3 0 10.320000 27.960000 11.880000 0 0 0
1134 378 3 0 11.370000 27.200000 11.090000 0 0 0
1135 379 4 0 10.240000 29.200000 9.900000 0 0 0
1136 379 3 0 10.060000 29.340000 10.620000 0 0 0
1137 379 3 0 10.420000 29.050000 9.170000 0 0 0
1138 380 4 0 11.960000 30.800000 10.370000 0 0 0
1139 380 3 0 11.900000 30.450000 11.040000 0 0 0
1140 380 3 0 12.020000 31.150000 9.700000 0 0 0
1141 381 4 0 12.480000 32.130000 12.270000 0 0 0
1142 381 3 0 12.210000 31.470000 12.560000 0 0 0
1143 381 3 0 12.750000 32.790000 11.990000 0 0 0
1144 382 4 0 14.050000 34.000000 13.120000 0 0 0
1145 382 3 0 13.450000 33.530000 13.020000 0 0 0
1146 382 3 0 14.640000 34.460000 13.230000 0 0 0
1147 383 4 0 13.410000 36.220000 13.700000 0 0 0
1148 383 3 0 12.660000 36.190000 13.570000 0 0 0
1149 383 3 0 14.160000 36.240000 13.830000 0 0 0
1150 384 4 0 14.860000 38.020000 14.420000 0 0 0
1151 384 3 0 14.150000 38.200000 14.630000 0 0 0
1152 384 3 0 15.570000 37.850000 14.210000 0 0 0
1153 385 4 0 13.340000 39.730000 15.320000 0 0 0
1154 385 3 0 12.850000 39.680000 15.900000 0 0 0
1155 385 3 0 13.820000 39.770000 14.740000 0 0 0
1156 386 4 0 11.260000 39.720000 13.930000 0 0 0
1157 386 3 0 11.060000 39.260000 14.500000 0 0 0
1158 386 3 0 11.450000 40.180000 13.360000 0 0 0
1159 387 4 0 10.160000 39.660000 11.920000 0 0 0
1160 387 3 0 9.980000 39.000000 12.240000 0 0 0
1161 387 3 0 10.340000 40.330000 11.600000 0 0 0
1162 388 4 0 7.810000 40.080000 11.020000 0 0 0
1163 388 3 0 7.310000 39.530000 11.180000 0 0 0
1164 388 3 0 8.310000 40.630000 10.860000 0 0 0
1165 389 4 0 6.080000 38.720000 12.000000 0 0 0
1166 389 3 0 5.340000 38.690000 12.140000 0 0 0
1167 389 3 0 6.830000 38.750000 11.870000 0 0 0
1168 390 4 0 5.880000 36.710000 10.750000 0 0 0
1169 390 3 0 5.260000 37.130000 10.920000 0 0 0
1170 390 3 0 6.490000 36.290000 10.570000 0 0 0
1171 391 4 0 5.360000 34.660000 9.400000 0 0 0
1172 391 3 0 4.820000 35.130000 9.650000 0 0 0
1173 391 3 0 5.910000 34.190000 9.140000 0 0 0
1174 392 4 0 5.140000 34.170000 7.120000 0 0 0
1175 392 3 0 4.470000 34.280000 7.450000 0 0 0
1176 392 3 0 5.810000 34.050000 6.780000 0 0 0
1177 393 4 0 3.780000 34.570000 5.220000 0 0 0
1178 393 3 0 3.250000 34.080000 5.460000 0 0 0
1179 393 3 0 4.300000 35.060000 4.970000 0 0 0
1180 394 4 0 2.450000 35.020000 3.280000 0 0 0
1181 394 3 0 2.300000 34.280000 3.390000 0 0 0
1182 394 3 0 2.600000 35.760000 3.170000 0 0 0
1183 395 4 0 0.710000 35.020000 1.630000 0 0 0
1184 395 3 0 0.650000 34.290000 1.810000 0 0 0
1185 395 3 0 0.770000 35.750000 1.450000 0 0 0
1186 396 4 0 1.460000 36.880000 0.340000 0 0 0
1187 396 3 0 1.110000 36.330000 0.740000 0 0 0
1188 396 3 0 1.800000 37.430000 60.135500 0 0 -1
1189 397 4 0 1.160000 39.370000 0.240000 0 0 0
1190 397 3 0 0.530000 39.280000 0.650000 0 0 0
1191 397 3 0 1.800000 39.460000 60.015500 0 0 -1
1192 398 4 0 0.900000 41.670000 0.840000 0 0 0
1193 398 3 0 0.230000 41.880000 1.130000 0 0 0
1194 398 3 0 1.570000 41.460000 0.550000 0 0 0
1195 399 4 0 59.580000 43.240000 1.650000 -1 0 0
1196 399 3 0 58.940000 43.440000 2.000000 -1 0 0
1197 399 3 0 0.034500 43.040000 1.300000 0 0 0
1198 400 1 0 57.490000 44.170000 0.940000 -1 0 0
1199 400 3 0 56.940000 44.160000 1.500000 -1 0 0
1200 400 2 0 58.000000 44.170000 0.410000 -1 0 0
1201 401 1 0 44.190000 9.270000 6.540000 0 0 0
1202 401 2 0 43.570000 9.050000 6.870000 0 0 0
1203 401 3 0 44.860000 9.510000 6.180000 0 0 0
1204 402 4 0 43.670000 9.740000 8.860000 0 0 0
1205 402 3 0 43.030000 9.510000 9.210000 0 0 0
1206 402 3 0 44.310000 9.970000 8.510000 0 0 0
1207 403 4 0 44.780000 9.970000 10.930000 0 0 0
1208 403 3 0 44.160000 9.720000 11.300000 0 0 0
1209 403 3 0 45.400000 10.220000 10.560000 0 0 0
1210 404 4 0 44.440000 11.790000 12.360000 0 0 0
1211 404 3 0 43.850000 11.510000 12.760000 0 0 0
1212 404 3 0 45.030000 12.070000 11.970000 0 0 0
1213 405 4 0 46.760000 12.080000 12.970000 0 0 0
1214 405 3 0 46.200000 11.760000 13.370000 0 0 0
1215 405 3 0 47.320000 12.400000 12.570000 0 0 0
1216 406 4 0 48.500000 13.280000 11.470000 0 0 0
1217 406 3 0 47.920000 12.950000 11.840000 0 0 0
1218 406 3 0 49.070000 13.620000 11.100000 0 0 0
1219 407 4 0 49.860000 14.990000 10.580000 0 0 0
1220 407 3 0 49.230000 14.690000 10.890000 0 0 0
1221 407 3 0 50.480000 15.290000 10.260000 0 0 0
1222 408 4 0 51.270000 16.790000 10.710000 0 0 0
1223 408 3 0 50.580000 16.590000 10.960000 0 0 0
1224 408 3 0 51.960000 16.990000 10.460000 0 0 0
1225 409 4 0 53.040000 16.730000 12.400000 0 0 0
1226 409 3 0 52.320000 16.670000 12.640000 0 0 0
1227 409 3 0 53.760000 16.790000 12.150000 0 0 0
1228 410 4 0 53.370000 17.960000 14.520000 0 0 0
1229 410 3 0 52.690000 17.980000 14.860000 0 0 0
1230 410 3 0 54.050000 17.940000 14.170000 0 0 0
1231 411 4 0 55.720000 18.800000 13.850000 0 0 0
1232 411 3 0 55.160000 18.750000 14.360000 0 0 0
1233 411 3 0 56.280000 18.850000 13.340000 0 0 0
1234 412 4 0 57.450000 19.180000 12.170000 0 0 0
1235 412 3 0 57.060000 18.900000 12.760000 0 0 0
1236 412 3 0 57.840000 19.460000 11.580000 0 0 0
1237 413 4 0 59.570000 18.700000 11.320000 0 0 0
1238 413 3 0 59.290000 18.160000 11.770000 0 0 0
1239 413 3 0 59.850000 19.250000 10.860000 0 0 0
1240 414 4 0 1.580000 18.100000 11.510000 1 0 0
1241 414 3 0 1.220000 17.450000 11.660000 1 0 0
1242 414 3 0 1.940000 18.760000 11.360000 1 0 0
1243 415 4 0 3.690000 18.600000 11.190000 1 0 0
1244 415 3 0 3.080000 18.150000 11.070000 1 0 0
1245 415 3 0 4.290000 19.050000 11.300000 1 0 0
1246 416 4 0 4.410000 20.670000 12.490000 1 0 0
1247 416 3 0 3.650000 20.680000 12.400000 1 0 0
1248 416 3 0 5.160000 20.670000 12.590000 1 0 0
1249 417 4 0 2.940000 21.860000 14.050000 1 0 0
1250 417 3 0 2.290000 22.170000 14.300000 1 0 0
1251 417 3 0 3.590000 21.550000 13.800000 1 0 0
1252 418 4 0 3.930000 22.440000 16.400000 1 0 0
1253 418 3 0 3.510000 22.610000 17.010000 1 0 0
1254 418 3 0 4.350000 22.270000 15.800000 1 0 0
1255 419 4 0 2.700000 23.700000 18.000000 1 0 0
1256 419 3 0 2.390000 23.440000 18.640000 1 0 0
1257 419 3 0 3.010000 23.960000 17.360000 1 0 0
1258 420 4 0 0.970000 25.140000 17.160000 1 0 0
1259 420 3 0 0.540000 24.640000 17.530000 1 0 0
1260 420 3 0 1.400000 25.630000 16.790000 1 0 0
1261 421 4 0 58.670000 24.720000 16.680000 0 0 0
1262 421 3 0 58.020000 24.380000 16.860000 0 0 0
1263 421 3 0 59.320000 25.060000 16.500000 0 0 0
1264 422 4 0 57.130000 23.700000 18.060000 0 0 0
1265 422 3 0 56.430000 23.610000 18.350000 0 0 0
1266 422 3 0 57.820000 23.790000 17.770000 0 0 0
1267 423 4 0 54.710000 23.830000 17.930000 0 0 0
1268 423 3 0 54.160000 23.700000 18.440000 0 0 0
1269 423 3 0 55.260000 23.950000 17.420000 0 0 0
1270 424 4 0 52.620000 23.980000 18.850000 0 0 0
1271 424 3 0 52.210000 23.540000 19.320000 0 0 0
1272 424 3 0 53.030000 24.420000 18.380000 0 0 0
1273 425 4 0 50.290000 24.090000 18.920000 0 0 0
1274 425 3 0 49.850000 23.490000 19.040000 0 0 0
1275 425 3 0 50.740000 24.700000 18.800000 0 0 0
1276 426 4 0 48.370000 24.970000 18.000000 0 0 0
1277 426 3 0 47.720000 24.610000 17.830000 0 0 0
1278 426 3 0 49.020000 25.330000 18.170000 0 0 0
1279 427 4 0 46.360000 25.090000 16.690000 0 0 0
1280 427 3 0 45.620000 25.210000 16.640000 0 0 0
1281 427 3 0 47.100000 24.960000 16.740000 0 0 0
1282 428 4 0 45.100000 24.090000 14.880000 0 0 0
1283 428 3 0 44.570000 24.470000 15.270000 0 0 0
1284 428 3 0 45.620000 23.710000 14.480000 0 0 0
1285 429 4 0 42.750000 25.040000 14.490000 0 0 0
1286 429 3 0 42.570000 25.180000 15.220000 0 0 0
1287 429 3 0 42.930000 24.900000 13.770000 0 0 0
1288 430 4 0 42.480000 26.670000 16.200000 0 0 0
1289 430 3 0 42.420000 26.320000 16.870000 0 0 0
1290 430 3 0 42.540000 27.020000 15.530000 0 0 0
1291 431 4 0 42.890000 28.430000 18.130000 0 0 0
1292 431 3 0 42.620000 27.770000 18.410000 0 0 0
1293 431 3 0 43.160000 29.090000 17.840000 0 0 0
1294 432 4 0 43.640000 30.590000 17.300000 0 0 0
1295 432 3 0 43.040000 30.120000 17.200000 0 0 0
1296 432 3 0 44.230000 31.050000 17.400000 0 0 0
1297 433 4 0 45.930000 31.540000 16.570000 0 0 0
1298 433 3 0 45.180000 31.510000 16.440000 0 0 0
1299 433 3 0 46.680000 31.560000 16.690000 0 0 0
1300 434 4 0 47.020000 29.660000 15.490000 0 0 0
1301 434 3 0 46.310000 29.840000 15.700000 0 0 0
1302 434 3 0 47.730000 29.490000 15.280000 0 0 0
1303 435 4 0 47.470000 29.610000 12.920000 0 0 0
1304 435 3 0 46.980000 29.560000 13.500000 0 0 0
1305 435 3 0 47.950000 29.650000 12.340000 0 0 0
1306 436 4 0 46.310000 31.280000 11.810000 0 0 0
1307 436 3 0 46.110000 30.820000 12.390000 0 0 0
1308 436 3 0 46.510000 31.740000 11.230000 0 0 0
1309 437 4 0 45.430000 33.040000 10.520000 0 0 0
1310 437 3 0 45.260000 32.370000 10.840000 0 0 0
1311 437 3 0 45.610000 33.700000 10.200000 0 0 0
1312 438 4 0 45.110000 34.000000 8.310000 0 0 0
1313 438 3 0 44.610000 33.450000 8.470000 0 0 0
1314 438 3 0 45.610000 34.550000 8.150000 0 0 0
1315 439 4 0 44.630000 35.840000 6.760000 0 0 0
1316 439 3 0 43.890000 35.810000 6.900000 0 0 0
1317 439 3 0 45.380000 35.870000 6.630000 0 0 0
1318 440 4 0 45.360000 37.980000 7.010000 0 0 0
1319 440 3 0 44.740000 38.400000 7.180000 0 0 0
1320 440 3 0 45.970000 37.560000 6.830000 0 0 0
1321 441 4 0 44.900000 39.850000 8.540000 0 0 0
1322 441 3 0 44.360000 40.320000 8.790000 0 0 0
1323 441 3 0 45.450000 39.380000 8.290000 0 0 0
1324 442 4 0 42.840000 39.890000 9.740000 0 0 0
1325 442 3 0 42.170000 40.000000 10.080000 0 0 0
1326 442 3 0 43.510000 39.770000 9.410000 0 0 0
1327 443 4 0 40.440000 39.640000 9.580000 0 0 0
1328 443 3 0 39.910000 39.150000 9.820000 0 0 0
1329 443 3 0 40.960000 40.130000 9.330000 0 0 0
1330 444 4 0 39.500000 41.880000 10.110000 0 0 0
1331 444 3 0 39.350000 41.140000 10.220000 0 0 0
1332 444 3 0 39.650000 42.620000 10.000000 0 0 0
1333 445 4 0 38.600000 42.500000 7.820000 0 0 0
1334 445 3 0 38.540000 41.770000 8.000000 0 0 0
1335 445 3 0 38.660000 43.240000 7.640000 0 0 0
1336 446 4 0 36.510000 41.300000 7.500000 0 0 0
1337 446 3 0 36.160000 40.750000 7.900000 0 0 0
1338 446 3 0 36.850000 41.850000 7.110000 0 0 0
1339 447 4 0 36.170000 39.760000 9.350000 0 0 0
1340 447 3 0 35.540000 39.670000 9.760000 0 0 0
1341 447 3 0 36.810000 39.850000 8.940000 0 0 0
1342 448 4 0 35.780000 38.010000 10.980000 0 0 0
1343 448 3 0 35.110000 38.210000 11.270000 0 0 0
1344 448 3 0 36.450000 37.800000 10.690000 0 0 0
1345 449 4 0 36.720000 36.000000 12.100000 0 0 0
1346 449 3 0 36.080000 36.200000 12.450000 0 0 0
1347 449 3 0 37.360000 35.810000 11.750000 0 0 0
1348 450 1 0 39.130000 35.870000 11.620000 0 0 0
1349 450 3 0 38.580000 35.860000 12.180000 0 0 0
1350 450 2 0 39.640000 35.870000 11.090000 0 0 0
1351 451 1 0 36.030000 9.630000 55.580000 0 0 0
1352 451 2 0 35.410000 9.410000 55.910000 0 0 0
1353 451 3 0 36.700000 9.870000 55.220000 0 0 0
1354 452 4 0 36.570000 12.070000 55.640000 0 0 0
1355 452 3 0 35.940000 11.840000 55.990000 0 0 0
1356 452 3 0 37.210000 12.300000 55.290000 0 0 0
1357 453 4 0 36.170000 14.290000 55.220000 0 0 0
1358 453 3 0 35.550000 14.040000 55.590000 0 0 0
1359 453 3 0 36.790000 14.540000 54.850000 0 0 0
1360 454 4 0 33.700000 14.600000 55.240000 0 0 0
1361 454 3 0 33.110000 14.320000 55.640000 0 0 0
1362 454 3 0 34.290000 14.880000 54.850000 0 0 0
1363 455 4 0 31.650000 15.770000 54.960000 0 0 0
1364 455 3 0 31.090000 15.450000 55.360000 0 0 0
1365 455 3 0 32.220000 16.090000 54.560000 0 0 0
1366 456 4 0 30.050000 15.700000 56.900000 0 0 0
1367 456 3 0 29.470000 15.370000 57.280000 0 0 0
1368 456 3 0 30.620000 16.040000 56.530000 0 0 0
1369 457 4 0 28.680000 17.590000 57.860000 0 0 0
1370 457 3 0 28.050000 17.290000 58.170000 0 0 0
1371 457 3 0 29.300000 17.890000 57.540000 0 0 0
1372 458 4 0 29.540000 19.750000 58.060000 0 0 0
1373 458 3 0 28.850000 19.550000 58.310000 0 0 0
1374 458 3 0 30.230000 19.950000 57.810000 0 0 0
1375 459 4 0 30.530000 21.760000 58.420000 0 0 0
1376 459 3 0 29.810000 21.700000 58.660000 0 0 0
1377 459 3 0 31.250000 21.830000 58.170000 0 0 0
1378 460 4 0 30.550000 24.070000 59.130000 0 0 0
1379 460 3 0 29.870000 24.090000 59.470000 0 0 0
1380 460 3 0 31.230000 24.050000 58.790000 0 0 0
1381 461 4 0 28.640000 25.420000 59.980000 0 0 0
1382 461 3 0 28.080000 25.370000 0.304500 0 0 1
1383 461 3 0 29.210000 25.460000 59.470000 0 0 0
1384 462 4 0 27.010000 26.690000 58.310000 0 0 0
1385 462 3 0 26.620000 26.420000 58.900000 0 0 0
1386 462 3 0 27.400000 26.970000 57.720000 0 0 0
1387 463 4 0 26.180000 28.670000 59.090000 0 0 0
1388 463 3 0 25.900000 28.120000 59.540000 0 0 0
1389 463 3 0 26.460000 29.210000 58.640000 0 0 0
1390 464 4 0 24.420000 30.160000 59.060000 0 0 0
1391 464 3 0 24.060000 29.500000 59.210000 0 0 0
1392 464 3 0 24.780000 30.820000 58.910000 0 0 0
1393 465 4 0 22.150000 29.640000 58.220000 0 0 0
1394 465 3 0 21.540000 29.190000 58.100000 0 0 0
1395 465 3 0 22.760000 30.090000 58.330000 0 0 0
1396 466 4 0 21.750000 29.170000 55.620000 0 0 0
1397 466 3 0 20.990000 29.170000 55.530000 0 0 0
1398 466 3 0 22.500000 29.170000 55.720000 0 0 0
1399 467 4 0 23.620000 27.940000 54.230000 0 0 0
1400 467 3 0 22.970000 28.250000 54.480000 0 0 0
1401 467 3 0 24.270000 27.630000 53.980000 0 0 0
1402 468 4 0 24.820000 29.420000 52.780000 0 0 0
1403 468 3 0 24.400000 29.590000 53.380000 0 0 0
1404 468 3 0 25.250000 29.250000 52.170000 0 0 0
1405 469 4 0 25.200000 31.460000 54.250000 0 0 0
1406 469 3 0 24.890000 31.200000 54.890000 0 0 0
1407 469 3 0 25.510000 31.720000 53.610000 0 0 0
1408 470 4 0 26.520000 33.140000 55.370000 0 0 0
1409 470 3 0 26.090000 32.640000 55.740000 0 0 0
1410 470 3 0 26.960000 33.640000 55.000000 0 0 0
1411 471 4 0 27.800000 34.860000 56.640000 0 0 0
1412 471 3 0 27.150000 34.520000 56.820000 0 0 0
1413 471 3 0 28.450000 35.210000 56.460000 0 0 0
1414 472 4 0 29.760000 35.740000 56.100000 0 0 0
1415 472 3 0 29.060000 35.650000 56.390000 0 0 0
1416 472 3 0 30.450000 35.830000 55.810000 0 0 0
1417 473 4 0 31.890000 34.910000 55.240000 0 0 0
1418 473 3 0 31.340000 34.780000 55.750000 0 0 0
1419 473 3 0 32.440000 35.030000 54.730000 0 0 0
1420 474 4 0 32.930000 34.450000 53.020000 0 0 0
1421 474 3 0 32.520000 34.010000 53.490000 0 0 0
1422 474 3 0 33.340000 34.880000 52.550000 0 0 0
1423 475 4 0 34.700000 32.820000 53.520000 0 0 0
1424 475 3 0 34.260000 32.220000 53.640000 0 0 0
1425 475 3 0 35.150000 33.430000 53.400000 0 0 0
1426 476 4 0 35.620000 33.270000 55.790000 0 0 0
1427 476 3 0 34.980000 32.910000 55.620000 0 0 0
1428 476 3 0 36.270000 33.630000 55.950000 0 0 0
1429 477 4 0 37.480000 33.690000 57.150000 0 0 0
1430 477 3 0 36.740000 33.810000 57.100000 0 0 0
1431 477 3 0 38.230000 33.570000 57.200000 0 0 0
1432 478 4 0 37.930000 34.280000 59.450000 0 0 0
1433 478 3 0 37.400000 34.660000 59.850000 0 0 0
1434 478 3 0 38.450000 33.900000 59.050000 0 0 0
1435 479 4 0 37.960000 33.760000 1.520000 0 0 1
1436 479 3 0 37.770000 33.900000 2.250000 0 0 1
1437 479 3 0 38.140000 33.610000 0.790000 0 0 1
1438 480 4 0 40.240000 32.820000 2.000000 0 0 1
1439 480 3 0 40.180000 32.470000 2.670000 0 0 1
1440 480 3 0 40.300000 33.170000 1.330000 0 0 1
1441 481 4 0 41.890000 34.460000 1.610000 0 0 1
1442 481 3 0 41.620000 33.810000 1.890000 0 0 1
1443 481 3 0 42.160000 35.120000 1.330000 0 0 1
1444 482 4 0 42.710000 34.350000 59.600000 0 0 0
1445 482 3 0 42.110000 33.880000 59.500000 0 0 0
1446 482 3 0 43.300000 34.810000 59.700000 0 0 0
1447 483 4 0 42.130000 34.890000 57.160000 0 0 0
1448 483 3 0 41.380000 34.860000 57.040000 0 0 0
1449 483 3 0 42.880000 34.910000 57.290000 0 0 0
1450 484 4 0 41.410000 35.290000 54.930000 0 0 0
1451 484 3 0 40.700000 35.460000 55.140000 0 0 0
1452 484 3 0 42.120000 35.120000 54.720000 0 0 0
1453 485 4 0 39.290000 35.240000 53.760000 0 0 0
1454 485 3 0 38.800000 35.190000 54.340000 0 0 0
1455 485 3 0 39.770000 35.280000 53.180000 0 0 0
1456 486 4 0 37.430000 36.940000 53.280000 0 0 0
1457 486 3 0 37.230000 36.480000 53.860000 0 0 0
1458 486 3 0 37.620000 37.400000 52.710000 0 0 0
1459 487 4 0 38.040000 39.330000 53.430000 0 0 0
1460 487 3 0 37.860000 38.660000 53.750000 0 0 0
1461 487 3 0 38.210000 39.990000 53.110000 0 0 0
1462 488 4 0 37.980000 41.460000 52.340000 0 0 0
1463 488 3 0 37.480000 40.910000 52.500000 0 0 0
1464 488 3 0 38.480000 42.010000 52.180000 0 0 0
1465 489 4 0 36.700000 43.110000 53.670000 0 0 0
1466 489 3 0 35.960000 43.080000 53.800000 0 0 0
1467 489 3 0 37.450000 43.140000 53.540000 0 0 0
1468 490 4 0 34.830000 42.220000 54.760000 0 0 0
1469 490 3 0 34.210000 42.640000 54.940000 0 0 0
1470 490 3 0 35.440000 41.800000 54.580000 0 0 0
1471 491 4 0 34.900000 41.180000 56.940000 0 0 0
1472 491 3 0 34.360000 41.650000 57.200000 0 0 0
1473 491 3 0 35.450000 40.710000 56.680000 0 0 0
1474 492 4 0 35.060000 42.720000 58.890000 0 0 0
1475 492 3 0 34.390000 42.840000 59.230000 0 0 0
1476 492 3 0 35.730000 42.610000 58.560000 0 0 0
1477 493 4 0 36.190000 42.210000 0.870000 0 0 1
1478 493 3 0 35.670000 41.720000 1.110000 0 0 1
1479 493 3 0 36.710000 42.700000 0.620000 0 0 1
1480 494 4 0 35.930000 42.540000 3.280000 0 0 1
1481 494 3 0 35.780000 41.800000 3.390000 0 0 1
1482 494 3 0 36.080000 43.280000 3.170000 0 0 1
1483 495 4 0 34.210000 41.170000 4.260000 0 0 1
1484 495 3 0 34.150000 40.430000 4.440000 0 0 1
1485 495 3 0 34.270000 41.910000 4.080000 0 0 1
1486 496 4 0 32.810000 39.620000 5.670000 0 0 1
1487 496 3 0 32.460000 39.070000 6.070000 0 0 1
1488 496 3 0 33.150000 40.170000 5.270000 0 0 1
1489 497 4 0 31.610000 37.690000 5.200000 0 0 1
1490 497 3 0 30.980000 37.600000 5.610000 0 0 1
1491 497 3 0 32.250000 37.780000 4.790000 0 0 1
1492 498 4 0 30.420000 37.260000 3.170000 0 0 1
1493 498 3 0 29.750000 37.460000 3.460000 0 0 1
1494 498 3 0 31.090000 37.050000 2.880000 0 0 1
1495 499 4 0 28.390000 37.880000 2.230000 0 0 1
1496 499 3 0 27.750000 38.080000 2.580000 0 0 1
1497 499 3 0 29.030000 37.680000 1.880000 0 0 1
1498 500 1 0 27.170000 37.860000 0.310000 0 0 1
1499 500 3 0 26.620000 37.850000 0.870000 0 0 1
1500 500 2 0 27.680000 37.860000 59.965500 0 0 0

Bonds

1 1 2 3
2 1 5 6
3 1 8 9
4 1 11 12
5 1 14 15
6 1 17 18
7 1 20 21
8 1 23 24
9 1 26 27
10 1 29 30
11 1 32 33
12 1 35 36
13 1 38 39
14 1 41 42
15 1 44 45
16 1 47 48
17 1 50 51
18 1 53 54
19 1 56 57
20 1 59 60
21 1 62 63
22 1 65 66
23 1 68 69
24 1 71 72
25 1 74 75
26 1 77 78
27 1 80 81
28 1 83 84
29 1 86 87
30 1 89 90
31 1 92 93
32 1 95 96
33 1 98 99
34 1 101 102
35 1 104 105
36 1 107 108
37 1 110 111
38 1 113 114
39 1 116 117
40 1 119 120
41 1 122 123
42 1 125 126
43 1 128 129
44 1 131 132
45 1 134 135
46 1 137 138
47 1 140 141
48 1 143 144
49 1 146 147
50 1 149 150
51 1 152 153
52 1 155 156
53 1 158 159
54 1 161 162
55 1 164 165
56 1 167 168
57 1 170 171
58 1 173 174
59 1 176 177
60 1 179 180
61 1 182 183
62 1 185 186
63 1 188 189
64 1 191 192
65 1 194 195
66 1 197 198
67 1 200 201
68 1 203 204
69 1 206 207
70 1 209 210
71 1 212 213
72 1 215 216
73 1 218 219
74 1 221 222
75 1 224 225
76 1 227 228
77 1 230 231
78 1 233 234
79 1 236 237
80 1 239 240
81 1 242 243
82 1 245 246
83 1 248 249
84 1 251 252
85 1 254 255
86 1 257 258
87 1 260 261
88 1 263 264
89 1 266 267
90 1 269 270
91 1 272 273
92 1 275 276
93 1 278 279
94 1 281 282
95 1 284 285
96 1 287 288
97 1 290 291
98 1 293 294
99 1 296 297
100 1 299 300
101 1 302 303
102 1 305 306
103 1 308 309
104 1 311 312
105 1 314 315
106 1 317 318
107 1 320 321
108 1 323 324
109 1 326 327
110 1 329 330
111 1 332 333
112 1 335 336
113 1 338 339
114 1 341 342
115 1 344 345
116 1 347 348
117 1 350 351
118 1 353 354
119 1 356 357
120 1 359 360
121 1 362 363
122 1 365 366
123 1 368 369
124 1 371 372
125 1 374 375
126 1 377 378
127 1 380 381
128 1 383 384
129 1 386 387
130 1 389 390
131 1 392 393
132 1 395 396
133 1 398 399
134 1 401 402
135 1 404 405
136 1 407 408
137 1 410 411
138 1 413 414
139 1 416 417
140 1 419 420
141 1 422 423
142 1 425 426
143 1 428 429
144 1 431 432
145 1 434 435
146 1 437 438
147 1 440 441
148 1 443 444
149 1 446 447
150 1 449 450
151 1 452 453
152 1 455 456
153 1 458 459
154 1 461 462
155 1 464 465
156 1 467 468
157 1 470 471
158 1 473 474
159 1 476 477
160 1 479 480
161 1 482 483
162 1 485 486
163 1 488 489
164 1 491 492
165 1 494 495
166 1 497 498
167 1 500 501
168 1 503 504
169 1 506 507
170 1 509 510
171 1 512 513
172 1 515 516
173 1 518 519
174 1 521 522
175 1 524 525
176 1 527 528
177 1 530 531
178 1 533 534
179 1 536 537
180 1 539 540
181 1 542 543
182 1 545 546
183 1 548 549
184 1 551 552
185 1 554 555
186 1 557 558
187 1 560 561
188 1 563 564
189 1 566 567
190 1 569 570
191 1 572 573
192 1 575 576
193 1 578 579
194 1 581 582
195 1 584 585
196 1 587 588
197 1 590 591
198 1 593 594
199 1 596 597
200 1 599 600
201 1 602 603
202 1 605 606
203 1 608 609
204 1 611 612
205 1 614 615
206 1 617 618
207 1 620 621
208 1 623 624
209 1 626 627
210 1 629 630
211 1 632 633
212 1 635 636
213 1 638 639
214 1 641 642
215 1 644 645
216 1 647 648
217 1 650 651
218 1 653 654
219 1 656 657
220 1 659 660
221 1 662 663
222 1 665 666
223 1 668 669
224 1 671 672
225 1 674 675
226 1 677 678
227 1 680 681
228 1 683 684
229 1 686 687
230 1 689 690
231 1 692 693
232 1 695 696
233 1 698 699
234 1 701 702
235 1 704 705
236 1 707 708
237 1 710 711
238 1 713 714
239 1 716 717
240 1 719 720
241 1 722 723
242 1 725 726
243 1 728 729
244 1 731 732
245 1 734 735
246 1 737 738
247 1 740 741
248 1 743 744
249 1 746 747
250 1 749 750
251 1 752 753
252 1 755 756
253 1 758 759
254 1 761 762
255 1 764 765
256 1 767 768
257 1 770 771
258 1 773 774
259 1 776 777
260 1 779 780
261 1 782 783
262 1 785 786
263 1 788 789
264 1 791 792
265 1 794 795
266 1 797 798
267 1 800 801
268 1 803 804
269 1 806 807
270 1 809 810
271 1 812 813
272 1 815 816
273 1 818 819
274 1 821 822
275 1 824 825
276 1 827 828
277 1 830 831
278 1 833 834
279 1 836 837
280 1 839 840
281 1 842 843
282 1 845 846
283 1 848 849
284 1 851 852
285 1 854 855
286 1 857 858
287 1 860 861
288 1 863 864
289 1 866 867
290 1 869 870
291 1 872 873
292 1 875 876
293 1 878 879
294 1 881 882
295 1 884 885
296 1 887 888
297 1 890 891
298 1 893 894
299 1 896 897
300 1 899 900
301 1 902 903
302 1 905 906
303 1 908 909
304 1 911 912
305 1 914 915
306 1 917 918
307 1 920 921
308 1 923 924
309 1 926 927
310 1 929 930
311 1 932 933
312 1 935 936
313 1 938 939
314 1 941 942
315 1 944 945
316 1 947 948
317 1 950 951
318 1 953 954
319 1 956 957
320 1 959 960
321 1 962 963
322 1 965 966
323 1 968 969
324 1 971 972
325 1 974 975
326 1 977 978
327 1 980 981
328 1 983 984
329 1 986 987
330 1 989 990
331 1 992 993
332 1 995 996
333 1 998 999
334 1 1001 1002
335 1 1004 1005
336 1 1007 1008
337 1 1010 1011
338 1 1013 1014
339 1 1016 1017
340 1 1019 1020
341 1 1022 1023
342 1 1025 1026
343 1 1028 1029
344 1 1031 1032
345 1 1034 1035
346 1 1037 1038
347 1 1040 1041
348 1 1043 1044
349 1 1046 1047
350 1 1049 1050
351 1 1052 1053
352 1 1055 1056
353 1 1058 1059
354 1 1061 1062
355 1 1064 1065
356 1 1067 1068
357 1 1070 1071
358 1 1073 1074
359 1 1076 1077
360 1 1079 1080
361 1 1082 1083
362 1 1085 1086
363 1 1088 1089
364 1 1091 1092
365 1 1094 1095
366 1 1097 1098
367 1 1100 1101
368 1 1103 1104
369 1 1106 1107
370 1 1109 1110
371 1 1112 1113
372 1 1115 1116
373 1 1118 1119
374 1 1121 1122
375 1 1124 1125
376 1 1127 1128
377 1 1130 1131
378 1 1133 1134
379 1 1136 1137
380 1 1139 1140
381 1 1142 1143
382 1 1145 1146
383 1 1148 1149
384 1 1151 1152
385 1 1154 1155
386 1 1157 1158
387 1 1160 1161
388 1 1163 1164
389 1 1166 1167
390 1 1169 1170
391 1 1172 1173
392 1 1175 1176
393 1 1178 1179
394 1 1181 1182
395 1 1184 1185
396 1 1187 1188
397 1 1190 1191
398 1 1193 1194
399 1 1196 1197
400 1 1199 1200
401 1 1202 1203
402 1 1205 1206
403 1 1208 1209
404 1 1211 1212
405 1 1214 1215
406 1 1217 1218
407 1 1220 1221
408 1 1223 1224
409 1 1226 1227
410 1 1229 1230
411 1 1232 1233
412 1 1235 1236
413 1 1238 1239
414 1 1241 1242
415 1 1244 1245
416 1 1247 1248
417 1 1250 1251
418 1 1253 1254
419 1 1256 1257
420 1 1259 1260
421 1 1262 1263
422 1 1265 1266
423 1 1268 1269
424 1 1271 1272
425 1 1274 1275
426 1 1277 1278
427 1 1280 1281
428 1 1283 1284
429 1 1286 1287
430 1 1289 1290
431 1 1292 1293
432 1 1295 1296
433 1 1298 1299
434 1 1301 1302
435 1 1304 1305
436 1 1307 1308
437 1 1310 1311
438 1 1313 1314
439 1 1316 1317
440 1 1319 1320
441 1 1322 1323
442 1 1325 1326
443 1 1328 1329
444 1 1331 1332
445 1 1334 1335
446 1 1337 1338
447 1 1340 1341
448 1 1343 1344
449 1 1346 1347
450 1 1349 1350
451 1 1352 1353
452 1 1355 1356
453 1 1358 1359
454 1 1361 1362
455 1 1364 1365
456 1 1367 1368
457 1 1370 1371
458 1 1373 1374
459 1 1376 1377
460 1 1379 1380
461 1 1382 1383
462 1 1385 1386
463 1 1388 1389
464 1 1391 1392
465 1 1394 1395
466 1 1397 1398
467 1 1400 1401
468 1 1403 1404
469 1 1406 1407
470 1 1409 1410
471 1 1412 1413
472 1 1415 1416
473 1 1418 1419
474 1 1421 1422
475 1 1424 1425
476 1 1427 1428
477 1 1430 1431
478 1 1433 1434
479 1 1436 1437
480 1 1439 1440
481 1 1442 1443
482 1 1445 1446
483 1 1448 1449
484 1 1451 1452
485 1 1454 1455
486 1 1457 1458
487 1 1460 1461
488 1 1463 1464
489 1 1466 1467
490 1 1469 1470
491 1 1472 1473
492 1 1475 1476
493 1 1478 1479
494 1 1481 1482
495 1 1484 1485
496 1 1487 1488
497 1 1490 1491
498 1 1493 1494
499 1 1496 1497
500 1 1499 1500
501 2 1 4
502 1 3 5
503 3 4 7
504 1 6 8
505 3 7 10
506 1 9 11
507 3 10 13
508 1 12 14
509 3 13 16
510 1 15 17
511 3 16 19
512 1 18 20
513 3 19 22
514 1 21 23
515 3 22 25
516 1 24 26
517 3 25 28
518 1 27 29
519 3 28 31
520 1 30 32
521 3 31 34
522 1 33 35
523 3 34 37
524 1 36 38
525 3 37 40
526 1 39 41
527 3 40 43
528 1 42 44
529 3 43 46
530 1 45 47
531 3 46 49
532 1 48 50
533 3 49 52
534 1 51 53
535 3 52 55
536 1 54 56
537 3 55 58
538 1 57 59
539 3 58 61
540 1 60 62
541 3 61 64
542 1 63 65
543 3 64 67
544 1 66 68
545 3 67 70
546 1 69 71
547 3 70 73
548 1 72 74
549 3 73 76
550 1 75 77
551 3 76 79
552 1 78 80
553 3 79 82
554 1 81 83
555 3 82 85
556 1 84 86
557 3 85 88
558 1 87 89
559 3 88 91
560 1 90 92
561 3 91 94
562 1 93 95
563 3 94 97
564 1 96 98
565 3 97 100
566 1 99 101
567 3 100 103
568 1 102 104
569 3 103 106
570 1 105 107
571 3 106 109
572 1 108 110
573 3 109 112
574 1 111 113
575 3 112 115
576 1 114 116
577 3 115 118
578 1 117 119
579 3 118 121
580 1 120 122
581 3 121 124
582 1 123 125
583 3 124 127
584 1 126 128
585 3 127 130
586 1 129 131
587 3 130 133
588 1 132 134
589 3 133 136
590 1 135 137
591 3 136 139
592 1 138 140
593 3 139 142
594 1 141 143
595 3 142 145
596 1 144 146
597 2 145 148
598 1 147 149
599 2 151 154
600 1 153 155
601 3 154 157
602 1 156 158
603 3 157 160
604 1 159 161
605 3 160 163
606 1 162 164
607 3 163 166
608 1 165 167
609 3 166 169
610 1 168 170
611 3 169 172
612 1 171 173
613 3 172 175
614 1 174 176
615 3 175 178
616 1 177 179
617 3 178 181
618 1 180 182
619 3 181 184
620 1 183 185
621 3 184 187
622 1 186 188
623 3 187 190
624 1 189 191
625 3 190 193
626 1 192 194
627 3 193 196
628 1 195 197
629 3 196 199
630 1 198 200
631 3 199 202
632 1 201 203
633 3 202 205
634 1 204 206
635 3 205 208
636 1 207 209
637 3 208 211
638 1 210 212
639 3 211 214
640 1 213 215
641 3 214 217
642 1 216 218
643 3 217 220
644 1 219 221
645 3 220 223
646 1 222 224
647 3 223 226
648 1 225 227
649 3 226 229
650 1 228 230
651 3 229 232
652 1 231 233
653 3 232 235
654 1 234 236
655 3 235 238
656 1 237 239
657 3 238 241
658 1 240 242
659 3 241 244
660 1 243 245
661 3 244 247
662 1 246 248
663 3 247 250
664 1 249 251
665 3 250 253
666 1 252 254
667 3 253 256
668 1 255 257
669 3 256 259
670 1 258 260
671 3 259 262
672 1 261 263
673 3 262 265
674 1 264 266
675 3 265 268
676 1 267 269
677 3 268 271
678 1 270 272
679 3 271 274
680 1 273 275
681 3 274 277
682 1 276 278
683 3 277 280
684 1 279 281
685 3 280 283
686 1 282 284
687 3 283 286
688 1 285 287
689 3 286 289
690 1 288 290
691 3 289 292
692 1 291 293
693 3 292 295
694 1 294 296
695 2 295 298
696 1 297 299
697 2 301 304
698 1 303 305
699 3 304 307
700 1 306 308
701 3 307 310
702 1 309 311
703 3 310 313
704 1 312 314
705 3 313 316
706 1 315 317
707 3 316 319
708 1 318 320
709 3 319 322
710 1 321 323
711 3 322 325
712 1 324 326
713 3 325 328
714 1 327 329
715 3 328 331
716 1 330 332
717 3 331 334
718 1 333 335
719 3 334 337
720 1 336 338
721 3 337 340
722 1 339 341
723 3 340 343
724 1 342 344
725 3 343 346
726 1 345 347
727 3 346 349
728 1 348 350
729 3 349 352
730 1 351 353
731 3 352 355
732 1 354 356
733 3 355 358
734 1 357 359
735 3 358 361
736 1 360 362
737 3 361 364
738 1 363 365
739 3 364 367
740 1 366 368
741 3 367 370
742 1 369 371
743 3 370 373
744 1 372 374
745 3 373 376
746 1 375 377
747 3 376 379
748 1 378 380
749 3 379 382
750 1 381 383
751 3 382 385
752 1 384 386
753 3 385 388
754 1 387 389
755 3 388 391
756 1 390 392
757 3 391 394
758 1 393 395
759 3 394 397
760 1 396 398
761 3 397 400
762 1 399 401
763 3 400 403
764 1 402 404
765 3 403 406
766 1 405 407
767 3 406 409
768 1 408 410
769 3 409 412
770 1 411 413
771 3 412 415
772 1 414 416
773 3 415 418
774 1 417 419
775 3 418 421
776 1 420 422
777 3 421 424
778 1 423 425
779 3 424 427
780 1 426 428
781 3 427 430
782 1 429 431
783 3 430 433
784 1 432 434
785 3 433 436
786 1 435 437
787 3 436 439
788 1 438 440
789 3 439 442
790 1 441 443
791 3 442 445
792 1 444 446
793 2 445 448
794 1 447 449
795 2 451 454
796 1 453 455
797 3 454 457
798 1 456 458
799 3 457 460
800 1 459 461
801 3 460 463
802 1 462 464
803 3 463 466
804 1 465 467
805 3 466 469
806 1 468 470
807 3 469 472
808 1 471 473
809 3 472 475
810 1 474 476
811 3 475 478
812 1 477 479
813 3 478 481
814 1 480 482
815 3 481 484
816 1 483 485
817 3 484 487
818 1 486 488
819 3 487 490
820 1 489 491
821 3 490 493
822 1 492 494
823 3 493 496
824 1 495 497
825 3 496 499
826 1 498 500
827 3 499 502
828 1 501 503
829 3 502 505
830 1 504 506
831 3 505 508
832 1 507 509
833 3 508 511
834 1 510 512
835 3 511 514
836 1 513 515
837 3 514 517
838 1 516 518
839 3 517 520
840 1 519 521
841 3 520 523
842 1 522 524
843 3 523 526
844 1 525 527
845 3 526 529
846 1 528 530
847 3 529 532
848 1 531 533
849 3 532 535
850 1 534 536
851 3 535 538
852 1 537 539
853 3 538 541
854 1 540 542
855 3 541 544
856 1 543 545
857 3 544 547
858 1 546 548
859 3 547 550
860 1 549 551
861 3 550 553
862 1 552 554
863 3 553 556
864 1 555 557
865 3 556 559
866 1 558 560
867 3 559 562
868 1 561 563
869 3 562 565
870 1 564 566
871 3 565 568
872 1 567 569
873 3 568 571
874 1 570 572
875 3 571 574
876 1 573 575
877 3 574 577
878 1 576 578
879 3 577 580
880 1 579 581
881 3 580 583
882 1 582 584
883 3 583 586
884 1 585 587
885 3 586 589
886 1 588 590
887 3 589 592
888 1 591 593
889 3 592 595
890 1 594 596
891 2 595 598
892 1 597 599
893 2 601 604
894 1 603 605
895 3 604 607
896 1 606 608
897 3 607 610
898 1 609 611
899 3 610 613
900 1 612 614
901 3 613 616
902 1 615 617
903 3 616 619
904 1 618 620
905 3 619 622
906 1 621 623
907 3 622 625
908 1 624 626
909 3 625 628
910 1 627 629
911 3 628 631
912 1 630 632
913 3 631 634
914 1 633 635
915 3 634 637
916 1 636 638
917 3 637 640
918 1 639 641
919 3 640 643
920 1 642 644
921 3 643 646
922 1 645 647
923 3 646 649
924 1 648 650
925 3 649 652
926 1 651 653
927 3 652 655
928 1 654 656
929 3 655 658
930 1 657 659
931 3 658 661
932 1 660 662
933 3 661 664
934 1 663 665
935 3 664 667
936 1 666 668
937 3 667 670
938 1 669 671
939 3 670 673
940 1 672 674
941 3 673 676
942 1 675 677
943 3 676 679
944 1 678 680
945 3 679 682
946 1 681 683
947 3 682 685
948 1 684 686
949 3 685 688
950 1 687 689
951 3 688 691
952 1 690 692
953 3 691 694
954 1 693 695
955 3 694 697
956 1 696 698
957 3 697 700
958 1 699 701
959 3 700 703
960 1 702 704
961 3 703 706
962 1 705 707
963 3 706 709
964 1 708 710
965 3 709 712
966 1 711 713
967 3 712 715
968 1 714 716
969 3 715 718
970 1 717 719
971 3 718 721
972 1 720 722
973 3 721 724
974 1 723 725
975 3 724 727
976 1 726 728
977 3 727 730
978 1 729 731
979 3 730 733
980 1 732 734
981 3 733 736
982 1 735 737
983 3 736 739
984 1 738 740
985 3 739 742
986 1 741 743
987 3 742 745
988 1 744 746
989 2 745 748
990 1 747 749
991 2 751 754
992 1 753 755
993 3 754 757
994 1 756 758
995 3 757 760
996 1 759 761
997 3 760 763
998 1 762 764
999 3 763 766
1000 1 765 767
1001 3 766 769
1002 1 768 770
1003 3 769 772
1004 1 771 773
1005 3 772 775
1006 1 774 776
1007 3 775 778
1008 1 777 779
1009 3 778 781
1010 1 780 782
1011 3 781 784
1012 1 783 785
1013 3 784 787
1014 1 786 788
1015 3 787 790
1016 1 789 791
1017 3 790 793
1018 1 792 794
1019 3 793 796
1020 1 795 797
1021 3 796 799
1022 1 798 800
1023 3 799 802
1024 1 801 803
1025 3 802 805
1026 1 804 806
1027 3 805 808
1028 1 807 809
1029 3 808 811
1030 1 810 812
1031 3 811 814
1032 1 813 815
1033 3 814 817
1034 1 816 818
1035 3 817 820
1036 1 819 821
1037 3 820 823
1038 1 822 824
1039 3 823 826
1040 1 825 827
1041 3 826 829
1042 1 828 830
1043 3 829 832
1044 1 831 833
1045 3 832 835
1046 1 834 836
1047 3 835 838
1048 1 837 839
1049 3 838 841
1050 1 840 842
1051 3 841 844
1052 1 843 845
1053 3 844 847
1054 1 846 848
1055 3 847 850
1056 1 849 851
1057 3 850 853
1058 1 852 854
1059 3 853 856
1060 1 855 857
1061 3 856 859
1062 1 858 860
1063 3 859 862
1064 1 861 863
1065 3 862 865
1066 1 864 866
1067 3 865 868
1068 1 867 869
1069 3 868 871
1070 1 870 872
1071 3 871 874
1072 1 873 875
1073 3 874 877
1074 1 876 878
1075 3 877 880
1076 1 879 881
1077 3 880 883
1078 1 882 884
1079 3 883 886
1080 1 885 887
1081 3 886 889
1082 1 888 890
1083 3 889 892
1084 1 891 893
1085 3 892 895
1086 1 894 896
1087 2 895 898
1088 1 897 899
1089 2 901 904
1090 1 903 905
1091 3 904 907
1092 1 906 908
1093 3 907 910
1094 1 909 911
1095 3 910 913
1096 1 912 914
1097 3 913 916
1098 1 915 917
1099 3 916 919
1100 1 918 920
1101 3 919 922
1102 1 921 923
1103 3 922 925
1104 1 924 926
1105 3 925 928
1106 1 927 929
1107 3 928 931
1108 1 930 932
1109 3 931 934
1110 1 933 935
1111 3 934 937
1112 1 936 938
1113 3 937 940
1114 1 939 941
1115 3 940 943
1116 1 942 944
1117 3 943 946
1118 1 945 947
1119 3 946 949
1120 1 948 950
1121 3 949 952
1122 1 951 953
1123 3 952 955
1124 1 954 956
1125 3 955 958
1126 1 957 959
1127 3 958 961
1128 1 960 962
1129 3 961 964
1130 1 963 965
1131 3 964 967
1132 1 966 968
1133 3 967 970
1134 1 969 971
1135 3 970 973
1136 1 972 974
1137 3 973 976
1138 1 975 977
1139 3 976 979
1140 1 978 980
1141 3 979 982
1142 1 981 983
1143 3 982 985
1144 1 984 986
1145 3 985 988
1146 1 987 989
1147 3 988 991
1148 1 990 992
1149 3 991 994
1150 1 993 995
1151 3 994 997
1152 1 996 998
1153 3 997 1000
1154 1 999 1001
1155 3 1000 1003
1156 1 1002 1004
1157 3 1003 1006
1158 1 1005 1007
1159 3 1006 1009
1160 1 1008 1010
1161 3 1009 1012
1162 1 1011 1013
1163 3 1012 1015
1164 1 1014 1016
1165 3 1015 1018
1166 1 1017 1019
1167 3 1018 1021
1168 1 1020 1022
1169 3 1021 1024
1170 1 1023 1025
1171 3 1024 1027
1172 1 1026 1028
1173 3 1027 1030
1174 1 1029 1031
1175 3 1030 1033
1176 1 1032 1034
1177 3 1033 1036
1178 1 1035 1037
1179 3 1036 1039
1180 1 1038 1040
1181 3 1039 1042
1182 1 1041 1043
1183 3 1042 1045
1184 1 1044 1046
1185 2 1045 1048
1186 1 1047 1049
1187 2 1051 1054
1188 1 1053 1055
1189 3 1054 1057
1190 1 1056 1058
1191 3 1057 1060
1192 1 1059 1061
1193 3 1060 1063
1194 1 1062 1064
1195 3 1063 1066
1196 1 1065 1067
1197 3 1066 1069
1198 1 1068 1070
1199 3 1069 1072
1200 1 1071 1073
1201 3 1072 1075
1202 1 1074 1076
1203 3 1075 1078
1204 1 1077 1079
1205 3 1078 1081
1206 1 1080 1082
1207 3 1081 1084
1208 1 1083 1085
1209 3 1084 1087
1210 1 1086 1088
1211 3 1087 1090
1212 1 1089 1091
1213 3 1090 1093
1214 1 1092 1094
1215 3 1093 1096
1216 1 1095 1097
1217 3 1096 1099
1218 1 1098 1100
1219 3 1099 1102
1220 1 1101 1103
1221 3 1102 1105
1222 1 1104 1106
1223 3 1105 1108
1224 1 1107 1109
1225 3 1108 1111
1226 1 1110 1112
1227 3 1111 1114
1228 1 1113 1115
1229 3 1114 1117
1230 1 1116 1118
1231 3 1117 1120
1232 1 1119 1121
1233 3 1120 1123
1234 1 1122 1124
1235 3 1123 1126
1236 1 1125 1127
1237 3 1126 1129
1238 1 1128 1130
1239 3 1129 1132
1240 1 1131 1133
1241 3 1132 1135
1242 1 1134 1136
1243 3 1135 1138
1244 1 1137 1139
1245 3 1138 1141
1246 1 1140 1142
1247 3 1141 1144
1248 1 1143 1145
1249 3 1144 1147
1250 1 1146 1148
1251 3 1147 1150
1252 1 1149 1151
1253 3 1150 1153
1254 1 1152 1154
1255 3 1153 1156
1256 1 1155 1157
1257 3 1156 1159
1258 1 1158 1160
1259 3 1159 1162
1260 1 1161 1163
1261 3 1162 1165
1262 1 1164 1166
1263 3 1165 1168
1264 1 1167 1169
1265 3 1168 1171
1266 1 1170 1172
1267 3 1171 1174
1268 1 1173 1175
1269 3 1174 1177
1270 1 1176 1178
1271 3 1177 1180
1272 1 1179 1181
1273 3 1180 1183
1274 1 1182 1184
1275 3 1183 1186
1276 1 1185 1187
1277 3 1186 1189
1278 1 1188 1190
1279 3 1189 1192
1280 1 1191 1193
1281 3 1192 1195
1282 1 1194 1196
1283 2 1195 1198
1284 1 1197 1199
1285 2 1201 1204
1286 1 1203 1205
1287 3 1204 1207
1288 1 1206 1208
1289 3 1207 1210
1290 1 1209 1211
1291 3 1210 1213
1292 1 1212 1214
1293 3 1213 1216
1294 1 1215 1217
1295 3 1216 1219
1296 1 1218 1220
1297 3 1219 1222
1298 1 1221 1223
1299 3 1222 1225
1300 1 1224 1226
1301 3 1225 1228
1302 1 1227 1229
1303 3 1228 1231
1304 1 1230 1232
1305 3 1231 1234
1306 1 1233 1235
1307 3 1234 1237
1308 1 1236 1238
1309 3 1237 1240
1310 1 1239 1241
1311 3 1240 1243
1312 1 1242 1244
1313 3 1243 1246
1314 1 1245 1247
1315 3 1246 1249
1316 1 1248 1250
1317 3 1249 1252
1318 1 1251 1253
1319 3 1252 1255
1320 1 1254 1256
1321 3 1255 1258
1322 1 1257 1259
1323 3 1258 1261
1324 1 1260 1262
1325 3 1261 1264
1326 1 1263 1265
1327 3 1264 1267
1328 1 1266 1268
1329 3 1267 1270
1330 1 1269 1271
1331 3 1270 1273
1332 1 1272 1274
1333 3 1273 1276
1334 1 1275 1277
1335 3 1276 1279
1336 1 1278 1280
1337 3 1279 1282
1338 1 1281 1283
1339 3 1282 1285
1340 1 1284 1286
1341 3 1285 1288
1342 1 1287 1289
1343 3 1288 1291
1344 1 1290 1292
1345 3 1291 1294
1346 1 1293 1295
1347 3 1294 1297
1348 1 1296 1298
1349 3 1297 1300
1350 1 1299 1301
1351 3 1300 1303
1352 1 1302 1304
1353 3 1303 1306
1354 1 1305 1307
1355 3 1306 1309
1356 1 1308 1310
1357 3 1309 1312
1358 1 1311 1313
1359 3 1312 1315
1360 1 1314 1316
1361 3 1315 1318
1362 1 1317 1319
1363 3 1318 1321
1364 1 1320 1322
1365 3 1321 1324
1366 1 1323 1325
1367 3 1324 1327
1368 1 1326 1328
1369 3 1327 1330
1370 1 1329 1331
1371 3 1330 1333
1372 1 1332 1334
1373 3 1333 1336
1374 1 1335 1337
1375 3 1336 1339
1376 1 1338 1340
1377 3 1339 1342
1378 1 1341 1343
1379 3 1342 1345
1380 1 1344 1346
1381 2 1345 1348
1382 1 1347 1349
1383 2 1351 1354
1384 1 1353 1355
1385 3 1354 1357
1386 1 1356 1358
1387 3 1357 1360
1388 1 1359 1361
1389 3 1360 1363
1390 1 1362 1364
1391 3 1363 1366
1392 1 1365 1367
1393 3 1366 1369
1394 1 1368 1370
1395 3 1369 1372
1396 1 1371 1373
1397 3 1372 1375
1398 1 1374 1376
1399 3 1375 1378
1400 1 1377 1379
1401 3 1378 1381
1402 1 1380 1382
1403 3 1381 1384
1404 1 1383 1385
1405 3 1384 1387
1406 1 1386 1388
1407 3 1387 1390
1408 1 1389 1391
1409 3 1390 1393
1410 1 1392 1394
1411 3 1393 1396
1412 1 1395 1397
1413 3 1396 1399
1414 1 1398 1400
1415 3 1399 1402
1416 1 1401 1403
1417 3 1402 1405
1418 1 1404 1406
1419 3 1405 1408
1420 1 1407 1409
1421 3 1408 1411
1422 1 1410 1412
1423 3 1411 1414
1424 1 1413 1415
1425 3 1414 1417
1426 1 1416 1418
1427 3 1417 1420
1428 1 1419 1421
1429 3 1420 1423
1430 1 1422 1424
1431 3 1423 1426
1432 1 1425 1427
1433 3 1426 1429
1434 1 1428 1430
1435 3 1429 1432
1436 1 1431 1433
1437 3 1432 1435
1438 1 1434 1436
1439 3 1435 1438
1440 1 1437 1439
1441 3 1438 1441
1442 1 1440 1442
1443 3 1441 1444
1444 1 1443 1445
1445 3 1444 1447
1446 1 1446 1448
1447 3 1447 1450
1448 1 1449 1451
1449 3 1450 1453
1450 1 1452 1454
1451 3 1453 1456
1452 1 1455 1457
1453 3 1456 1459
1454 1 1458 1460
1455 3 1459 1462
1456 1 1461 1463
1457 3 1462 1465
1458 1 1464 1466
1459 3 1465 1468
1460 1 1467 1469
1461 3 1468 1471
1462 1 1470 1472
1463 3 1471 1474
1464 1 1473 1475
1465 3 1474 1477
1466 1 1476 1478
1467 3 1477 1480
1468 1 1479 1481
1469 3 1480 1483
1470 1 1482 1484
1471 3 1483 1486
1472 1 1485 1487
1473 3 1486 1489
1474 1 1488 1490
1475 3 1489 1492
1476 1 1491 1493
1477 3 1492 1495
1478 1 1494 1496
1479 2 1495 1498
1480 1 1497 1499

Angles

1 1 1 4 7
2 2 2 3 5
3 2 3 5 6
4 3 4 7 10
5 2 5 6 8
6 2 6 8 9
7 3 7 10 13
8 2 8 9 11
9 2 9 11 12
10 3 10 13 16
11 2 11 12 14
12 2 12 14 15
13 3 13 16 19
14 2 14 15 17
15 2 15 17 18
16 3 16 19 22
17 2 17 18 20
18 2 18 20 21
19 3 19 22 25
20 2 20 21 23
21 2 21 23 24
22 3 22 25 28
23 2 23 24 26
24 2 24 26 27
25 3 25 28 31
26 2 26 27 29
27 2 27 29 30
28 3 28 31 34
29 2 29 30 32
30 2 30 32 33
31 3 31 34 37
32 2 32 33 35
33 2 33 35 36
34 3 34 37 40
35 2 35 36 38
36 2 36 38 39
37 3 37 40 43
38 2 38 39 41
39 2 39 41 42
40 3 40 43 46
41 2 41 42 44
42 2 42 44 45
43 3 43 46 49
44 2 44 45 47
45 2 45 47 48
46 3 46 49 52
47 2 47 48 50
48 2 48 50 51
49 3 49 52 55
50 2 50 51 53
51 2 51 53 54
52 3 52 55 58
53 2 53 54 56
54 2 54 56 57
55 3 55 58 61
56 2 56 57 59
57 2 57 59 60
58 3 58 61 64
59 2 59 60 62
60 2 60 62 63
61 3 61 64 67
62 2 62 63 65
63 2 63 65 66
64 3 64 67 70
65 2 65 66 68
66 2 66 68 69
67 3 67 70 73
68 2 68 69 71
69 2 69 71 72
70 3 70 73 76
71 2 71 72 74
72 2 72 74 75
73 3 73 76 79
74 2 74 75 77
75 2 75 77 78
76 3 76 79 82
77 2 77 78 80
78 2 78 80 81
79 3 79 82 85
80 2 80 81 83
81 2 81 83 84
82 3 82 85 88
83 2 83 84 86
84 2 84 86 87
85 3 85 88 91
86 2 86 87 89
87 2 87 89 90
88 3 88 91 94
89 2 89 90 92
90 2 90 92 93
91 3 91 94 97
92 2 92 93 95
93 2 93 95 96
94 3 94 97 100
95 2 95 96 98
96 2 96 98 99
97 3 97 100 103
98 2 98 99 101
99 2 99 101 102
100 3 100 103 106
101 2 101 102 104
102 2 102 104 105
103 3 103 106 109
104 2 104 105 107
105 2 105 107 108
106 3 106 109 112
107 2 107 108 110
108 2 108 110 111
109 3 109 112 115
110 2 110 111 113
111 2 111 113 114
112 3 112 115 118
113 2 113 114 116
114 2 114 116 117
115 3 115 118 121
116 2 116 117 119
117 2 117 119 120
118 3 118 121 124
119 2 119 120 122
120 2 120 122 123
121 3 121 124 127
122 2 122 123 125
123 2 123 125 126
124 3 124 127 130
125 2 125 126 128
126 2 126 128 129
127 3 127 130 133
128 2 128 129 131
129 2 129 131 132
130 3 130 133 136
131 2 131 132 134
132 2 132 134 135
133 3 133 136 139
134 2 134 135 137
135 2 135 137 138
136 3 136 139 142
137 2 137 138 140
138 2 138 140 141
139 3 139 142 145
140 2 140 141 143
141 2 141 143 144
142 1 142 145 148
143 2 143 144 146
144 2 144 146 147
145 2 146 147 149
146 2 147 149 150
147 1 151 154 157
148 2 152 153 155
149 2 153 155 156
150 3 154 157 160
151 2 155 156 158
152 2 156 158 159
153 3 157 160 163
154 2 158 159 161
155 2 159 161 162
156 3 160 163 166
157 2 161 162 164
158 2 162 164 165
159 3 163 166 169
160 2 164 165 167
161 2 165 167 168
162 3 166 169 172
163 2 167 168 170
164 2 168 170 171
165 3 169 172 175
166 2 170 171 173
167 2 171 173 174
168 3 172 175 178
169 2 173 174 176
170 2 174 176 177
171 3 175 178 181
172 2 176 177 179
173 2 177 179 180
174 3 178 181 184
175 2 179 180 182
176 2 180 182 183
177 3 181 184 187
178 2 182 183 185
179 2 183 185 186
180 3 184 187 190
181 2 185 186 188
182 2 186 188 189
183 3 187 190 193
184 2 188 189 191
185 2 189 191 192
186 3 190 193 196
187 2 191 192 194
188 2 192 194 195
189 3 193 196 199
190 2 194 195 197
191 2 195 197 198
192 3 196 199 202
193 2 197 198 200
194 2 198 200 201
195 3 199 202 205
196 2 200 201 203
197 2 201 203 204
198 3 202 205 208
199 2 203 204 206
200 2 204 206 207
201 3 205 208 211
202 2 206 207 209
203 2 207 209 210
204 3 208 211 214
205 2 209 210 212
206 2 210 212 213
207 3 211 214 217
208 2 212 213 215
209 2 213 215 216
210 3 214 217 220
211 2 215 216 218
212 2 216 218 219
213 3 217 220 223
214 2 218 219 221
215 2 219 221 222
216 3 220 223 226
217 2 221 222 224
218 2 222 224 225
219 3 223 226 229
220 2 224 225 227
221 2 225 227 228
222 3 226 229 232
223 2 227 228 230
224 2 228 230 231
225 3 229 232 235
226 2 230 231 233
227 2 231 233 234
228 3 232 235 238
229 2 233 234 236
230 2 234 236 237
231 3 235 238 241
232 2 236 237 239
233 2 237 239 240
234 3 238 241 244
235 2 239 240 242
236 2 240 242 243
237 3 241 244 247
238 2 242 243 245
239 2 243 245 246
240 3 244 247 250
241 2 245 246 248
242 2 246 248 249
243 3 247 250 253
244 2 248 249 251
245 2 249 251 252
246 3 250 253 256
247 2 251 252 254
248 2 252 254 255
249 3 253 256 259
250 2 254 255 257
251 2 255 257 258
252 3 256 259 262
253 2 257 258 260
254 2 258 260 261
255 3 259 262 265
256 2 260 261 263
257 2 261 263 264
258 3 262 265 268
259 2 263 264 266
260 2 264 266 267
261 3 265 268 271
262 2 266 267 269
263 2 267 269 270
264 3 268 271 274
265 2 269 270 272
266 2 270 272 273
267 3 271 274 277
268 2 272 273 275
269 2 273 275 276
270 3 274 277 280
271 2 275 276 278
272 2 276 278 279
273 3 277 280 283
274 2 278 279 281
275 2 279 281 282
276 3 280 283 286
277 2 281 282 284
278 2 282 284 285
279 3 283 286 289
280 2 284 285 287
281 2 285 287 288
282 3 286 289 292
283 2 287 288 290
284 2 288 290 291
285 3 289 292 295
286 2 290 291 293
287 2 291 293 294
288 1 292 295 298
289 2 293 294 296
290 2 294 296 297
291 2 296 297 299
292 2 297 299 300
293 1 301 304 307
294 2 302 303 305
295 2 303 305 306
296 3 304 307 310
297 2 305 306 308
298 2 306 308 309
299 3 307 310 313
300 2 308 309 311
301 2 309 311 312
302 3 310 313 316
303 2 311 312 314
304 2 312 314 315
305 3 313 316 319
306 2 314 315 317
307 2 315 317 318
308 3 316 319 322
309 2 317 318 320
310 2 318 320 321
311 3 319 322 325
312 2 320 321 323
313 2 321 323 324
314 3 322 325 328
315 2 323 324 326
316 2 324 326 327
317 3 325 328 331
318 2 326 327 329
319 2 327 329 330
320 3 328 331 334
321 2 329 330 332
322 2 330 332 333
323 3 331 334 337
324 2 332 333 335
325 2 333 335 336
326 3 334 337 340
327 2 335 336 338
328 2 336 338 339
329 3 337 340 343
330 2 338 339 341
331 2 339 341 342
332 3 340 343 346
333 2 341 342 344
334 2 342 344 345
335 3 343 346 349
336 2 344 345 347
337 2 345 347 348
338 3 346 349 352
339 2 347 348 350
340 2 348 350 351
341 3 349 352 355
342 2 350 351 353
343 2 351 353 354
344 3 352 355 358
345 2 353 354 356
346 2 354 356 357
347 3 355 358 361
348 2 356 357 359
349 2 357 359 360
350 3 358 361 364
351 2 359 360 362
352 2 360 362 363
353 3 361 364 367
354 2 362 363 365
355 2 363 365 366
356 3 364 367 370
357 2 365 366 368
358 2 366 368 369
359 3 367 370 373
360 2 368 369 371
361 2 369 371 372
362 3 370 373 376
363 2 371 372 374
364 2 372 374 375
365 3 373 376 379
366 2 374 375 377
367 2 375 377 378
368 3 376 379 382
369 2 377 378 380
370 2 378 380 381
371 3 379 382 385
372 2 380 381 383
373 2 381 383 384
374 3 382 385 388
375 2 383 384 386
376 2 384 386 387
377 3 385 388 391
378 2 386 387 389
379 2 387 389 390
380 3 388 391 394
381 2 389 390 392
382 2 390 392 393
383 3 391 394 397
384 2 392 393 395
385 2 393 395 396
386 3 394 397 400
387 2 395 396 398
388 2 396 398 399
389 3 397 400 403
390 2 398 399 401
391 2 399 401 402
392 3 400 403 406
393 2 401 402 404
394 2 402 404 405
395 3 403 406 409
396 2 404 405 407
397 2 405 407 408
398 3 406 409 412
399 2 407 408 410
400 2 408 410 411
401 3 409 412 415
402 2 410 411 413
403 2 411 413 414
404 3 412 415 418
405 2 413 414 416
406 2 414 416 417
407 3 415 418 421
408 2 416 417 419
409 2 417 419 420
410 3 418 421 424
411 2 419 420 422
412 2 420 422 423
413 3 421 424 427
414 2 422 423 425
415 2 423 425 426
416 3 424 427 430
417 2 425 426 428
418 2 426 428 429
419 3 427 430 433
420 2 428 429 431
421 2 429 431 432
422 3 430 433 436
423 2 431 432 434
424 2 432 434 435
425 3 433 436 439
426 2 434 435 437
427 2 435 437 438
428 3 436 439 442
429 2 437 438 440
430 2 438 440 441
431 3 439 442 445
432 2 440 441 443
433 2 441 443 444
434 1 442 445 448
435 2 443 444 446
436 2 444 446 447
437 2 446 447 449
438 2 447 449 450
439 1 451 454 457
440 2 452 453 455
441 2 453 455 456
442 3 454 457 460
443 2 455 456 458
444 2 456 458 459
445 3 457 460 463
446 2 458 459 461
447 2 459 461 462
448 3 460 463 466
449 2 461 462 464
450 2 462 464 465
451 3 463 466 469
452 2 464 465 467
453 2 465 467 468
454 3 466 469 472
455 2 467 468 470
456 2 468 470 471
457 3 469 472 475
458 2 470 471 473
459 2 471 473 474
460 3 472 475 478
461 2 473 474 476
462 2 474 476 477
463 3 475 478 481
464 2 476 477 479
465 2 477 479 480
466 3 478 481 484
467 2 479 480 482
468 2 480 482 483
469 3 481 484 487
470 2 482 483 485
471 2 483 485 486
472 3 484 487 490
473 2 485 486 488
474 2 486 488 489
475 3 487 490 493
476 2 488 489 491
477 2 489 491 492
478 3 490 493 496
479 2 491 492 494
480 2 492 494 495
481 3 493 496 499
482 2 494 495 497
483 2 495 497 498
484 3 496 499 502
485 2 497 498 500
486 2 498 500 501
487 3 499 502 505
488 2 500 501 503
489 2 501 503 504
490 3 502 505 508
491 2 503 504 506
492 2 504 506 507
493 3 505 508 511
494 2 506 507 509
495 2 507 509 510
496 3 508 511 514
497 2 509 510 512
498 2 510 512 513
499 3 511 514 517
500 2 512 513 515
501 2 513 515 516
502 3 514 517 520
503 2 515 516 518
504 2 516 518 519
505 3 517 520 523
506 2 518 519 521
507 2 519 521 522
508 3 520 523 526
509 2 521 522 524
510 2 522 524 525
511 3 523 526 529
512 2 524 525 527
513 2 525 527 528
514 3 526 529 532
515 2 527 528 530
516 2 528 530 531
517 3 529 532 535
518 2 530 531 533
519 2 531 533 534
520 3 532 535 538
521 2 533 534 536
522 2 534 536 537
523 3 535 538 541
524 2 536 537 539
525 2 537 539 540
526 3 538 541 544
527 2 539 540 542
528 2 540 542 543
529 3 541 544 547
530 2 542 543 545
531 2 543 545 546
532 3 544 547 550
533 2 545 546 548
534 2 546 548 549
535 3 547 550 553
536 2 548 549 551
537 2 549 551 552
538 3 550 553 556
539 2 551 552 554
540 2 552 554 555
541 3 553 556 559
542 2 554 555 557
543 2 555 557 558
544 3 556 559 562
545 2 557 558 560
546 2 558 560 561
547 3 559 562 565
548 2 560 561 563
549 2 561 563 564
550 3 562 565 568
551 2 563 564 566
552 2 564 566 567
553 3 565 568 571
554 2 566 567 569
555 2 567 569 570
556 3 568 571 574
557 2 569 570 572
558 2 570 572 573
559 3 571 574 577
560 2 572 573 575
561 2 573 575 576
562 3 574 577 580
563 2 575 576 578
564 2 576 578 579
565 3 577 580 583
566 2 578 579 581
567 2 579 581 582
568 3 580 583 586
569 2 581 582 584
570 2 582 584 585
571 3 583 586 589
572 2 584 585 587
573 2 585 587 588
574 3 586 589 592
575 2 587 588 590
576 2 588 590 591
577 3 589 592 595
578 2 590 591 593
579 2 591 593 594
580 1 592 595 598
581 2 593 594 596
582 2 594 596 597
583 2 596 597 599
584 2 597 599 600
585 1 601 604 607
586 2 602 603 605
587 2 603 605 606
588 3 604 607 610
589 2 605 606 608
590 2 606 608 609
591 3 607 610 613
592 2 608 609 611
593 2 609 611 612
594 3 610 613 616
595 2 611 612 614
596 2 612 614 615
597 3 613 616 619
598 2 614 615 617
599 2 615 617 618
600 3 616 619 622
601 2 617 618 620
602 2 618 620 621
603 3 619 622 625
604 2 620 621 623
605 2 621 623 624
606 3 622 625 628
607 2 623 624 626
608 2 624 626 627
609 3 625 628 631
610 2 626 627 629
611 2 627 629 630
612 3 628 631 634
613 2 629 630 632
614 2 630 632 633
615 3 631 634 637
616 2 632 633 635
617 2 633 635 636
618 3 634 637 640
619 2 635 636 638
620 2 636 638 639
621 3 637 640 643
622 2 638 639 641
623 2 639 641 642
624 3 640 643 646
625 2 641 642 644
626 2 642 644 645
627 3 643 646 649
628 2 644 645 647
629 2 645 647 648
630 3 646 649 652
631 2 647 648 650
632 2 648 650 651
633 3 649 652 655
634 2 650 651 653
635 2 651 653 654
636 3 652 655 658
637 2 653 654 656
638 2 654 656 657
639 3 655 658 661
640 2 656 657 659
641 2 657 659 660
642 3 658 661 664
643 2 659 660 662
644 2 660 662 663
645 3 661 664 667
646 2 662 663 665
647 2 663 665 666
648 3 664 667 670
649 2 665 666 668
650 2 666 668 669
651 3 667 670 673
652 2 668 669 671
653 2 669 671 672
654 3 670 673 676
655 2 671 672 674
656 2 672 674 675
657 3 673 676 679
658 2 674 675 677
659 2 675 677 678
660 3 676 679 682
661 2 677 678 680
662 2 678 680 681
663 3 679 682 685
664 2 680 681 683
665 2 681 683 684
666 3 682 685 688
667 2 683 684 686
668 2 684 686 687
669 3 685 688 691
670 2 686 687 689
671 2 687 689 690
672 3 688 691 694
673 2 689 690 692
674 2 690 692 693
675 3 691 694 697
676 2 692 693 695
677 2 693 695 696
678 3 694 697 700
679 2 695 696 698
680 2 696 698 699
681 3 697 700 703
682 2 698 699 701
683 2 699 701 702
684 3 700 703 706
685 2 701 702 704
686 2 702 704 705
687 3 703 706 709
688 2 704 705 707
689 2 705 707 708
690 3 706 709 712
691 2 707 708 710
692 2 708 710 711
693 3 709 712 715
694 2 710 711 713
695 2 711 713 714
696 3 712 715 718
697 2 713 714 716
698 2 714 716 717
699 3 715 718 721
700 2 716 717 719
701 2 717 719 720
702 3 718 721 724
703 2 719 720 722
704 2 720 722 723
705 3 721 724 727
706 2 722 723 725
707 2 723 725 726
708 3 724 727 730
709 2 725 726 728
710 2 726 728 729
711 3 727 730 733
712 2 728 729 731
713 2 729 731 732
714 3 730 733 736
715 2 731 732 734
716 2 732 734 735
717 3 733 736 739
718 2 734 735 737
719 2 735 737 738
720 3 736 739 742
721 2 737 738 740
722 2 738 740 741
723 3 739 742 745
724 2 740 741 743
725 2 741 743 744
726 1 742 745 748
727 2 743 744 746
728 2 744 746 747
729 2 746 747 749
730 2 747 749 750
731 1 751 754 757
732 2 752 753 755
733 2 753 755 756
734 3 754 757 760
735 2 755 756 758
736 2 756 758 759
737 3 757 760 763
738 2 758 759 761
739 2 759 761 762
740 3 760 763 766
741 2 761 762 764
742 2 762 764 765
743 3 763 766 769
744 2 764 765 767
745 2 765 767 768
746 3 766 769 772
747 2 767 768 770
748 2 768 770 771
749 3 769 772 775
750 2 770 771 773
751 2 771 773 774
752 3 772 775 778
753 2 773 774 776
754 2 774 776 777
755 3 775 778 781
756 2 776 777 779
757 2 777 779 780
758 3 778 781 784
759 2 779 780 782
760 2 780 782 783
761 3 781 784 787
762 2 782 783 785
763 2 783 785 786
764 3 784 787 790
765 2 785 786 788
766 2 786 788 789
767 3 787 790 793
768 2 788 789 791
769 2 789 791 792
770 3 790 793 796
771 2 791 792 794
772 2 792 794 795
773 3 793 796 799
774 2 794 795 797
775 2 795 797 798
776 3 796 799 802
777 2 797 798 800
778 2 798 800 801
779 3 799 802 805
780 2 800 801 803
781 2 801 803 804
782 3 802 805 808
783 2 803 804 806
784 2 804 806 807
785 3 805 808 811
786 2 806 807 809
787 2 807 809 810
788 3 808 811 814
789 2 809 810 812
790 2 810 812 813
791 3 811 814 817
792 2 812 813 815
793 2 813 815 816
794 3 814 817 820
795 2 815 816 818
796 2 816 818 819
797 3 817 820 823
798 2 818 819 821
799 2 819 821 822
800 3 820 823 826
801 2 821 822 824
802 2 822 824 825
803 3 823 826 829
804 2 824 825 827
805 2 825 827 828
806 3 826 829 832
807 2 827 828 830
808 2 828 830 831
809 3 829 832 835
810 2 830 831 833
811 2 831 833 834
812 3 832 835 838
813 2 833 834 836
814 2 834 836 837
815 3 835 838 841
816 2 836 837 839
817 2 837 839 840
818 3 838 841 844
819 2 839 840 842
820 2 840 842 843
821 3 841 844 847
822 2 842 843 845
823 2 843 845 846
824 3 844 847 850
825 2 845 846 848
826 2 846 848 849
827 3 847 850 853
828 2 848 849 851
829 2 849 851 852
830 3 850 853 856
831 2 851 852 854
832 2 852 854 855
833 3 853 856 859
834 2 854 855 857
835 2 855 857 858
836 3 856 859 862
837 2 857 858 860
838 2 858 860 861
839 3 859 862 865
840 2 860 861 863
841 2 861 863 864
842 3 862 865 868
843 2 863 864 866
844 2 864 866 867
845 3 865 868 871
846 2 866 867 869
847 2 867 869 870
848 3 868 871 874
849 2 869 870 872
850 2 870 872 873
851 3 871 874 877
852 2 872 873 875
853 2 873 875 876
854 3 874 877 880
855 2 875 876 878
856 2 876 878 879
857 3 877 880 883
858 2 878 879 881
859 2 879 881 882
860 3 880 883 886
861 2 881 882 884
862 2 882 884 885
863 3 883 886 889
864 2 884 885 887
865 2 885 887 888
866 3 886 889 892
867 2 887 888 890
868 2 888 890 891
869 3 889 892 895
870 2 890 891 893
871 2 891 893 894
872 1 892 895 898
873 2 893 894 896
874 2 894 896 897
875 2 896 897 899
876 2 897 899 900
877 1 901 904 907
878 2 902 903 905
879 2 903 905 906
880 3 904 907 910
881 2 905 906 908
882 2 906 908 909
883 3 907 910 913
884 2 908 909 911
885 2 909 911 912
886 3 910 913 916
887 2 911 912 914
888 2 912 914 915
889 3 913 916 919
890 2 914 915 917
891 2 915 917 918
892 3 916 919 922
893 2 917 918 920
894 2 918 920 921
895 3 919 922 925
896 2 920 921 923
897 2 921 923 924
898 3 922 925 928
899 2 923 924 926
900 2 924 926 927
901 3 925 928 931
902 2 926 927 929
903 2 927 929 930
904 3 928 931 934
905 2 929 930 932
906 2 930 932 933
907 3 931 934 937
908 2 932 933 935
909 2 933 935 936
910 3 934 937 940
911 2 935 936 938
912 2 936 938 939
913 3 937 940 943
914 2 938 939 941
915 2 939 941 942
916 3 940 943 946
917 2 941 942 944
918 2 942 944 945
919 3 943 946 949
920 2 944 945 947
921 2 945 947 948
922 3 946 949 952
923 2 947 948 950
924 2 948 950 951
925 3 949 952 955
926 2 950 951 953
927 2 951 953 954
928 3 952 955 958
929 2 953 954 956
930 2 954 956 957
931 3 955 958 961
932 2 956 957 959
933 2 957 959 960
934 3 958 961 964
935 2 959 960 962
936 2 960 962 963
937 3 961 964 967
938 2 962 963 965
939 2 963 965 966
940 3 964 967 970
941 2 965 966 968
942 2 966 968 969
943 3 967 970 973
944 2 968 969 971
945 2 969 971 972
946 3 970 973 976
947 2 971 972 974
948 2 972 974 975
949 3 973 976 979
950 2 974 975 977
951 2 975 977 978
952 3 976 979 982
953 2 977 978 980
954 2 978 980 981
955 3 979 982 985
956 2 980 981 983
957 2 981 983 984
958 3 982 985 988
959 2 983 984 986
960 2 984 986 987
961 3 985 988 991
962 2 986 987 989
963 2 987 989 990
964 3 988 991 994
965 2 989 990 992
966 2 990 992 993
967 3 991 994 997
968 2 992 993 995
969 2 993 995 996
970 3 994 997 1000
971 2 995 996 998
972 2 996 998 999
973 3 997 1000 1003
974 2 998 999 1001
975 2 999 1001 1002
976 3 1000 1003 1006
977 2 1001 1002 1004
978 2 1002 1004 1005
979 3 1003 1006 1009
980 2 1004 1005 1007
981 2 1005 1007 1008
982 3 1006 1009 1012
983 2 1007 1008 1010
984 2 1008 1010 1011
985 3 1009 1012 1015
986 2 1010 1011 1013
987 2 1011 1013 1014
988 3 1012 1015 1018
989 2 1013 1014 1016
990 2 1014 1016 1017
991 3 1015 1018 1021
992 2 1016 1017 1019
993 2 1017 1019 1020
994 3 1018 1021 1024
995 2 1019 1020 1022
996 2 1020 1022 1023
997 3 1021 1024 1027
998 2 1022 1023 1025
999 2 1023 1025 1026
1000 3 1024 1027 1030
1001 2 1025 1026 1028
1002 2 1026 1028 1029
1003 3 1027 1030 1033
1004 2 1028 1029 1031
1005 2 1029 1031 1032
1006 3 1030 1033 1036
1007 2 1031 1032 1034
1008 2 1032 1034 1035
1009 3 1033 1036 1039
1010 2 1034 1035 1037
1011 2 1035 1037 1038
1012 3 1036 1039 1042
1013 2 1037 1038 1040
1014 2 1038 1040 1041
1015 3 1039 1042 1045
1016 2 1040 1041 1043
1017 2 1041 1043 1044
1018 1 1042 1045 1048
1019 2 1043 1044 1046
1020 2 1044 1046 1047
1021 2 1046 1047 1049
1022 2 1047 1049 1050
1023 1 1051 1054 1057
1024 2 1052 1053 1055
1025 2 1053 1055 1056
1026 3 1054 1057 1060
1027 2 1055 1056 1058
1028 2 1056 1058 1059
1029 3 1057 1060 1063
1030 2 1058 1059 1061
1031 2 1059 1061 1062
1032 3 1060 1063 1066
1033 2 1061 1062 1064
1034 2 1062 1064 1065
1035 3 1063 1066 1069
1036 2 1064 1065 1067
1037 2 1065 1067 1068
1038 3 1066 1069 1072
1039 2 1067 1068 1070
1040 2 1068 1070 1071
1041 3 1069 1072 1075
1042 2 1070 1071 1073
1043 2 1071 1073 1074
1044 3 1072 1075 1078
1045 2 1073 1074 1076
1046 2 1074 1076 1077
1047 3 1075 1078 1081
1048 2 1076 1077 1079
1049 2 1077 1079 1080
1050 3 1078 1081 1084
1051 2 1079 1080 1082
1052 2 1080 1082 1083
1053 3 1081 1084 1087
1054 2 1082 1083 1085
1055 2 1083 1085 1086
1056 3 1084 1087 1090
1057 2 1085 1086 1088
1058 2 1086 1088 1089
1059 3 1087 1090 1093
1060 2 1088 1089 1091
1061 2 1089 1091 1092
1062 3 1090 1093 1096
1063 2 1091 1092 1094
1064 2 1092 1094 1095
1065 3 1093 1096 1099
1066 2 1094 1095 1097
1067 2 1095 1097 1098
1068 3 1096 1099 1102
1069 2 1097 1098 1100
1070 2 1098 1100 1101
1071 3 1099 1102 1105
1072 2 1100 1101 1103
1073 2 1101 1103 1104
1074 3 1102 1105 1108
1075 2 1103 1104 1106
1076 2 1104 1106 1107
1077 3 1105 1108 1111
1078 2 1106 1107 1109
1079 2 1107 1109 1110
1080 3 1108 1111 1114
1081 2 1109 1110 1112
1082 2 1110 1112 1113
1083 3 1111 1114 1117
1084 2 1112 1113 1115
1085 2 1113 1115 1116
1086 3 1114 1117 1120
1087 2 1115 1116 1118
1088 2 1116 1118 1119
1089 3 1117 1120 1123
1090 2 1118 1119 1121
1091 2 1119 1121 1122
1092 3 1120 1123 1126
1093 2 1121 1122 1124
1094 2 1122 1124 1125
1095 3 1123 1126 1129
1096 2 1124 1125 1127
1097 2 1125 1127 1128
1098 3 1126 1129 1132
1099 2 1127 1128 1130
1100 2 1128 1130 1131
1101 3 1129 1132 1135
1102 2 1130 1131 1133
1103 2 1131 1133 1134
1104 3 1132 1135 1138
1105 2 1133 1134 1136
1106 2 1134 1136 1137
1107 3 1135 1138 1141
1108 2 1136 1137 1139
1109 2 1137 1139 1140
1110 3 1138 1141 1144
1111 2 1139 1140 1142
1112 2 1140 1142 1143
1113 3 1141 1144 1147
1114 2 1142 1143 1145
1115 2 1143 1145 1146
1116 3 1144 1147 1150
1117 2 1145 1146 1148
1118 2 1146 1148 1149
1119 3 1147 1150 1153
1120 2 1148 1149 1151
1121 2 1149 1151 1152
1122 3 1150 1153 1156
1123 2 1151 1152 1154
1124 2 1152 1154 1155
1125 3 1153 1156 1159
1126 2 1154 1155 1157
1127 2 1155 1157 1158
1128 3 1156 1159 1162
1129 2 1157 1158 1160
1130 2 1158 1160 1161
1131 3 1159 1162 1165
1132 2 1160 1161 1163
1133 2 1161 1163 1164
1134 3 1162 1165 1168
1135 2 1163 1164 1166
1136 2 1164 1166 1167
1137 3 1165 1168 1171
1138 2 1166 1167 1169
1139 2 1167 1169 1170
1140 3 1168 1171 1174
1141 2 1169 1170 1172
1142 2 1170 1172 1173
1143 3 1171 1174 1177
1144 2 1172 1173 1175
1145 2 1173 1175 1176
1146 3 1174 1177 1180
1147 2 1175 1176 1178
1148 2 1176 1178 1179
1149 3 1177 1180 1183
1150 2 1178 1179 1181
1151 2 1179 1181 1182
1152 3 1180 1183 1186
1153 2 1181 1182 1184
1154 2 1182 1184 1185
1155 3 1183 1186 1189
1156 2 1184 1185 1187
1157 2 1185 1187 1188
1158 3 1186 1189 1192
1159 2 1187 1188 1190
1160 2 1188 1190 1191
1161 3 1189 1192 1195
1162 2 1190 1191 1193
1163 2 1191 1193 1194
1164 1 1192 1195 1198
1165 2 1193 1194 1196
1166 2 1194 1196 1197
1167 2 1196 1197 1199
1168 2 1197 1199 1200
1169 1 1201 1204 1207
1170 2 1202 1203 1205
1171 2 1203 1205 1206
1172 3 1204 1207 1210
1173 2 1205 1206 1208
1174 2 1206 1208 1209
1175 3 1207 1210 1213
1176 2 1208 1209 1211
1177 2 1209 1211 1212
1178 3 1210 1213 1216
1179 2 1211 1212 1214
1180 2 1212 1214 1215
1181 3 1213 1216 1219
1182 2 1214 1215 1217
1183 2 1215 1217 1218
1184 3 1216 1219 1222
1185 2 1217 1218 1220
1186 2 1218 1220 1221
1187 3 1219 1222 1225
1188 2 1220 1221 1223
1189 2 1221 1223 1224
1190 3 1222 1225 1228
1191 2 1223 1224 1226
1192 2 1224 1226 1227
1193 3 1225 1228 1231
1194 2 1226 1227 1229
1195 2 1227 1229 1230
1196 3 1228 1231 1234
1197 2 1229 1230 1232
1198 2 1230 1232 1233
1199 3 1231 1234 1237
1200 2 1232 1233 1235
1201 2 1233 1235 1236
1202 3 1234 1237 1240
1203 2 1235 1236 1238
1204 2 1236 1238 1239
1205 3 1237 1240 1243
1206 2 1238 1239 1241
1207 2 1239 1241 1242
1208 3 1240 1243 1246
1209 2 1241 1242 1244
1210 2 1242 1244 1245
1211 3 1243 1246 1249
1212 2 1244 1245 1247
1213 2 1245 1247 1248
1214 3 1246 1249 1252
1215 2 1247 1248 1250
1216 2 1248 1250 1251
1217 3 1249 1252 1255
1218 2 1250 1251 1253
1219 2 1251 1253 1254
1220 3 1252 1255 1258
1221 2 1253 1254 1256
1222 2 1254 1256 1257
1223 3 1255 1258 1261
1224 2 1256 1257 1259
1225 2 1257 1259 1260
1226 3 1258 1261 1264
1227 2 1259 1260 1262
1228 2 1260 1262 1263
1229 3 1261 1264 1267
1230 2 1262 1263 1265
1231 2 1263 1265 1266
1232 3 1264 1267 1270
1233 2 1265 1266 1268
1234 2 1266 1268 1269
1235 3 1267 1270 1273
1236 2 1268 1269 1271
1237 2 1269 1271 1272
1238 3 1270 1273 1276
1239 2 1271 1272 1274
1240 2 1272 1274 1275
1241 3 1273 1276 1279
1242 2 1274 1275 1277
1243 2 1275 1277 1278
1244 3 1276 1279 1282
1245 2 1277 1278 1280
1246 2 1278 1280 1281
1247 3 1279 1282 1285
1248 2 1280 1281 1283
1249 2 1281 1283 1284
1250 3 1282 1285 1288
1251 2 1283 1284 1286
1252 2 1284 1286 1287
1253 3 1285 1288 1291
1254 2 1286 1287 1289
1255 2 1287 1289 1290
1256 3 1288 1291 1294
1257 2 1289 1290 1292
1258 2 1290 1292 1293
1259 3 1291 1294 1297
1260 2 1292 1293 1295
1261 2 1293 1295 1296
1262 3 1294 1297 1300
1263 2 1295 1296 1298
1264 2 1296 1298 1299
1265 3 1297 1300 1303
1266 2 1298 1299 1301
1267 2 1299 1301 1302
1268 3 1300 1303 1306
1269 2 1301 1302 1304
1270 2 1302 1304 1305
1271 3 1303 1306 1309
1272 2 1304 1305 1307
1273 2 1305 1307 1308
1274 3 1306 1309 1312
1275 2 1307 1308 1310
1276 2 1308 1310 1311
1277 3 1309 1312 1315
1278 2 1310 1311 1313
1279 2 1311 1313 1314
1280 3 1312 1315 1318
1281 2 1313 1314 1316
1282 2 1314 1316 1317
1283 3 1315 1318 1321
1284 2 1316 1317 1319
1285 2 1317 1319 1320
1286 3 1318 1321 1324
1287 2 1319 1320 1322
1288 2 1320 1322 1323
1289 3 1321 1324 1327
1290 2 1322 1323 1325
1291 2 1323 1325 1326
1292 3 1324 1327 1330
1293 2 1325 1326 1328
1294 2 1326 1328 1329
1295 3 1327 1330 1333
1296 2 1328 1329 1331
1297 2 1329 1331 1332
1298 3 1330 1333 1336
1299 2 1331 1332 1334
1300 2 1332 1334 1335
1301 3 1333 1336 1339
1302 2 1334 1335 1337
1303 2 1335 1337 1338
1304 3 1336 1339 1342
1305 2 1337 1338 1340
1306 2 1338 1340 1341
1307 3 1339 1342 1345
1308 2 1340 1341 1343
1309 2 1341 1343 1344
1310 1 1342 1345 1348
1311 2 1343 1344 1346
1312 2 1344 1346 1347
1313 2 1346 1347 1349
1314 2 1347 1349 1350
1315 1 1351 1354 1357
1316 2 1352 1353 1355
1317 2 1353 1355 1356
1318 3 1354 1357 1360
1319 2 1355 1356 1358
1320 2 1356 1358 1359
1321 3 1357 1360 1363
1322 2 1358 1359 1361
1323 2 1359 1361 1362
1324 3 1360 1363 1366
1325 2 1361 1362 1364
1326 2 1362 1364 1365
1327 3 1363 1366 1369
1328 2 1364 1365 1367
1329 2 1365 1367 1368
1330 3 1366 1369 1372
1331 2 1367 1368 1370
1332 2 1368 1370 1371
1333 3 1369 1372 1375
1334 2 1370 1371 1373
1335 2 1371 1373 1374
1336 3 1372 1375 1378
1337 2 1373 1374 1376
1338 2 1374 1376 1377
1339 3 1375 1378 1381
1340 2 1376 1377 1379
1341 2 1377 1379 1380
1342 3 1378 1381 1384
1343 2 1379 1380 1382
1344 2 1380 1382 1383
1345 3 1381 1384 1387
1346 2 1382 1383 1385
1347 2 1383 1385 1386
1348 3 1384 1387 1390
1349 2 1385 1386 1388
1350 2 1386 1388 1389
1351 3 1387 1390 1393
1352 2 1388 1389 1391
1353 2 1389 1391 1392
1354 3 1390 1393 1396
1355 2 1391 1392 1394
1356 2 1392 1394 1395
1357 3 1393 1396 1399
1358 2 1394 1395 1397
1359 2 1395 1397 1398
1360 3 1396 1399 1402
1361 2 1397 1398 1400
1362 2 1398 1400 1401
1363 3 1399 1402 1405
1364 2 1400 1401 1403
1365 2 1401 1403 1404
1366 3 1402 1405 1408
1367 2 1403 1404 1406
1368 2 1404 1406 1407
1369 3 1405 1408 1411
1370 2 1406 1407 1409
1371 2 1407 1409 1410
1372 3 1408 1411 1414
1373 2 1409 1410 1412
1374 2 1410 1412 1413
1375 3 1411 1414 1417
1376 2 1412 1413 1415
1377 2 1413 1415 1416
1378 3 1414 1417 1420
1379 2 1415 1416 1418
1380 2 1416 1418 1419
1381 3 1417 1420 1423
1382 2 1418 1419 1421
1383 2 1419 1421 1422
1384 3 1420 1423 1426
1385 2 1421 1422 1424
1386 2 1422 1424 1425
1387 3 1423 1426 1429
1388 2 1424 1425 1427
1389 2 1425 1427 1428
1390 3 1426 1429 1432
1391 2 1427 1428 1430
1392 2 1428 1430 1431
1393 3 1429 1432 1435
1394 2 1430 1431 1433
1395 2 1431 1433 1434
1396 3 1432 1435 1438
1397 2 1433 1434 1436
1398 2 1434 1436 1437
1399 3 1435 1438 1441
1400 2 1436 1437 1439
1401 2 1437 1439 1440
1402 3 1438 1441 1444
1403 2 1439 1440 1442
1404 2 1440 1442 1443
1405 3 1441 1444 1447
1406 2 1442 1443 1445
1407 2 1443 1445 1446
1408 3 1444 1447 1450
1409 2 1445 1446 1448
1410 2 1446 1448 1449
1411 3 1447 1450 1453
1412 2 1448 1449 1451
1413 2 1449 1451 1452
1414 3 1450 1453 1456
1415 2 1451 1452 1454
1416 2 1452 1454 1455
1417 3 1453 1456 1459
1418 2 1454 1455 1457
1419 2 1455 1457 1458
1420 3 1456 1459 1462
1421 2 1457 1458 1460
1422 2 1458 1460 1461
1423 3 1459 1462 1465
1424 2 1460 1461 1463
1425 2 1461 1463 1464
1426 3 1462 1465 1468
1427 2 1463 1464 1466
1428 2 1464 1466 1467
1429 3 1465 1468 1471
1430 2 1466 1467 1469
1431 2 1467 1469 1470
1432 3 1468 1471 1474
1433 2 1469 1470 1472
1434 2 1470 1472 1473
1435 3 1471 1474 1477
1436 2 1472 1473 1475
1437 2 1473 1475 1476
1438 3 1474 1477 1480
1439 2 1475 1476 1478
1440 2 1476 1478 1479
1441 3 1477 1480 1483
1442 2 1478 1479 1481
1443 2 1479 1481 1482
1444 3 1480 1483 1486
1445 2 1481 1482 1484
1446 2 1482 1484 1485
1447 3 1483 1486 1489
1448 2 1484 1485 1487
1449 2 1485 1487 1488
1450 3 1486 1489 1492
1451 2 1487 1488 1490
1452 2 1488 1490 1491
1453 3 1489 1492 1495
1454 2 1490 1491 1493
1455 2 1491 1493 1494
1456 1 1492 1495 1498
1457 2 1493 1494 1496
1458 2 1494 1496 1497
1459 2 1496 1497 1499
1460 2 1497 1499 1500

Dihedrals

1 1 1 4 7 10
2 2 2 3 5 6
3 2 3 5 6 8
4 1 4 7 10 13
5 2 5 6 8 9
6 2 6 8 9 11
7 1 7 10 13 16
8 2 8 9 11 12
9 2 9 11 12 14
10 1 10 13 16 19
11 2 11 12 14 15
12 2 12 14 15 17
13 1 13 16 19 22
14 2 14 15 17 18
15 2 15 17 18 20
16 1 16 19 22 25
17 2 17 18 20 21
18 2 18 20 21 23
19 1 19 22 25 28
20 2 20 21 23 24
21 2 21 23 24 26
22 1 22 25 28 31
23 2 23 24 26 27
24 2 24 26 27 29
25 1 25 28 31 34
26 2 26 27 29 30
27 2 27 29 30 32
28 1 28 31 34 37
29 2 29 30 32 33
30 2 30 32 33 35
31 1 31 34 37 40
32 2 32 33 35 36
33 2 33 35 36 38
34 1 34 37 40 43
35 2 35 36 38 39
36 2 36 38 39 41
37 1 37 40 43 46
38 2 38 39 41 42
39 2 39 41 42 44
40 1 40 43 46 49
41 2 41 42 44 45
42 2 42 44 45 47
43 1 43 46 49 52
44 2 44 45 47 48
45 2 45 47 48 50
46 1 46 49 52 55
47 2 47 48 50 51
48 2 48 50 51 53
49 1 49 52 55 58
50 2 50 51 53 54
51 2 51 53 54 56
52 1 52 55 58 61
53 2 53 54 56 57
54 2 54 56 57 59
55 1 55 58 61 64
56 2 56 57 59 60
57 2 57 59 60 62
58 1 58 61 64 67
59 2 59 60 62 63
60 2 60 62 63 65
61 1 61 64 67 70
62 2 62 63 65 66
63 2 63 65 66 68
64 1 64 67 70 73
65 2 65 66 68 69
66 2 66 68 69 71
67 1 67 70 73 76
68 2 68 69 71 72
69 2 69 71 72 74
70 1 70 73 76 79
71 2 71 72 74 75
72 2 72 74 75 77
73 1 73 76 79 82
74 2 74 75 77 78
75 2 75 77 78 80
76 1 76 79 82 85
77 2 77 78 80 81
78 2 78 80 81 83
79 1 79 82 85 88
80 2 80 81 83 84
81 2 81 83 84 86
82 1 82 85 88 91
83 2 83 84 86 87
84 2 84 86 87 89
85 1 85 88 91 94
86 2 86 87 89 90
87 2 87 89 90 92
88 1 88 91 94 97
89 2 89 90 92 93
90 2 90 92 93 95
91 1 91 94 97 100
92 2 92 93 95 96
93 2 93 95 96 98
94 1 94 97 100 103
95 2 95 96 98 99
96 2 96 98 99 101
97 1 97 100 103 106
98 2 98 99 101 102
99 2 99 101 102 104
100 1 100 103 106 109
101 2 101 102 104 105
102 2 102 104 105 107
103 1 103 106 109 112
104 2 104 105 107 108
105 2 105 107 108 110
106 1 106 109 112 115
107 2 107 108 110 111
108 2 108 110 111 113
109 1 109 112 115 118
110 2 110 111 113 114
111 2 111 113 114 116
112 1 112 115 118 121
113 2 113 114 116 117
114 2 114 116 117 119
115 1 115 118 121 124
116 2 116 117 119 120
117 2 117 119 120 122
118 1 118 121 124 127
119 2 119 120 122 123
120 2 120 122 123 125
121 1 121 124 127 130
122 2 122 123 125 126
123 2 123 125 126 128
124 1 124 127 130 133
125 2 125 126 128 129
126 2 126 128 129 131
127 1 127 130 133 136
128 2 128 129 131 132
129 2 129 131 132 134
130 1 130 133 136 139
131 2 131 132 134 135
132 2 132 134 135 137
133 1 133 136 139 142
134 2 134 135 137 138
135 2 135 137 138 140
136 1 136 139 142 145
137 2 137 138 140 141
138 2 138 140 141 143
139 1 139 142 145 148
140 2 140 141 143 144
141 2 141 143 144 146
142 2 143 144 146 147
143 2 144 146 147 149
144 2 146 147 149 150
145 1 151 154 157 160
146 2 152 153 155 156
147 2 153 155 156 158
148 1 154 157 160 163
149 2 155 156 158 159
150 2 156 158 159 161
151 1 157 160 163 166
152 2 158 159 161 162
153 2 159 161 162 164
154 1 160 163 166 169
155 2 161 162 164 165
156 2 162 164 165 167
157 1 163 166 169 172
158 2 164 165 167 168
159 2 165 167 168 170
160 1 166 169 172 175
161 2 167 168 170 171
162 2 168 170 171 173
163 1 169 172 175 178
164 2 170 171 173 174
165 2 171 173 174 176
166 1 172 175 178 181
167 2 173 174 176 177
168 2 174 176 177 179
169 1 175 178 181 184
170 2 176 177 179 180
171 2 177 179 180 182
172 1 178 181 184 187
173 2 179 180 182 183
174 2 180 182 183 185
175 1 181 184 187 190
176 2 182 183 185 186
177 2 183 185 186 188
178 1 184 187 190 193
179 2 185 186 188 189
180 2 186 188 189 191
181 1 187 190 193 196
182 2 188 189 191 192
183 2 189 191 192 194
184 1 190 193 196 199
185 2 191 192 194 195
186 2 192 194 195 197
187 1 193 196 199 202
188 2 194 195 197 198
189 2 195 197 198 200
190 1 196 199 202 205
191 2 197 198 200 201
192 2 198 200 201 203
193 1 199 202 205 208
194 2 200 201 203 204
195 2 201 203 204 206
196 1 202 205 208 211
197 2 203 204 206 207
198 2 204 206 207 209
199 1 205 208 211 214
200 2 206 207 209 210
201 2 207 209 210 212
202 1 208 211 214 217
203 2 209 210 212 213
204 2 210 212 213 215
205 1 211 214 217 220
206 2 212 213 215 216
207 2 213 215 216 218
208 1 214 217 220 223
209 2 215 216 218 219
210 2 216 218 219 221
211 1 217 220 223 226
212 2 218 219 221 222
213 2 219 221 222 224
214 1 220 223 226 229
215 2 221 222 224 225
216 2 222 224 225 227
217 1 223 226 229 232
218 2 224 225 227 228
219 2 225 227 228 230
220 1 226 229 232 235
221 2 227 228 230 231
222 2 228 230 231 233
223 1 229 232 235 238
224 2 230 231 233 234
225 2 231 233 234 236
226 1 232 235 238 241
227 2 233 234 236 237
228 2 234 236 237 239
229 1 235 238 241 244
230 2 236 237 239 240
231 2 237 239 240 242
232 1 238 241 244 247
233 2 239 240 242 243
234 2 240 242 243 245
235 1 241 244 247 250
236 2 242 243 245 246
237 2 243 245 246 248
238 1 244 247 250 253
239 2 245 246 248 249
240 2 246 248 249 251
241 1 247 250 253 256
242 2 248 249 251 252
243 2 249 251 252 254
244 1 250 253 256 259
245 2 251 252 254 255
246 2 252 254 255 257
247 1 253 256 259 262
248 2 254 255 257 258
249 2 255 257 258 260
250 1 256 259 262 265
251 2 257 258 260 261
252 2 258 260 261 263
253 1 259 262 265 268
254 2 260 261 263 264
255 2 261 263 264 266
256 1 262 265 268 271
257 2 263 264 266 267
258 2 264 266 267 269
259 1 265 268 271 274
260 2 266 267 269 270
261 2 267 269 270 272
262 1 268 271 274 277
263 2 269 270 272 273
264 2 270 272 273 275
265 1 271 274 277 280
266 2 272 273 275 276
267 2 273 275 276 278
268 1 274 277 280 283
269 2 275 276 278 279
270 2 276 278 279 281
271 1 277 280 283 286
272 2 278 279 281 282
273 2 279 281 282 284
274 1 280 283 286 289
275 2 281 282 284 285
276 2 282 284 285 287
277 1 283 286 289 292
278 2 284 285 287 288
279 2 285 287 288 290
280 1 286 289 292 295
281 2 287 288 290 291
282 2 288 290 291 293
283 1 289 292 295 298
284 2 290 291 293 294
285 2 291 293 294 296
286 2 293 294 296 297
287 2 294 296 297 299
288 2 296 297 299 300
289 1 301 304 307 310
290 2 302 303 305 306
291 2 303 305 306 308
292 1 304 307 310 313
293 2 305 306 308 309
294 2 306 308 309 311
295 1 307 310 313 316
296 2 308 309 311 312
297 2 309 311 312 314
298 1 310 313 316 319
299 2 311 312 314 315
300 2 312 314 315 317
301 1 313 316 319 322
302 2 314 315 317 318
303 2 315 317 318 320
304 1 316 319 322 325
305 2 317 318 320 321
306 2 318 320 321 323
307 1 319 322 325 328
308 2 320 321 323 324
309 2 321 323 324 326
310 1 322 325 328 331
311 2 323 324 326 327
312 2 324 326 327 329
313 1 325 328 331 334
314 2 326 327 329 330
315 2 327 329 330 332
316 1 328 331 334 337
317 2 329 330 332 333
318 2 330 332 333 335
319 1 331 334 337 340
320 2 332 333 335 336
321 2 333 335 336 338
322 1 334 337 340 343
323 2 335 336 338 339
324 2 336 338 339 341
325 1 337 340 343 346
326 2 338 339 341 342
327 2 339 341 342 344
328 1 340 343 346 349
329 2 341 342 344 345
330 2 342 344 345 347
331 1 343 346 349 352
332 2 344 345 347 348
333 2 345 347 348 350
334 1 346 349 352 355
335 2 347 348 350 351
336 2 348 350 351 353
337 1 349 352 355 358
338 2 350 351 353 354
339 2 351 353 354 356
340 1 352 355 358 361
341 2 353 354 356 357
342 2 354 356 357 359
343 1 355 358 361 364
344 2 356 357 359 360
345 2 357 359 360 362
346 1 358 361 364 367
347 2 359 360 362 363
348 2 360 362 363 365
349 1 361 364 367 370
350 2 362 363 365 366
351 2 363 365 366 368
352 1 364 367 370 373
353 2 365 366 368 369
354 2 366 368 369 371
355 1 367 370 373 376
356 2 368 369 371 372
357 2 369 371 372 374
358 1 370 373 376 379
359 2 371 372 374 375
360 2 372 374 375 377
361 1 373 376 379 382
362 2 374 375 377 378
363 2 375 377 378 380
364 1 376 379 382 385
365 2 377 378 380 381
366 2 378 380 381 383
367 1 379 382 385 388
368 2 380 381 383 384
369 2 381 383 384 386
370 1 382 385 388 391
371 2 383 384 386 387
372 2 384 386 387 389
373 1 385 388 391 394
374 2 386 387 389 390
375 2 387 389 390 392
376 1 388 391 394 397
377 2 389 390 392 393
378 2 390 392 393 395
379 1 391 394 397 400
380 2 392 393 395 396
381 2 393 395 396 398
382 1 394 397 400 403
383 2 395 396 398 399
384 2 396 398 399 401
385 1 397 400 403 406
386 2 398 399 401 402
387 2 399 401 402 404
388 1 400 403 406 409
389 2 401 402 404 405
390 2 402 404 405 407
391 1 403 406 409 412
392 2 404 405 407 408
393 2 405 407 408 410
394 1 406 409 412 415
395 2 407 408 410 411
396 2 408 410 411 413
397 1 409 412 415 418
398 2 410 411 413 414
399 2 411 413 414 416
400 1 412 415 418 421
401 2 413 414 416 417
402 2 414 416 417 419
403 1 415 418 421 424
404 2 416 417 419 420
405 2 417 419 420 422
406 1 418 421 424 427
407 2 419 420 422 423
408 2 420 422 423 425
409 1 421 424 427 430
410 2 422 423 425 426
411 2 423 425 426 428
412 1 424 427 430 433
413 2 425 426 428 429
414 2 426 428 429 431
415 1 427 430 433 436
416 2 428 429 431 432
417 2 429 431 432 434
418 1 430 433 436 439
419 2 431 432 434 435
420 2 432 434 435 437
421 1 433 436 439 442
422 2 434 435 437 438
423 2 435 437 438 440
424 1 436 439 442 445
425 2 437 438 440 441
426 2 438 440 441 443
427 1 439 442 445 448
428 2 440 441 443 444
429 2 441 443 444 446
430 2 443 444 446 447
431 2 444 446 447 449
432 2 446 447 449 450
433 1 451 454 457 460
434 2 452 453 455 456
435 2 453 455 456 458
436 1 454 457 460 463
437 2 455 456 458 459
438 2 456 458 459 461
439 1 457 460 463 466
440 2 458 459 461 462
441 2 459 461 462 464
442 1 460 463 466 469
443 2 461 462 464 465
444 2 462 464 465 467
445 1 463 466 469 472
446 2 464 465 467 468
447 2 465 467 468 470
448 1 466 469 472 475
449 2 467 468 470 471
450 2 468 470 471 473
451 1 469 472 475 478
452 2 470 471 473 474
453 2 471 473 474 476
454 1 472 475 478 481
455 2 473 474 476 477
456 2 474 476 477 479
457 1 475 478 481 484
458 2 476 477 479 480
459 2 477 479 480 482
460 1 478 481 484 487
461 2 479 480 482 483
462 2 480 482 483 485
463 1 481 484 487 490
464 2 482 483 485 486
465 2 483 485 486 488
466 1 484 487 490 493
467 2 485 486 488 489
468 2 486 488 489 491
469 1 487 490 493 496
470 2 488 489 491 492
471 2 489 491 492 494
472 1 490 493 496 499
473 2 491 492 494 495
474 2 492 494 495 497
475 1 493 496 499 502
476 2 494 495 497 498
477 2 495 497 498 500
478 1 496 499 502 505
479 2 497 498 500 501
480 2 498 500 501 503
481 1 499 502 505 508
482 2 500 501 503 504
483 2 501 503 504 506
484 1 502 505 508 511
485 2 503 504 506 507
486 2 504 506 507 509
487 1 505 508 511 514
488 2 506 507 509 510
489 2 507 509 510 512
490 1 508 511 514 517
491 2 509 510 512 513
492 2 510 512 513 515
493 1 511 514 517 520
494 2 512 513 515 516
495 2 513 515 516 518
496 1 514 517 520 523
497 2 515 516 518 519
498 2 516 518 519 521
499 1 517 520 523 526
500 2 518 519 521 522
501 2 519 521 522 524
502 1 520 523 526 529
503 2 521 522 524 525
504 2 522 524 525 527
505 1 523 526 529 532
506 2 524 525 527 528
507 2 525 527 528 530
508 1 526 529 532 535
509 2 527 528 530 531
510 2 528 530 531 533
511 1 529 532 535 538
512 2 530 531 533 534
513 2 531 533 534 536
514 1 532 535 538 541
515 2 533 534 536 537
516 2 534 536 537 539
517 1 535 538 541 544
518 2 536 537 539 540
519 2 537 539 540 542
520 1 538 541 544 547
521 2 539 540 542 543
522 2 540 542 543 545
523 1 541 544 547 550
524 2 542 543 545 546
525 2 543 545 546 548
526 1 544 547 550 553
527 2 545 546 548 549
528 2 546 548 549 551
529 1 547 550 553 556
530 2 548 549 551 552
531 2 549 551 552 554
532 1 550 553 556 559
533 2 551 552 554 555
534 2 552 554 555 557
535 1 553 556 559 562
536 2 554 555 557 558
537 2 555 557 558 560
538 1 556 559 562 565
539 2 557 558 560 561
540 2 558 560 561 563
541 1 559 562 565 568
542 2 560 561 563 564
543 2 561 563 564 566
544 1 562 565 568 571
545 2 563 564 566 567
546 2 564 566 567 569
547 1 565 568 571 574
548 2 566 567 569 570
549 2 567 569 570 572
550 1 568 571 574 577
551 2 569 570 572 573
552 2 570 572 573 575
553 1 571 574 577 580
554 2 572 573 575 576
555 2 573 575 576 578
556 1 574 577 580 583
557 2 575 576 578 579
558 2 576 578 579 581
559 1 577 580 583 586
560 2 578 579 581 582
561 2 579 581 582 584
562 1 580 583 586 589
563 2 581 582 584 585
564 2 582 584 585 587
565 1 583 586 589 592
566 2 584 585 587 588
567 2 585 587 588 590
568 1 586 589 592 595
569 2 587 588 590 591
570 2 588 590 591 593
571 1 589 592 595 598
572 2 590 591 593 594
573 2 591 593 594 596
574 2 593 594 596 597
575 2 594 596 597 599
576 2 596 597 599 600
577 1 601 604 607 610
578 2 602 603 605 606
579 2 603 605 606 608
580 1 604 607 610 613
581 2 605 606 608 609
582 2 606 608 609 611
583 1 607 610 613 616
584 2 608 609 611 612
585 2 609 611 612 614
586 1 610 613 616 619
587 2 611 612 614 615
588 2 612 614 615 617
589 1 613 616 619 622
590 2 614 615 617 618
591 2 615 617 618 620
592 1 616 619 622 625
593 2 617 618 620 621
594 2 618 620 621 623
595 1 619 622 625 628
596 2 620 621 623 624
597 2 621 623 624 626
598 1 622 625 628 631
599 2 623 624 626 627
600 2 624 626 627 629
601 1 625 628 631 634
602 2 626 627 629 630
603 2 627 629 630 632
604 1 628 631 634 637
605 2 629 630 632 633
606 2 630 632 633 635
607 1 631 634 637 640
608 2 632 633 635 636
609 2 633 635 636 638
610 1 634 637 640 643
611 2 635 636 638 639
612 2 636 638 639 641
613 1 637 640 643 646
614 2 638 639 641 642
615 2 639 641 642 644
616 1 640 643 646 649
617 2 641 642 644 645
618 2 642 644 645 647
619 1 643 646 649 652
620 2 644 645 647 648
621 2 645 647 648 650
622 1 646 649 652 655
623 2 647 648 650 651
624 2 648 650 651 653
625 1 649 652 655 658
626 2 650 651 653 654
627 2 651 653 654 656
628 1 652 655 658 661
629 2 653 654 656 657
630 2 654 656 657 659
631 1 655 658 661 664
632 2 656 657 659 660
633 2 657 659 660 662
634 1 658 661 664 667
635 2 659 660 662 663
636 2 660 662 663 665
637 1 661 664 667 670
638 2 662 663 665 666
639 2 663 665 666 668
640 1 664 667 670 673
641 2 665 666 668 669
642 2 666 668 669 671
643 1 667 670 673 676
644 2 668 669 671 672
645 2 669 671 672 674
646 1 670 673 676 679
647 2 671 672 674 675
648 2 672 674 675 677
649 1 673 676 679 682
650 2 674 675 677 678
651 2 675 677 678 680
652 1 676 679 682 685
653 2 677 678 680 681
654 2 678 680 681 683
655 1 679 682 685 688
656 2 680 681 683 684
657 2 681 683 684 686
658 1 682 685 688 691
659 2 683 684 686 687
660 2 684 686 687 689
661 1 685 688 691 694
662 2 686 687 689 690
663 2 687 689 690 692
664 1 688 691 694 697
665 2 689 690 692 693
666 2 690 692 693 695
667 1 691 694 697 700
668 2 692 693 695 696
669 2 693 695 696 698
670 1 694 697 700 703
671 2 695 696 698 699
672 2 696 698 699 701
673 1 697 700 703 706
674 2 698 699 701 702
675 2 699 701 702 704
676 1 700 703 706 709
677 2 701 702 704 705
678 2 702 704 705 707
679 1 703 706 709 712
680 2 704 705 707 708
681 2 705 707 708 710
682 1 706 709 712 715
683 2 707 708 710 711
684 2 708 710 711 713
685 1 709 712 715 718
686 2 710 711 713 714
687 2 711 713 714 716
688 1 712 715 718 721
689 2 713 714 716 717
690 2 714 716 717 719
691 1 715 718 721 724
692 2 716 717 719 720
693 2 717 719 720 722
694 1 718 721 724 727
695 2 719 720 722 723
696 2 720 722 723 725
697 1 721 724 727 730
698 2 722 723 725 726
699 2 723 725 726 728
700 1 724 727 730 733
701 2 725 726 728 729
702 2 726 728 729 731
703 1 727 730 733 736
704 2 728 729 731 732
705 2 729 731 732 734
706 1 730 733 736 739
707 2 731 732 734 735
708 2 732 734 735 737
709 1 733 736 739 742
710 2 734 735 737 738
711 2 735 737 738 740
712 1 736 739 742 745
713 2 737 738 740 741
714 2 738 740 741 743
715 1 739 742 745 748
716 2 740 741 743 744
717 2 741 743 744 746
718 2 743 744 746 747
719 2 744 746 747 749
720 2 746 747 749 750
721 1 751 754 757 760
722 2 752 753 755 756
723 2 753 755 756 758
724 1 754 757 760 763
725 2 755 756 758 759
726 2 756 758 759 761
727 1 757 760 763 766
728 2 758 759 761 762
729 2 759 761 762 764
730 1 760 763 766 769
731 2 761 762 764 765
732 2 762 764 765 767
733 1 763 766 769 772
734 2 764 765 767 768
735 2 765 767 768 770
736 1 766 769 772 775
737 2 767 768 770 771
738 2 768 770 771 773
739 1 769 772 775 778
740 2 770 771 773 774
741 2 771 773 774 776
742 1 772 775 778 781
743 2 773 774 776 777
744 2 774 776 777 779
745 1 775 778 781 784
746 2 776 777 779 780
747 2 777 779 780 782
748 1 778 781 784 787
749 2 779 780 782 783
750 2 780 782 783 785
751 1 781 784 787 790
752 2 782 783 785 786
753 2 783 785 786 788
754 1 784 787 790 793
755 2 785 786 788 789
756 2 786 788 789 791
757 1 787 790 793 796
758 2 788 789 791 792
759 2 789 791 792 794
760 1 790 793 796 799
761 2 791 792 794 795
762 2 792 794 795 797
763 1 793 796 799 802
764 2 794 795 797 798
765 2 795 797 798 800
766 1 796 799 802 805
767 2 797 798 800 801
768 2 798 800 801 803
769 1 799 802 805 808
770 2 800 801 803 804
771 2 801 803 804 806
772 1 802 805 808 811
773 2 803 804 806 807
774 2 804 806 807 809
775 1 805 808 811 814
776 2 806 807 809 810
777 2 807 809 810 812
778 1 808 811 814 817
779 2 809 810 812 813
780 2 810 812 813 815
781 1 811 814 817 820
782 2 812 813 815 816
783 2 813 815 816 818
784 1 814 817 820 823
785 2 815 816 818 819
786 2 816 818 819 821
787 1 817 820 823 826
788 2 818 819 821 822
789 2 819 821 822 824
790 1 820 823 826 829
791 2 821 822 824 825
792 2 822 824 825 827
793 1 823 826 829 832
794 2 824 825 827 828
795 2 825 827 828 830
796 1 826 829 832 835
797 2 827 828 830 831
798 2 828 830 831 833
799 1 829 832 835 838
800 2 830 831 833 834
801 2 831 833 834 836
802 1 832 835 838 841
803 2 833 834 836 837
804 2 834 836 837 839
805 1 835 838 841 844
806 2 836 837 839 840
807 2 837 839 840 842
808 1 838 841 844 847
809 2 839 840 842 843
810 2 840 842 843 845
811 1 841 844 847 850
812 2 842 843 845 846
813 2 843 845 846 848
814 1 844 847 850 853
815 2 845 846 848 849
816 2 846 848 849 851
817 1 847 850 853 856
818 2 848 849 851 852
819 2 849 851 852 854
820 1 850 853 856 859
821 2 851 852 854 855
822 2 852 854 855 857
823 1 853 856 859 862
824 2 854 855 857 858
825 2 855 857 858 860
826 1 856 859 862 865
827 2 857 858 860 861
828 2 858 860 861 863
829 1 859 862 865 868
830 2 860 861 863 864
831 2 861 863 864 866
832 1 862 865 868 871
833 2 863 864 866 867
834 2 864 866 867 869
835 1 865 868 871 874
836 2 866 867 869 870
837 2 867 869 870 872
838 1 868 871 874 877
839 2 869 870 872 873
840 2 870 872 873 875
841 1 871 874 877 880
842 2 872 873 875 876
843 2 873 875 876 878
844 1 874 877 880 883
845 2 875 876 878 879
846 2 876 878 879 881
847 1 877 880 883 886
848 2 878 879 881 882
849 2 879 881 882 884
850 1 880 883 886 889
851 2 881 882 884 885
852 2 882 884 885 887
853 1 883 886 889 892
854 2 884 885 887 888
855 2 885 887 888 890
856 1 886 889 892 895
857 2 887 888 890 891
858 2 888 890 891 893
859 1 889 892 895 898
860 2 890 891 893 894
861 2 891 893 894 896
862 2 893 894 896 897
863 2 894 896 897 899
864 2 896 897 899 900
865 1 901 904 907 910
866 2 902 903 905 906
867 2 903 905 906 908
868 1 904 907 910 913
869 2 905 906 908 909
870 2 906 908 909 911
871 1 907 910 913 916
872 2 908 909 911 912
873 2 909 911 912 914
874 1 910 913 916 919
875 2 911 912 914 915
876 2 912 914 915 917
877 1 913 916 919 922
878 2 914 915 917 918
879 2 915 917 918 920
880 1 916 919 922 925
881 2 917 918 920 921
882 2 918 920 921 923
883 1 919 922 925 928
884 2 920 921 923 924
885 2 921 923 924 926
886 1 922 925 928 931
887 2 923 924 926 927
888 2 924 926 927 929
889 1 925 928 931 934
890 2 926 927 929 930
891 2 927 929 930 932
892 1 928 931 934 937
893 2 929 930 932 933
894 2 930 932 933 935
895 1 931 934 937 940
896 2 932 933 935 936
897 2 933 935 936 938
898 1 934 937 940 943
899 2 935 936 938 939
900 2 936 938 939 941
901 1 937 940 943 946
902 2 938 939 941 942
903 2 939 941 942 944
904 1 940 943 946 949
905 2 941 942 944 945
906 2 942 944 945 947
907 1 943 946 949 952
908 2 944 945 947 948
909 2 945 947 948 950
910 1 946 949 952 955
911 2 947 948 950 951
912 2 948 950 951 953
913 1 949 952 955 958
914 2 950 951 953 954
915 2 951 953 954 956
916 1 952 955 958 961
917 2 953 954 956 957
918 2 954 956 957 959
919 1 955 958 961 964
920 2 956 957 959 960
921 2 957 959 960 962
922 1 958 961 964 967
923 2 959 960 962 963
924 2 960 962 963 965
925 1 961 964 967 970
926 2 962 963 965 966
927 2 963 965 966 968
928 1 964 967 970 973
929 2 965 966 968 969
930 2 966 968 969 971
931 1 967 970 973 976
932 2 968 969 971 972
933 2 969 971 972 974
934 1 970 973 976 979
935 2 971 972 974 975
936 2 972 974 975 977
937 1 973 976 979 982
938 2 974 975 977 978
939 2 975 977 978 980
940 1 976 979 982 985
941 2 977 978 980 981
942 2 978 980 981 983
943 1 979 982 985 988
944 2 980 981 983 984
945 2 981 983 984 986
946 1 982 985 988 991
947 2 983 984 986 987
948 2 984 986 987 989
949 1 985 988 991 994
950 2 986 987 989 990
951 2 987 989 990 992
952 1 988 991 994 997
953 2 989 990 992 993
954 2 990 992 993 995
955 1 991 994 997 1000
956 2 992 993 995 996
957 2 993 995 996 998
958 1 994 997 1000 1003
959 2 995 996 998 999
960 2 996 998 999 1001
961 1 997 1000 1003 1006
962 2 998 999 1001 1002
963 2 999 1001 1002 1004
964 1 1000 1003 1006 1009
965 2 1001 1002 1004 1005
966 2 1002 1004 1005 1007
967 1 1003 1006 1009 1012
968 2 1004 1005 1007 1008
969 2 1005 1007 1008 1010
970 1 1006 1009 1012 1015
971 2 1007 1008 1010 1011
972 2 1008 1010 1011 1013
973 1 1009 1012 1015 1018
974 2 1010 1011 1013 1014
975 2 1011 1013 1014 1016
976 1 1012 1015 1018 1021
977 2 1013 1014 1016 1017
978 2 1014 1016 1017 1019
979 1 1015 1018 1021 1024
980 2 1016 1017 1019 1020
981 2 1017 1019 1020 1022
982 1 1018 1021 1024 1027
983 2 1019 1020 1022 1023
984 2 1020 1022 1023 1025
985 1 1021 1024 1027 1030
986 2 1022 1023 1025 1026
987 2 1023 1025 1026 1028
988 1 1024 1027 1030 1033
989 2 1025 1026 1028 1029
990 2 1026 1028 1029 1031
991 1 1027 1030 1033 1036
992 2 1028 1029 1031 1032
993 2 1029 1031 1032 1034
994 1 1030 1033 1036 1039
995 2 1031 1032 1034 1035
996 2 1032 1034 1035 1037
997 1 1033 1036 1039 1042
998 2 1034 1035 1037 1038
999 2 1035 1037 1038 1040
1000 1 1036 1039 1042 1045
1001 2 1037 1038 1040 1041
1002 2 1038 1040 1041 1043
1003 1 1039 1042 1045 1048
1004 2 1040 1041 1043 1044
1005 2 1041 1043 1044 1046
1006 2 1043 1044 1046 1047
1007 2 1044 1046 1047 1049
1008 2 1046 1047 1049 1050
1009 1 1051 1054 1057 1060
1010 2 1052 1053 1055 1056
1011 2 1053 1055 1056 1058
1012 1 1054 1057 1060 1063
1013 2 1055 1056 1058 1059
1014 2 1056 1058 1059 1061
1015 1 1057 1060 1063 1066
1016 2 1058 1059 1061 1062
1017 2 1059 1061 1062 1064
1018 1 1060 1063 1066 1069
1019 2 1061 1062 1064 1065
1020 2 1062 1064 1065 1067
1021 1 1063 1066 1069 1072
1022 2 1064 1065 1067 1068
1023 2 1065 1067 1068 1070
1024 1 1066 1069 1072 1075
1025 2 1067 1068 1070 1071
1026 2 1068 1070 1071 1073
1027 1 1069 1072 1075 1078
1028 2 1070 1071 1073 1074
1029 2 1071 1073 1074 1076
1030 1 1072 1075 1078 1081
1031 2 1073 1074 1076 1077
1032 2 1074 1076 1077 1079
1033 1 1075 1078 1081 1084
1034 2 1076 1077 1079 1080
1035 2 1077 1079 1080 1082
1036 1 1078 1081 1084 1087
1037 2 1079 1080 1082 1083
1038 2 1080 1082 1083 1085
1039 1 1081 1084 1087 1090
1040 2 1082 1083 1085 1086
1041 2 1083 1085 1086 1088
1042 1 1084 1087 1090 1093
1043 2 1085 1086 1088 1089
1044 2 1086 1088 1089 1091
1045 1 1087 1090 1093 1096
1046 2 1088 1089 1091 1092
1047 2 1089 1091 1092 1094
1048 1 1090 1093 1096 1099
1049 2 1091 1092 1094 1095
1050 2 1092 1094 1095 1097
1051 1 1093 1096 1099 1102
1052 2 1094 1095 1097 1098
1053 2 1095 1097 1098 1100
1054 1 1096 1099 1102 1105
1055 2 1097 1098 1100 1101
1056 2 1098 1100 1101 1103
1057 1 1099 1102 1105 1108
1058 2 1100 1101 1103 1104
1059 2 1101 1103 1104 1106
1060 1 1102 1105 1108 1111
1061 2 1103 1104 1106 1107
1062 2 1104 1106 1107 1109
1063 1 1105 1108 1111 1114
1064 2 1106 1107 1109 1110
1065 2 1107 1109 1110 1112
1066 1 1108 1111 1114 1117
1067 2 1109 1110 1112 1113
1068 2 1110 1112 1113 1115
1069 1 1111 1114 1117 1120
1070 2 1112 1113 1115 1116
1071 2 1113 1115 1116 1118
1072 1 1114 1117 1120 1123
1073 2 1115 1116 1118 1119
1074 2 1116 1118 1119 1121
1075 1 1117 1120 1123 1126
1076 2 1118 1119 1121 1122
1077 2 1119 1121 1122 1124
1078 1 1120 1123 1126 1129
1079 2 1121 1122 1124 1125
1080 2 1122 1124 1125 1127
1081 1 1123 1126 1129 1132
1082 2 1124 1125 1127 1128
1083 2 1125 1127 1128 1130
1084 1 1126 1129 1132 1135
1085 2 1127 1128 1130 1131
1086 2 1128 1130 1131 1133
1087 1 1129 1132 1135 1138
1088 2 1130 1131 1133 1134
1089 2 1131 1133 1134 1136
1090 1 1132 1135 1138 1141
1091 2 1133 1134 1136 1137
1092 2 1134 1136 1137 1139
1093 1 1135 1138 1141 1144
1094 2 1136 1137 1139 1140
1095 2 1137 1139 1140 1142
1096 1 1138 1141 1144 1147
1097 2 1139 1140 1142 1143
1098 2 1140 1142 1143 1145
1099 1 1141 1144 1147 1150
1100 2 1142 1143 1145 1146
1101 2 1143 1145 1146 1148
1102 1 1144 1147 1150 1153
1103 2 1145 1146 1148 1149
1104 2 1146 1148 1149 1151
1105 1 1147 1150 1153 1156
1106 2 1148 1149 1151 1152
1107 2 1149 1151 1152 1154
1108 1 1150 1153 1156 1159
1109 2 1151 1152 1154 1155
1110 2 1152 1154 1155 1157
1111 1 1153 1156 1159 1162
1112 2 1154 1155 1157 1158
1113 2 1155 1157 1158 1160
1114 1 1156 1159 1162 1165
1115 2 1157 1158 1160 1161
1116 2 1158 1160 1161 1163
1117 1 1159 1162 1165 1168
1118 2 1160 1161 1163 1164
1119 2 1161 1163 1164 1166
1120 1 1162 1165 1168 1171
1121 2 1163 1164 1166 1167
1122 2 1164 1166 1167 1169
1123 1 1165 1168 1171 1174
1124 2 1166 1167 1169 1170
1125 2 1167 1169 1170 1172
1126 1 1168 1171 1174 1177
1127 2 1169 1170 1172 1173
1128 2 1170 1172 1173 1175
1129 1 1171 1174 1177 1180
1130 2 1172 1173 1175 1176
1131 2 1173 1175 1176 1178
1132 1 1174 1177 1180 1183
1133 2 1175 1176 1178 1179
1134 2 1176 1178 1179 1181
1135 1 1177 1180 1183 1186
1136 2 1178 1179 1181 1182
1137 2 1179 1181 1182 1184
1138 1 1180 1183 1186 1189
1139 2 1181 1182 1184 1185
1140 2 1182 1184 1185 1187
1141 1 1183 1186 1189 1192
1142 2 1184 1185 1187 1188
1143 2 1185 1187 1188 1190
1144 1 1186 1189 1192 1195
1145 2 1187 1188 1190 1191
1146 2 1188 1190 1191 1193
1147 1 1189 1192 1195 1198
1148 2 1190 1191 1193 1194
1149 2 1191 1193 1194 1196
1150 2 1193 1194 1196 1197
1151 2 1194 1196 1197 1199
1152 2 1196 1197 1199 1200
1153 1 1201 1204 1207 1210
1154 2 1202 1203 1205 1206
1155 2 1203 1205 1206 1208
1156 1 1204 1207 1210 1213
1157 2 1205 1206 1208 1209
1158 2 1206 1208 1209 1211
1159 1 1207 1210 1213 1216
1160 2 1208 1209 1211 1212
1161 2 1209 1211 1212 1214
1162 1 1210 1213 1216 1219
1163 2 1211 1212 1214 1215
1164 2 1212 1214 1215 1217
1165 1 1213 1216 1219 1222
1166 2 1214 1215 1217 1218
1167 2 1215 1217 1218 1220
1168 1 1216 1219 1222 1225
1169 2 1217 1218 1220 1221
1170 2 1218 1220 1221 1223
1171 1 1219 1222 1225 1228
1172 2 1220 1221 1223 1224
1173 2 1221 1223 1224 1226
1174 1 1222 1225 1228 1231
1175 2 1223 1224 1226 1227
1176 2 1224 1226 1227 1229
1177 1 1225 1228 1231 1234
1178 2 1226 1227 1229 1230
1179 2 1227 1229 1230 1232
1180 1 1228 1231 1234 1237
1181 2 1229 1230 1232 1233
1182 2 1230 1232 1233 1235
1183 1 1231 1234 1237 1240
1184 2 1232 1233 1235 1236
1185 2 1233 1235 1236 1238
1186 1 1234 1237 1240 1243
1187 2 1235 1236 1238 1239
1188 2 1236 1238 1239 1241
1189 1 1237 1240 1243 1246
1190 2 1238 1239 1241 1242
1191 2 1239 1241 1242 1244
1192 1 1240 1243 1246 1249
1193 2 1241 1242 1244 1245
1194 2 1242 1244 1245 1247
1195 1 1243 1246 1249 1252
1196 2 1244 1245 1247 1248
1197 2 1245 1247 1248 1250
1198 1 1246 1249 1252 1255
1199 2 1247 1248 1250 1251
1200 2 1248 1250 1251 1253
1201 1 1249 1252 1255 1258
1202 2 1250 1251 1253 1254
1203 2 1251 1253 1254 1256
1204 1 1252 1255 1258 1261
1205 2 1253 1254 1256 1257
1206 2 1254 1256 1257 1259
1207 1 1255 1258 1261 1264
1208 2 1256 1257 1259 1260
1209 2 1257 1259 1260 1262
1210 1 1258 1261 1264 1267
1211 2 1259 1260 1262 1263
1212 2 1260 1262 1263 1265
1213 1 1261 1264 1267 1270
1214 2 1262 1263 1265 1266
1215 2 1263 1265 1266 1268
1216 1 1264 1267 1270 1273
1217 2 1265 1266 1268 1269
1218 2 1266 1268 1269 1271
1219 1 1267 1270 1273 1276
1220 2 1268 1269 1271 1272
1221 2 1269 1271 1272 1274
1222 1 1270 1273 1276 1279
1223 2 1271 1272 1274 1275
1224 2 1272 1274 1275 1277
1225 1 1273 1276 1279 1282
1226 2 1274 1275 1277 1278
1227 2 1275 1277 1278 1280
1228 1 1276 1279 1282 1285
1229 2 1277 1278 1280 1281
1230 2 1278 1280 1281 1283
1231 1 1279 1282 1285 1288
1232 2 1280 1281 1283 1284
1233 2 1281 1283 1284 1286
1234 1 1282 1285 1288 1291
1235 2 1283 1284 1286 1287
1236 2 1284 1286 1287 1289
1237 1 1285 1288 1291 1294
1238 2 1286 1287 1289 1290
1239 2 1287 1289 1290 1292
1240 1 1288 1291 1294 1297
1241 2 1289 1290 1292 1293
1242 2 1290 1292 1293 1295
1243 1 1291 1294 1297 1300
1244 2 1292 1293 1295 1296
1245 2 1293 1295 1296 1298
1246 1 1294 1297 1300 1303
1247 2 1295 1296 1298 1299
1248 2 1296 1298 1299 1301
1249 1 1297 1300 1303 1306
1250 2 1298 1299 1301 1302
1251 2 1299 1301 1302 1304
1252 1 1300 1303 1306 1309
1253 2 1301 1302 1304 1305
1254 2 1302 1304 1305 1307
1255 1 1303 1306 1309 1312
1256 2 1304 1305 1307 1308
1257 2 1305 1307 1308 1310
1258 1 1306 1309 1312 1315
1259 2 1307 1308 1310 1311
1260 2 1308 1310 1311 1313
1261 1 1309 1312 1315 1318
1262 2 1310 1311 1313 1314
1263 2 1311 1313 1314 1316
1264 1 1312 1315 1318 1321
1265 2 1313 1314 1316 1317
1266 2 1314 1316 1317 1319
1267 1 1315 1318 1321 1324
1268 2 1316 1317 1319 1320
1269 2 1317 1319 1320 1322
1270 1 1318 1321 1324 1327
1271 2 1319 1320 1322 1323
1272 2 1320 1322 1323 1325
1273 1 1321 1324 1327 1330
1274 2 1322 1323 1325 1326
1275 2 1323 1325 1326 1328
1276 1 1324 1327 1330 1333
1277 2 1325 1326 1328 1329
1278 2 1326 1328 1329 1331
1279 1 1327 1330 1333 1336
1280 2 1328 1329 1331 1332
1281 2 1329 1331 1332 1334
1282 1 1330 1333 1336 1339
1283 2 1331 1332 1334 1335
1284 2 1332 1334 1335 1337
1285 1 1333 1336 1339 1342
1286 2 1334 1335 1337 1338
1287 2 1335 1337 1338 1340
1288 1 1336 1339 1342 1345
1289 2 1337 1338 1340 1341
1290 2 1338 1340 1341 1343
1291 1 1339 1342 1345 1348
1292 2 1340 1341 1343 1344
1293 2 1341 1343 1344 1346
1294 2 1343 1344 1346 1347
1295 2 1344 1346 1347 1349
1296 2 1346 1347 1349 1350
1297 1 1351 1354 1357 1360
1298 2 1352 1353 1355 1356
1299 2 1353 1355 1356 1358
1300 1 1354 1357 1360 1363
1301 2 1355 1356 1358 1359
1302 2 1356 1358 1359 1361
1303 1 1357 1360 1363 1366
1304 2 1358 1359 1361 1362
1305 2 1359 1361 1362 1364
1306 1 1360 1363 1366 1369
1307 2 1361 1362 1364 1365
1308 2 1362 1364 1365 1367
1309 1 1363 1366 1369 1372
1310 2 1364 1365 1367 1368
1311 2 1365 1367 1368 1370
1312 1 1366 1369 1372 1375
1313 2 1367 1368 1370 1371
1314 2 1368 1370 1371 1373
1315 1 1369 1372 1375 1378
1316 2 1370 1371 1373 1374
1317 2 1371 1373 1374 1376
1318 1 1372 1375 1378 1381
1319 2 1373 1374 1376 1377
1320 2 1374 1376 1377 1379
1321 1 1375 1378 1381 1384
1322 2 1376 1377 1379 1380
1323 2 1377 1379 1380 1382
1324 1 1378 1381 1384 1387
1325 2 1379 1380 1382 1383
1326 2 1380 1382 1383 1385
1327 1 1381 1384 1387 1390
1328 2 1382 1383 1385 1386
1329 2 1383 1385 1386 1388
1330 1 1384 1387 1390 1393
1331 2 1385 1386 1388 1389
1332 2 1386 1388 1389 1391
1333 1 1387 1390 1393 1396
1334 2 1388 1389 1391 1392
1335 2 1389 1391 1392 1394
1336 1 1390 1393 1396 1399
1337 2 1391 1392 1394 1395
1338 2 1392 1394 1395 1397
1339 1 1393 1396 1399 1402
1340 2 1394 1395 1397 1398
1341 2 1395 1397 1398 1400
1342 1 1396 1399 1402 1405
1343 2 1397 1398 1400 1401
1344 2 1398 1400 1401 1403
1345 1 1399 1402 1405 1408
1346 2 1400 1401 1403 1404
1347 2 1401 1403 1404 1406
1348 1 1402 1405 1408 1411
1349 2 1403 1404 1406 1407
1350 2 1404 1406 1407 1409
1351 1 1405 1408 1411 1414
1352 2 1406 1407 1409 1410
1353 2 1407 1409 1410 1412
1354 1 1408 1411 1414 1417
1355 2 1409 1410 1412 1413
1356 2 1410 1412 1413 1415
1357 1 1411 1414 1417 1420
1358 2 1412 1413 1415 1416
1359 2 1413 1415 1416 1418
1360 1 1414 1417 1420 1423
1361 2 1415 1416 1418 1419
1362 2 1416 1418 1419 1421
1363 1 1417 1420 1423 1426
1364 2 1418 1419 1421 1422
1365 2 1419 1421 1422 1424
1366 1 1420 1423 1426 1429
1367 2 1421 1422 1424 1425
1368 2 1422 1424 1425 1427
1369 1 1423 1426 1429 1432
1370 2 1424 1425 1427 1428
1371 2 1425 1427 1428 1430
1372 1 1426 1429 1432 1435
1373 2 1427 1428 1430 1431
1374 2 1428 1430 1431 1433
1375 1 1429 1432 1435 1438
1376 2 1430 1431 1433 1434
1377 2 1431 1433 1434 1436
1378 1 1432 1435 1438 1441
1379 2 1433 1434 1436 1437
1380 2 1434 1436 1437 1439
1381 1 1435 1438 1441 1444
1382 2 1436 1437 1439 1440
1383 2 1437 1439 1440 1442
1384 1 1438 1441 1444 1447
1385 2 1439 1440 1442 1443
1386 2 1440 1442 1443 1445
1387 1 1441 1444 1447 1450
1388 2 1442 1443 1445 1446
1389 2 1443 1445 1446 1448
1390 1 1444 1447 1450 1453
1391 2 1445 1446 1448 1449
1392 2 1446 1448 1449 1451
1393 1 1447 1450 1453 1456
1394 2 1448 1449 1451 1452
1395 2 1449 1451 1452 1454
1396 1 1450 1453 1456 1459
1397 2 1451 1452 1454 1455
1398 2 1452 1454 1455 1457
1399 1 1453 1456 1459 1462
1400 2 1454 1455 1457 1458
1401 2 1455 1457 1458 1460
1402 1 1456 1459 1462 1465
1403 2 1457 1458 1460 1461
1404 2 1458 1460 1461 1463
1405 1 1459 1462 1465 1468
1406 2 1460 1461 1463 1464
1407 2 1461 1463 1464 1466
1408 1 1462 1465 1468 1471
1409 2 1463 1464 1466 1467
1410 2 1464 1466 1467 1469
1411 1 1465 1468 1471 1474
1412 2 1466 1467 1469 1470
1413 2 1467 1469 1470 1472
1414 1 1468 1471 1474 1477
1415 2 1469 1470 1472 1473
1416 2 1470 1472 1473 1475
1417 1 1471 1474 1477 1480
1418 2 1472 1473 1475 1476
1419 2 1473 1475 1476 1478
1420 1 1474 1477 1480 1483
1421 2 1475 1476 1478 1479
1422 2 1476 1478 1479 1481
1423 1 1477 1480 1483 1486
1424 2 1478 1479 1481 1482
1425 2 1479 1481 1482 1484
1426 1 1480 1483 1486 1489
1427 2 1481 1482 1484 1485
1428 2 1482 1484 1485 1487
1429 1 1483 1486 1489 1492
1430 2 1484 1485 1487 1488
1431 2 1485 1487 1488 1490
1432 1 1486 1489 1492 1495
1433 2 1487 1488 1490 1491
1434 2 1488 1490 1491 1493
1435 1 1489 1492 1495 1498
1436 2 1490 1491 1493 1494
1437 2 1491 1493 1494 1496
1438 2 1493 1494 1496 1497
1439 2 1494 1496 1497 1499
1440 2 1496 1497 1499 1500
