LAMMPS data file for backmapping — generated by backmap-prep

9000 atoms
8000 bonds
7000 angles
1500 dihedrals
0 impropers

4 atom types
2 bond types
3 angle types
1 dihedral types
0 improper types

0.0 57.537600 xlo xhi
0.0 57.537600 ylo yhi
0.0 57.537600 zlo zhi

Masses

1 29.062000 # A (CG)
2 15.035000 # CH3
3 14.027000 # CH2
4 28.054000 # B (CG)

Atoms # full

1 1 1 0 36.710000 17.950000 12.060000 0 0 0
2 1 2 0 36.900000 18.640000 12.290000 0 0 0
3 1 3 0 36.510000 17.210000 11.810000 0 0 0
4 2 4 0 37.180000 16.620000 9.960000 0 0 0
5 2 3 0 37.070000 17.340000 10.240000 0 0 0
6 2 3 0 37.290000 15.900000 9.680000 0 0 0
7 3 4 0 38.710000 16.810000 8.240000 0 0 0
8 3 3 0 39.440000 16.670000 8.130000 0 0 0
9 3 3 0 37.980000 16.960000 8.360000 0 0 0
10 4 4 0 41.060000 16.400000 7.690000 0 0 0
11 4 3 0 40.850000 15.840000 8.140000 0 0 0
12 4 3 0 41.270000 16.960000 7.240000 0 0 0
13 5 4 0 43.050000 17.530000 7.300000 0 0 0
14 5 3 0 42.900000 16.910000 7.720000 0 0 0
15 5 3 0 43.190000 18.150000 6.890000 0 0 0
16 6 1 0 45.240000 18.060000 7.780000 0 0 0
17 6 3 0 44.930000 17.450000 8.230000 0 0 0
18 6 2 0 45.520000 18.620000 7.360000 0 0 0
19 7 1 0 50.720000 25.560000 49.340000 0 0 0
20 7 2 0 50.910000 26.250000 49.570000 0 0 0
21 7 3 0 50.520000 24.820000 49.090000 0 0 0
22 8 4 0 50.990000 23.790000 51.150000 0 0 0
23 8 3 0 50.880000 24.510000 51.440000 0 0 0
24 8 3 0 51.100000 23.070000 50.870000 0 0 0
25 9 4 0 50.950000 21.930000 52.580000 0 0 0
26 9 3 0 51.680000 21.790000 52.470000 0 0 0
27 9 3 0 50.220000 22.080000 52.690000 0 0 0
28 10 4 0 50.630000 20.120000 53.900000 0 0 0
29 10 3 0 50.420000 19.570000 54.350000 0 0 0
30 10 3 0 50.840000 20.670000 53.450000 0 0 0
31 11 4 0 52.260000 19.310000 55.010000 0 0 0
32 11 3 0 52.120000 18.690000 55.430000 0 0 0
33 11 3 0 52.400000 19.930000 54.600000 0 0 0
34 12 1 0 54.350000 18.330000 55.970000 0 0 0
35 12 3 0 54.040000 17.720000 56.420000 0 0 0
36 12 2 0 54.630000 18.890000 55.550000 0 0 0
37 13 1 0 16.650000 56.750000 15.850000 0 0 0
38 13 2 0 16.840000 57.440000 16.080000 0 0 0
39 13 3 0 16.450000 56.010000 15.600000 0 0 0
40 14 4 0 18.050000 57.210000 14.080000 0 0 0
41 14 3 0 17.940000 0.392400 14.360000 0 1 0
42 14 3 0 18.160000 56.490000 13.790000 0 0 0
43 15 4 0 19.820000 0.480000 12.410000 0 1 0
44 15 3 0 20.550000 0.330000 12.300000 0 1 0
45 15 3 0 19.090000 0.620000 12.530000 0 1 0
46 16 4 0 20.860000 2.430000 12.640000 0 1 0
47 16 3 0 20.650000 1.880000 13.090000 0 1 0
48 16 3 0 21.070000 2.980000 12.190000 0 1 0
49 17 4 0 21.790000 4.040000 14.190000 0 1 0
50 17 3 0 21.640000 3.420000 14.610000 0 1 0
51 17 3 0 21.930000 4.660000 13.780000 0 1 0
52 18 1 0 22.830000 5.620000 15.420000 0 1 0
53 18 3 0 22.520000 5.010000 15.870000 0 1 0
54 18 2 0 23.110000 6.180000 15.000000 0 1 0
55 19 1 0 27.320000 22.760000 23.510000 0 0 0
56 19 2 0 27.510000 23.450000 23.740000 0 0 0
57 19 3 0 27.120000 22.020000 23.260000 0 0 0
58 20 4 0 26.060000 22.980000 25.390000 0 0 0
59 20 3 0 25.950000 23.700000 25.670000 0 0 0
60 20 3 0 26.170000 22.260000 25.110000 0 0 0
61 21 4 0 24.540000 24.450000 26.920000 0 0 0
62 21 3 0 25.270000 24.300000 26.810000 0 0 0
63 21 3 0 23.810000 24.590000 27.040000 0 0 0
64 22 4 0 24.090000 26.240000 28.780000 0 0 0
65 22 3 0 23.880000 25.690000 29.230000 0 0 0
66 22 3 0 24.300000 26.790000 28.330000 0 0 0
67 23 4 0 23.560000 27.780000 30.430000 0 0 0
68 23 3 0 23.410000 27.160000 30.850000 0 0 0
69 23 3 0 23.700000 28.400000 30.020000 0 0 0
70 24 1 0 24.410000 27.570000 32.530000 0 0 0
71 24 3 0 24.100000 26.960000 32.980000 0 0 0
72 24 2 0 24.690000 28.130000 32.110000 0 0 0
73 25 1 0 52.930000 50.480000 57.260000 0 0 0
74 25 2 0 53.120000 51.170000 57.490000 0 0 0
75 25 3 0 52.730000 49.740000 57.010000 0 0 0
76 26 4 0 51.520000 52.530000 0.150000 0 0 1
77 26 3 0 51.410000 53.250000 0.430000 0 0 1
78 26 3 0 51.630000 51.810000 57.407600 0 0 0
79 27 4 0 50.540000 54.630000 0.220000 0 0 1
80 27 3 0 51.270000 54.490000 0.110000 0 0 1
81 27 3 0 49.810000 54.780000 0.340000 0 0 1
82 28 4 0 49.240000 56.770000 0.040000 0 0 1
83 28 3 0 49.030000 56.210000 0.490000 0 0 1
84 28 3 0 49.450000 57.320000 57.127600 0 0 0
85 29 4 0 49.530000 0.290000 55.630000 0 1 0
86 29 3 0 49.390000 57.207600 56.040000 0 0 0
87 29 3 0 49.680000 0.910000 55.210000 0 1 0
88 30 1 0 50.970000 0.410000 53.540000 0 1 0
89 30 3 0 50.660000 57.337600 53.990000 0 0 0
90 30 2 0 51.250000 0.970000 53.120000 0 1 0
91 31 1 0 49.450000 41.610000 54.580000 0 0 0
92 31 2 0 49.640000 42.300000 54.810000 0 0 0
93 31 3 0 49.250000 40.870000 54.330000 0 0 0
94 32 4 0 50.610000 40.430000 52.950000 0 0 0
95 32 3 0 50.500000 41.150000 53.240000 0 0 0
96 32 3 0 50.720000 39.710000 52.660000 0 0 0
97 33 4 0 51.610000 39.390000 51.280000 0 0 0
98 33 3 0 52.340000 39.250000 51.170000 0 0 0
99 33 3 0 50.880000 39.540000 51.390000 0 0 0
100 34 4 0 52.840000 37.910000 49.730000 0 0 0
101 34 3 0 52.630000 37.360000 50.180000 0 0 0
102 34 3 0 53.050000 38.460000 49.280000 0 0 0
103 35 4 0 53.590000 36.330000 48.200000 0 0 0
104 35 3 0 53.450000 35.710000 48.620000 0 0 0
105 35 3 0 53.730000 36.950000 47.790000 0 0 0
106 36 1 0 52.600000 34.420000 47.700000 0 0 0
107 36 3 0 52.290000 33.810000 48.150000 0 0 0
108 36 2 0 52.880000 34.980000 47.280000 0 0 0
109 37 1 0 8.100000 3.120000 8.890000 0 0 0
110 37 2 0 8.290000 3.810000 9.120000 0 0 0
111 37 3 0 7.900000 2.380000 8.640000 0 0 0
112 38 4 0 6.410000 1.770000 9.420000 0 0 0
113 38 3 0 6.300000 2.490000 9.700000 0 0 0
114 38 3 0 6.520000 1.050000 9.130000 0 0 0
115 39 4 0 4.470000 1.610000 8.410000 0 0 0
116 39 3 0 5.200000 1.460000 8.300000 0 0 0
117 39 3 0 3.740000 1.750000 8.530000 0 0 0
118 40 4 0 2.700000 3.530000 8.190000 0 0 0
119 40 3 0 2.490000 2.970000 8.640000 0 0 0
120 40 3 0 2.910000 4.080000 7.740000 0 0 0
121 41 4 0 1.490000 5.430000 8.000000 0 0 0
122 41 3 0 1.350000 4.810000 8.420000 0 0 0
123 41 3 0 1.630000 6.050000 7.590000 0 0 0
124 42 1 0 0.080000 7.420000 7.970000 0 0 0
125 42 3 0 57.307600 6.810000 8.420000 -1 0 0
126 42 2 0 0.360000 7.980000 7.550000 0 0 0
127 43 1 0 34.760000 14.140000 57.390000 0 0 0
128 43 2 0 34.950000 14.830000 0.082400 0 0 1
129 43 3 0 34.560000 13.400000 57.140000 0 0 0
130 44 4 0 32.590000 13.060000 57.070000 0 0 0
131 44 3 0 32.480000 13.780000 57.360000 0 0 0
132 44 3 0 32.700000 12.340000 56.780000 0 0 0
133 45 4 0 31.270000 13.200000 54.910000 0 0 0
134 45 3 0 32.000000 13.050000 54.790000 0 0 0
135 45 3 0 30.540000 13.350000 55.020000 0 0 0
136 46 4 0 31.140000 12.680000 52.410000 0 0 0
137 46 3 0 30.930000 12.120000 52.860000 0 0 0
138 46 3 0 31.350000 13.240000 51.960000 0 0 0
139 47 4 0 30.780000 12.010000 50.090000 0 0 0
140 47 3 0 30.630000 11.390000 50.510000 0 0 0
141 47 3 0 30.920000 12.630000 49.680000 0 0 0
142 48 1 0 29.780000 10.520000 48.550000 0 0 0
143 48 3 0 29.470000 9.910000 49.000000 0 0 0
144 48 2 0 30.060000 11.080000 48.130000 0 0 0
145 49 1 0 40.720000 42.560000 34.130000 0 0 0
146 49 2 0 40.910000 43.250000 34.360000 0 0 0
147 49 3 0 40.520000 41.820000 33.880000 0 0 0
148 50 4 0 38.700000 42.080000 35.420000 0 0 0
149 50 3 0 38.590000 42.800000 35.710000 0 0 0
150 50 3 0 38.810000 41.360000 35.130000 0 0 0
151 51 4 0 36.440000 41.110000 35.960000 0 0 0
152 51 3 0 37.170000 40.960000 35.850000 0 0 0
153 51 3 0 35.710000 41.250000 36.070000 0 0 0
154 52 4 0 35.570000 39.370000 34.620000 0 0 0
155 52 3 0 35.360000 38.810000 35.070000 0 0 0
156 52 3 0 35.780000 39.920000 34.170000 0 0 0
157 53 4 0 37.180000 38.300000 33.540000 0 0 0
158 53 3 0 37.040000 37.680000 33.960000 0 0 0
159 53 3 0 37.320000 38.920000 33.120000 0 0 0
160 54 1 0 39.330000 37.480000 32.490000 0 0 0
161 54 3 0 39.020000 36.870000 32.940000 0 0 0
162 54 2 0 39.610000 38.040000 32.070000 0 0 0
163 55 1 0 52.290000 6.070000 31.310000 0 0 0
164 55 2 0 52.480000 6.760000 31.540000 0 0 0
165 55 3 0 52.090000 5.330000 31.060000 0 0 0
166 56 4 0 52.190000 7.080000 33.340000 0 0 0
167 56 3 0 52.080000 7.800000 33.620000 0 0 0
168 56 3 0 52.300000 6.360000 33.060000 0 0 0
169 57 4 0 51.210000 8.310000 35.320000 0 0 0
170 57 3 0 51.940000 8.160000 35.210000 0 0 0
171 57 3 0 50.480000 8.450000 35.430000 0 0 0
172 58 4 0 50.160000 9.420000 36.900000 0 0 0
173 58 3 0 49.950000 8.860000 37.350000 0 0 0
174 58 3 0 50.370000 9.970000 36.450000 0 0 0
175 59 4 0 48.620000 11.000000 36.910000 0 0 0
176 59 3 0 48.480000 10.380000 37.320000 0 0 0
177 59 3 0 48.770000 11.620000 36.490000 0 0 0
178 60 1 0 46.950000 10.890000 35.090000 0 0 0
179 60 3 0 46.640000 10.280000 35.540000 0 0 0
180 60 2 0 47.230000 11.450000 34.670000 0 0 0
181 61 1 0 45.720000 12.000000 11.860000 0 0 0
182 61 2 0 45.910000 12.690000 12.090000 0 0 0
183 61 3 0 45.520000 11.260000 11.610000 0 0 0
184 62 4 0 47.130000 13.950000 11.290000 0 0 0
185 62 3 0 47.020000 14.670000 11.570000 0 0 0
186 62 3 0 47.240000 13.230000 11.010000 0 0 0
187 63 4 0 48.030000 15.990000 11.030000 0 0 0
188 63 3 0 48.760000 15.840000 10.920000 0 0 0
189 63 3 0 47.300000 16.130000 11.150000 0 0 0
190 64 4 0 48.960000 18.300000 10.950000 0 0 0
191 64 3 0 48.750000 17.750000 11.400000 0 0 0
192 64 3 0 49.170000 18.850000 10.500000 0 0 0
193 65 4 0 49.710000 20.470000 10.840000 0 0 0
194 65 3 0 49.570000 19.850000 11.260000 0 0 0
195 65 3 0 49.860000 21.090000 10.430000 0 0 0
196 66 1 0 51.440000 21.880000 11.010000 0 0 0
197 66 3 0 51.130000 21.270000 11.460000 0 0 0
198 66 2 0 51.720000 22.440000 10.590000 0 0 0
199 67 1 0 37.200000 42.390000 51.660000 0 0 0
200 67 2 0 37.390000 43.080000 51.890000 0 0 0
201 67 3 0 37.000000 41.650000 51.410000 0 0 0
202 68 4 0 35.020000 41.150000 51.150000 0 0 0
203 68 3 0 34.910000 41.870000 51.440000 0 0 0
204 68 3 0 35.130000 40.430000 50.870000 0 0 0
205 69 4 0 32.480000 40.690000 51.510000 0 0 0
206 69 3 0 33.210000 40.540000 51.390000 0 0 0
207 69 3 0 31.750000 40.830000 51.620000 0 0 0
208 70 4 0 30.910000 41.540000 50.330000 0 0 0
209 70 3 0 30.700000 40.980000 50.780000 0 0 0
210 70 3 0 31.120000 42.100000 49.880000 0 0 0
211 71 4 0 29.720000 42.310000 48.610000 0 0 0
212 71 3 0 29.580000 41.690000 49.020000 0 0 0
213 71 3 0 29.860000 42.930000 48.190000 0 0 0
214 72 1 0 30.400000 44.290000 47.200000 0 0 0
215 72 3 0 30.090000 43.680000 47.650000 0 0 0
216 72 2 0 30.680000 44.850000 46.780000 0 0 0
217 73 1 0 40.530000 8.360000 20.630000 0 0 0
218 73 2 0 40.720000 9.050000 20.860000 0 0 0
219 73 3 0 40.330000 7.620000 20.380000 0 0 0
220 74 4 0 38.080000 8.260000 20.370000 0 0 0
221 74 3 0 37.970000 8.980000 20.660000 0 0 0
222 74 3 0 38.190000 7.540000 20.080000 0 0 0
223 75 4 0 35.690000 7.530000 20.150000 0 0 0
224 75 3 0 36.420000 7.380000 20.040000 0 0 0
225 75 3 0 34.960000 7.670000 20.270000 0 0 0
226 76 4 0 33.490000 6.540000 19.900000 0 0 0
227 76 3 0 33.280000 5.990000 20.350000 0 0 0
228 76 3 0 33.700000 7.100000 19.450000 0 0 0
229 77 4 0 32.180000 5.300000 18.110000 0 0 0
230 77 3 0 32.040000 4.680000 18.530000 0 0 0
231 77 3 0 32.320000 5.920000 17.700000 0 0 0
232 78 1 0 30.100000 3.980000 18.610000 0 0 0
233 78 3 0 29.790000 3.370000 19.060000 0 0 0
234 78 2 0 30.380000 4.540000 18.190000 0 0 0
235 79 1 0 31.990000 37.780000 16.360000 0 0 0
236 79 2 0 32.180000 38.470000 16.590000 0 0 0
237 79 3 0 31.790000 37.040000 16.110000 0 0 0
238 80 4 0 30.740000 36.110000 15.680000 0 0 0
239 80 3 0 30.630000 36.830000 15.970000 0 0 0
240 80 3 0 30.850000 35.390000 15.400000 0 0 0
241 81 4 0 28.720000 34.630000 15.660000 0 0 0
242 81 3 0 29.450000 34.490000 15.550000 0 0 0
243 81 3 0 27.990000 34.780000 15.780000 0 0 0
244 82 4 0 26.610000 33.400000 15.200000 0 0 0
245 82 3 0 26.400000 32.840000 15.650000 0 0 0
246 82 3 0 26.820000 33.950000 14.750000 0 0 0
247 83 4 0 24.580000 32.160000 14.330000 0 0 0
248 83 3 0 24.440000 31.540000 14.750000 0 0 0
249 83 3 0 24.730000 32.780000 13.920000 0 0 0
250 84 1 0 22.550000 31.270000 15.010000 0 0 0
251 84 3 0 22.240000 30.660000 15.460000 0 0 0
252 84 2 0 22.830000 31.830000 14.590000 0 0 0
253 85 1 0 2.510000 6.240000 54.570000 0 0 0
254 85 2 0 2.700000 6.930000 54.800000 0 0 0
255 85 3 0 2.310000 5.500000 54.320000 0 0 0
256 86 4 0 0.100000 7.110000 54.080000 0 0 0
257 86 3 0 57.527600 7.830000 54.370000 -1 0 0
258 86 3 0 0.210000 6.390000 53.800000 0 0 0
259 87 4 0 56.420000 8.330000 55.510000 -1 0 0
260 87 3 0 57.150000 8.180000 55.400000 -1 0 0
261 87 3 0 55.690000 8.470000 55.620000 -1 0 0
262 88 4 0 55.180000 9.780000 56.620000 -1 0 0
263 88 3 0 54.970000 9.220000 57.070000 -1 0 0
264 88 3 0 55.390000 10.340000 56.170000 -1 0 0
265 89 4 0 53.220000 10.540000 55.830000 -1 0 0
266 89 3 0 53.080000 9.920000 56.250000 -1 0 0
267 89 3 0 53.370000 11.160000 55.420000 -1 0 0
268 90 1 0 53.000000 12.360000 54.440000 -1 0 0
269 90 3 0 52.690000 11.750000 54.890000 -1 0 0
270 90 2 0 53.280000 12.920000 54.020000 -1 0 0
271 91 1 0 23.430000 55.150000 24.920000 0 0 0
272 91 2 0 23.620000 55.840000 25.150000 0 0 0
273 91 3 0 23.230000 54.410000 24.670000 0 0 0
274 92 4 0 24.400000 57.260000 24.850000 0 0 0
275 92 3 0 24.290000 0.442400 25.130000 0 1 0
276 92 3 0 24.510000 56.540000 24.570000 0 0 0
277 93 4 0 24.070000 2.030000 24.000000 0 1 0
278 93 3 0 24.800000 1.880000 23.890000 0 1 0
279 93 3 0 23.340000 2.170000 24.120000 0 1 0
280 94 4 0 23.100000 4.100000 23.690000 0 1 0
281 94 3 0 22.890000 3.540000 24.140000 0 1 0
282 94 3 0 23.310000 4.650000 23.240000 0 1 0
283 95 4 0 21.270000 4.320000 25.010000 0 1 0
284 95 3 0 21.120000 3.700000 25.420000 0 1 0
285 95 3 0 21.410000 4.940000 24.600000 0 1 0
286 96 1 0 21.650000 5.450000 26.950000 0 1 0
287 96 3 0 21.340000 4.840000 27.400000 0 1 0
288 96 2 0 21.930000 6.010000 26.530000 0 1 0
289 97 1 0 14.020000 47.010000 52.590000 0 0 0
290 97 2 0 14.210000 47.700000 52.820000 0 0 0
291 97 3 0 13.820000 46.270000 52.340000 0 0 0
292 98 4 0 16.040000 48.080000 51.620000 0 0 0
293 98 3 0 15.930000 48.800000 51.910000 0 0 0
294 98 3 0 16.150000 47.360000 51.330000 0 0 0
295 99 4 0 17.880000 49.550000 50.780000 0 0 0
296 99 3 0 18.610000 49.410000 50.670000 0 0 0
297 99 3 0 17.150000 49.700000 50.900000 0 0 0
298 100 4 0 19.920000 50.460000 51.870000 0 0 0
299 100 3 0 19.710000 49.900000 52.320000 0 0 0
300 100 3 0 20.130000 51.020000 51.420000 0 0 0
301 101 4 0 21.650000 51.940000 51.810000 0 0 0
302 101 3 0 21.510000 51.320000 52.230000 0 0 0
303 101 3 0 21.790000 52.560000 51.390000 0 0 0
304 102 1 0 22.480000 53.980000 52.250000 0 0 0
305 102 3 0 22.170000 53.370000 52.700000 0 0 0
306 102 2 0 22.760000 54.540000 51.830000 0 0 0
307 103 1 0 27.980000 17.000000 14.160000 0 0 0
308 103 2 0 28.170000 17.690000 14.390000 0 0 0
309 103 3 0 27.780000 16.260000 13.910000 0 0 0
310 104 4 0 27.450000 14.990000 15.030000 0 0 0
311 104 3 0 27.340000 15.710000 15.310000 0 0 0
312 104 3 0 27.560000 14.270000 14.740000 0 0 0
313 105 4 0 26.990000 12.810000 15.570000 0 0 0
314 105 3 0 27.720000 12.660000 15.460000 0 0 0
315 105 3 0 26.260000 12.950000 15.690000 0 0 0
316 106 4 0 24.830000 11.770000 16.290000 0 0 0
317 106 3 0 24.620000 11.220000 16.740000 0 0 0
318 106 3 0 25.040000 12.320000 15.840000 0 0 0
319 107 4 0 22.770000 11.370000 15.300000 0 0 0
320 107 3 0 22.630000 10.750000 15.720000 0 0 0
321 107 3 0 22.920000 11.990000 14.890000 0 0 0
322 108 1 0 20.670000 11.760000 14.690000 0 0 0
323 108 3 0 20.360000 11.150000 15.140000 0 0 0
324 108 2 0 20.950000 12.320000 14.270000 0 0 0
325 109 1 0 11.390000 40.800000 53.440000 0 0 0
326 109 2 0 11.580000 41.490000 53.670000 0 0 0
327 109 3 0 11.190000 40.060000 53.190000 0 0 0
328 110 4 0 9.670000 39.480000 52.790000 0 0 0
329 110 3 0 9.560000 40.200000 53.080000 0 0 0
330 110 3 0 9.780000 38.760000 52.500000 0 0 0
331 111 4 0 7.160000 39.930000 53.270000 0 0 0
332 111 3 0 7.890000 39.780000 53.160000 0 0 0
333 111 3 0 6.430000 40.080000 53.380000 0 0 0
334 112 4 0 4.810000 40.670000 53.820000 0 0 0
335 112 3 0 4.600000 40.110000 54.270000 0 0 0
336 112 3 0 5.020000 41.230000 53.370000 0 0 0
337 113 4 0 3.430000 42.720000 53.800000 0 0 0
338 113 3 0 3.290000 42.100000 54.210000 0 0 0
339 113 3 0 3.570000 43.340000 53.380000 0 0 0
340 114 1 0 1.410000 44.260000 53.700000 0 0 0
341 114 3 0 1.100000 43.650000 54.150000 0 0 0
342 114 2 0 1.690000 44.820000 53.280000 0 0 0
343 115 1 0 13.290000 35.680000 56.580000 0 0 0
344 115 2 0 13.480000 36.370000 56.810000 0 0 0
345 115 3 0 13.090000 34.940000 56.330000 0 0 0
346 116 4 0 12.100000 34.030000 55.620000 0 0 0
347 116 3 0 11.990000 34.750000 55.910000 0 0 0
348 116 3 0 12.210000 33.310000 55.340000 0 0 0
349 117 4 0 10.000000 34.970000 54.750000 0 0 0
350 117 3 0 10.730000 34.820000 54.630000 0 0 0
351 117 3 0 9.270000 35.110000 54.860000 0 0 0
352 118 4 0 8.010000 35.180000 56.030000 0 0 0
353 118 3 0 7.800000 34.620000 56.480000 0 0 0
354 118 3 0 8.220000 35.730000 55.580000 0 0 0
355 119 4 0 5.970000 35.790000 55.170000 0 0 0
356 119 3 0 5.830000 35.170000 55.590000 0 0 0
357 119 3 0 6.110000 36.410000 54.760000 0 0 0
358 120 1 0 3.720000 34.770000 55.700000 0 0 0
359 120 3 0 3.410000 34.160000 56.150000 0 0 0
360 120 2 0 4.000000 35.330000 55.280000 0 0 0
361 121 1 0 56.920000 55.110000 15.050000 0 0 0
362 121 2 0 57.110000 55.800000 15.280000 0 0 0
363 121 3 0 56.720000 54.370000 14.800000 0 0 0
364 122 4 0 55.490000 56.090000 13.540000 0 0 0
365 122 3 0 55.380000 56.810000 13.830000 0 0 0
366 122 3 0 55.600000 55.370000 13.260000 0 0 0
367 123 4 0 56.360000 0.040000 11.670000 0 1 0
368 123 3 0 57.090000 57.427600 11.560000 0 0 0
369 123 3 0 55.630000 0.180000 11.790000 0 1 0
370 124 4 0 57.440000 2.240000 11.900000 0 1 0
371 124 3 0 57.230000 1.690000 12.350000 0 1 0
372 124 3 0 0.112400 2.790000 11.450000 1 1 0
373 125 4 0 0.510000 4.090000 12.870000 1 1 0
374 125 3 0 0.370000 3.470000 13.290000 1 1 0
375 125 3 0 0.650000 4.710000 12.460000 1 1 0
376 126 1 0 0.680000 6.260000 13.990000 1 1 0
377 126 3 0 0.370000 5.650000 14.440000 1 1 0
378 126 2 0 0.960000 6.820000 13.570000 1 1 0
379 127 1 0 56.820000 50.210000 2.390000 0 0 0
380 127 2 0 57.010000 50.900000 2.620000 0 0 0
381 127 3 0 56.620000 49.470000 2.140000 0 0 0
382 128 4 0 57.270000 48.220000 3.780000 0 0 0
383 128 3 0 57.160000 48.940000 4.060000 0 0 0
384 128 3 0 57.380000 47.500000 3.500000 0 0 0
385 129 4 0 57.280000 46.330000 5.020000 0 0 0
386 129 3 0 0.472400 46.190000 4.910000 1 0 0
387 129 3 0 56.550000 46.470000 5.140000 0 0 0
388 130 4 0 56.340000 44.760000 6.880000 0 0 0
389 130 3 0 56.130000 44.200000 7.330000 0 0 0
390 130 3 0 56.550000 45.320000 6.430000 0 0 0
391 131 4 0 55.500000 43.130000 8.600000 0 0 0
392 131 3 0 55.350000 42.510000 9.020000 0 0 0
393 131 3 0 55.640000 43.750000 8.190000 0 0 0
394 132 1 0 55.890000 40.860000 9.500000 0 0 0
395 132 3 0 55.580000 40.250000 9.950000 0 0 0
396 132 2 0 56.170000 41.420000 9.080000 0 0 0
397 133 1 0 11.610000 47.470000 44.130000 0 0 0
398 133 2 0 11.800000 48.160000 44.360000 0 0 0
399 133 3 0 11.410000 46.730000 43.880000 0 0 0
400 134 4 0 10.820000 46.700000 41.950000 0 0 0
401 134 3 0 10.710000 47.420000 42.240000 0 0 0
402 134 3 0 10.930000 45.980000 41.670000 0 0 0
403 135 4 0 10.030000 45.790000 39.980000 0 0 0
404 135 3 0 10.760000 45.640000 39.870000 0 0 0
405 135 3 0 9.300000 45.930000 40.100000 0 0 0
406 136 4 0 8.950000 43.930000 38.620000 0 0 0
407 136 3 0 8.740000 43.370000 39.070000 0 0 0
408 136 3 0 9.160000 44.490000 38.170000 0 0 0
409 137 4 0 6.810000 42.640000 38.090000 0 0 0
410 137 3 0 6.670000 42.020000 38.510000 0 0 0
411 137 3 0 6.960000 43.260000 37.680000 0 0 0
412 138 1 0 4.590000 41.950000 37.160000 0 0 0
413 138 3 0 4.280000 41.340000 37.610000 0 0 0
414 138 2 0 4.870000 42.510000 36.740000 0 0 0
415 139 1 0 42.170000 26.410000 43.690000 0 0 0
416 139 2 0 42.360000 27.100000 43.920000 0 0 0
417 139 3 0 41.970000 25.670000 43.440000 0 0 0
418 140 4 0 43.430000 25.660000 42.050000 0 0 0
419 140 3 0 43.320000 26.380000 42.340000 0 0 0
420 140 3 0 43.540000 24.940000 41.760000 0 0 0
421 141 4 0 44.600000 24.900000 39.890000 0 0 0
422 141 3 0 45.330000 24.760000 39.780000 0 0 0
423 141 3 0 43.870000 25.050000 40.000000 0 0 0
424 142 4 0 45.390000 23.600000 38.180000 0 0 0
425 142 3 0 45.180000 23.040000 38.630000 0 0 0
426 142 3 0 45.600000 24.150000 37.730000 0 0 0
427 143 4 0 46.430000 21.420000 37.220000 0 0 0
428 143 3 0 46.280000 20.800000 37.640000 0 0 0
429 143 3 0 46.570000 22.040000 36.810000 0 0 0
430 144 1 0 47.330000 19.360000 36.210000 0 0 0
431 144 3 0 47.020000 18.750000 36.660000 0 0 0
432 144 2 0 47.610000 19.920000 35.790000 0 0 0
433 145 1 0 8.690000 20.600000 25.570000 0 0 0
434 145 2 0 8.880000 21.290000 25.800000 0 0 0
435 145 3 0 8.490000 19.860000 25.320000 0 0 0
436 146 4 0 7.750000 19.980000 27.530000 0 0 0
437 146 3 0 7.640000 20.700000 27.820000 0 0 0
438 146 3 0 7.860000 19.260000 27.240000 0 0 0
439 147 4 0 9.270000 20.160000 29.520000 0 0 0
440 147 3 0 10.000000 20.020000 29.410000 0 0 0
441 147 3 0 8.540000 20.300000 29.630000 0 0 0
442 148 4 0 11.250000 20.730000 30.490000 0 0 0
443 148 3 0 11.040000 20.180000 30.940000 0 0 0
444 148 3 0 11.460000 21.280000 30.040000 0 0 0
445 149 4 0 13.480000 21.460000 30.090000 0 0 0
446 149 3 0 13.340000 20.840000 30.500000 0 0 0
447 149 3 0 13.630000 22.080000 29.680000 0 0 0
448 150 1 0 15.640000 21.930000 28.970000 0 0 0
449 150 3 0 15.330000 21.320000 29.420000 0 0 0
450 150 2 0 15.920000 22.490000 28.550000 0 0 0
451 151 1 0 51.140000 53.540000 23.050000 0 0 0
452 151 2 0 51.330000 54.230000 23.280000 0 0 0
453 151 3 0 50.940000 52.800000 22.800000 0 0 0
454 152 4 0 48.970000 53.120000 23.950000 0 0 0
455 152 3 0 48.860000 53.840000 24.230000 0 0 0
456 152 3 0 49.080000 52.400000 23.670000 0 0 0
457 153 4 0 47.520000 52.660000 25.560000 0 0 0
458 153 3 0 48.250000 52.520000 25.450000 0 0 0
459 153 3 0 46.790000 52.800000 25.670000 0 0 0
460 154 4 0 45.490000 53.400000 26.670000 0 0 0
461 154 3 0 45.280000 52.840000 27.120000 0 0 0
462 154 3 0 45.700000 53.960000 26.220000 0 0 0
463 155 4 0 44.130000 54.620000 28.450000 0 0 0
464 155 3 0 43.990000 54.000000 28.870000 0 0 0
465 155 3 0 44.280000 55.240000 28.040000 0 0 0
466 156 1 0 42.820000 56.030000 30.020000 0 0 0
467 156 3 0 42.510000 55.420000 30.470000 0 0 0
468 156 2 0 43.100000 56.590000 29.600000 0 0 0
469 157 1 0 28.700000 1.430000 30.040000 0 0 0
470 157 2 0 28.890000 2.120000 30.270000 0 0 0
471 157 3 0 28.500000 0.690000 29.790000 0 0 0
472 158 4 0 30.070000 0.720000 28.440000 0 0 0
473 158 3 0 29.960000 1.440000 28.720000 0 0 0
474 158 3 0 30.180000 0.000000 28.160000 0 0 0
475 159 4 0 29.480000 56.420000 26.760000 0 -1 0
476 159 3 0 30.210000 56.280000 26.650000 0 -1 0
477 159 3 0 28.750000 56.570000 26.880000 0 -1 0
478 160 4 0 28.630000 54.690000 25.130000 0 -1 0
479 160 3 0 28.420000 54.130000 25.580000 0 -1 0
480 160 3 0 28.840000 55.250000 24.680000 0 -1 0
481 161 4 0 27.290000 52.690000 24.320000 0 -1 0
482 161 3 0 27.150000 52.070000 24.740000 0 -1 0
483 161 3 0 27.440000 53.310000 23.910000 0 -1 0
484 162 1 0 27.010000 50.670000 25.650000 0 -1 0
485 162 3 0 26.700000 50.060000 26.100000 0 -1 0
486 162 2 0 27.290000 51.230000 25.230000 0 -1 0
487 163 1 0 47.100000 16.280000 27.580000 0 0 0
488 163 2 0 47.290000 16.970000 27.810000 0 0 0
489 163 3 0 46.900000 15.540000 27.330000 0 0 0
490 164 4 0 45.320000 17.690000 27.500000 0 0 0
491 164 3 0 45.210000 18.410000 27.790000 0 0 0
492 164 3 0 45.430000 16.970000 27.210000 0 0 0
493 165 4 0 44.570000 19.590000 26.200000 0 0 0
494 165 3 0 45.300000 19.450000 26.090000 0 0 0
495 165 3 0 43.840000 19.740000 26.310000 0 0 0
496 166 4 0 43.880000 21.640000 24.800000 0 0 0
497 166 3 0 43.670000 21.090000 25.250000 0 0 0
498 166 3 0 44.090000 22.200000 24.350000 0 0 0
499 167 4 0 43.740000 23.830000 25.520000 0 0 0
500 167 3 0 43.590000 23.210000 25.940000 0 0 0
501 167 3 0 43.880000 24.450000 25.110000 0 0 0
502 168 1 0 44.190000 25.700000 23.920000 0 0 0
503 168 3 0 43.880000 25.090000 24.370000 0 0 0
504 168 2 0 44.470000 26.260000 23.500000 0 0 0
505 169 1 0 9.390000 45.650000 51.350000 0 0 0
506 169 2 0 9.580000 46.340000 51.580000 0 0 0
507 169 3 0 9.190000 44.910000 51.100000 0 0 0
508 170 4 0 8.280000 46.470000 53.420000 0 0 0
509 170 3 0 8.170000 47.190000 53.700000 0 0 0
510 170 3 0 8.390000 45.750000 53.130000 0 0 0
511 171 4 0 7.040000 47.340000 55.220000 0 0 0
512 171 3 0 7.770000 47.200000 55.110000 0 0 0
513 171 3 0 6.310000 47.480000 55.340000 0 0 0
514 172 4 0 5.690000 47.910000 56.920000 0 0 0
515 172 3 0 5.480000 47.360000 57.370000 0 0 0
516 172 3 0 5.900000 48.470000 56.470000 0 0 0
517 173 4 0 4.470000 48.890000 1.360000 0 0 1
518 173 3 0 4.330000 48.270000 1.780000 0 0 1
519 173 3 0 4.610000 49.510000 0.950000 0 0 1
520 174 1 0 4.230000 48.880000 3.980000 0 0 1
521 174 3 0 3.920000 48.270000 4.430000 0 0 1
522 174 2 0 4.510000 49.440000 3.560000 0 0 1
523 175 1 0 54.320000 55.690000 40.670000 0 0 0
524 175 2 0 54.510000 56.380000 40.900000 0 0 0
525 175 3 0 54.120000 54.950000 40.420000 0 0 0
526 176 4 0 55.830000 56.790000 38.890000 0 0 0
527 176 3 0 55.720000 57.510000 39.170000 0 0 0
528 176 3 0 55.940000 56.070000 38.610000 0 0 0
529 177 4 0 56.470000 1.290000 37.600000 0 1 0
530 177 3 0 57.200000 1.140000 37.480000 0 1 0
531 177 3 0 55.740000 1.430000 37.710000 0 1 0
532 178 4 0 57.450000 2.250000 35.700000 0 1 0
533 178 3 0 57.240000 1.700000 36.150000 0 1 0
534 178 3 0 0.122400 2.800000 35.250000 1 1 0
535 179 4 0 57.460000 3.480000 33.570000 0 1 0
536 179 3 0 57.320000 2.860000 33.990000 0 1 0
537 179 3 0 0.072400 4.100000 33.160000 1 1 0
538 180 1 0 0.440000 5.160000 31.830000 1 1 0
539 180 3 0 0.130000 4.550000 32.280000 1 1 0
540 180 2 0 0.720000 5.720000 31.410000 1 1 0
541 181 1 0 41.180000 0.670000 16.550000 0 0 0
542 181 2 0 41.370000 1.360000 16.780000 0 0 0
543 181 3 0 40.980000 57.467600 16.300000 0 -1 0
544 182 4 0 39.380000 1.000000 18.420000 0 0 0
545 182 3 0 39.270000 1.720000 18.710000 0 0 0
546 182 3 0 39.490000 0.280000 18.140000 0 0 0
547 183 4 0 39.580000 56.850000 20.290000 0 -1 0
548 183 3 0 40.310000 56.700000 20.180000 0 -1 0
549 183 3 0 38.850000 56.990000 20.400000 0 -1 0
550 184 4 0 40.000000 55.260000 21.820000 0 -1 0
551 184 3 0 39.790000 54.700000 22.270000 0 -1 0
552 184 3 0 40.210000 55.820000 21.370000 0 -1 0
553 185 4 0 40.860000 53.470000 22.820000 0 -1 0
554 185 3 0 40.720000 52.850000 23.240000 0 -1 0
555 185 3 0 41.010000 54.090000 22.400000 0 -1 0
556 186 1 0 41.230000 53.040000 24.910000 0 -1 0
557 186 3 0 40.920000 52.430000 25.360000 0 -1 0
558 186 2 0 41.510000 53.600000 24.490000 0 -1 0
559 187 1 0 28.090000 16.400000 3.690000 0 0 0
560 187 2 0 28.280000 17.090000 3.920000 0 0 0
561 187 3 0 27.890000 15.660000 3.440000 0 0 0
562 188 4 0 30.320000 16.850000 3.850000 0 0 0
563 188 3 0 30.210000 17.570000 4.130000 0 0 0
564 188 3 0 30.430000 16.130000 3.570000 0 0 0
565 189 4 0 32.820000 16.920000 3.290000 0 0 0
566 189 3 0 33.550000 16.770000 3.180000 0 0 0
567 189 3 0 32.090000 17.060000 3.410000 0 0 0
568 190 4 0 34.870000 17.390000 2.430000 0 0 0
569 190 3 0 34.660000 16.830000 2.880000 0 0 0
570 190 3 0 35.080000 17.950000 1.980000 0 0 0
571 191 4 0 36.810000 16.160000 3.350000 0 0 0
572 191 3 0 36.670000 15.540000 3.770000 0 0 0
573 191 3 0 36.960000 16.780000 2.940000 0 0 0
574 192 1 0 38.000000 14.630000 4.650000 0 0 0
575 192 3 0 37.690000 14.020000 5.100000 0 0 0
576 192 2 0 38.280000 15.190000 4.230000 0 0 0
577 193 1 0 18.730000 45.790000 33.380000 0 0 0
578 193 2 0 18.920000 46.480000 33.610000 0 0 0
579 193 3 0 18.530000 45.050000 33.130000 0 0 0
580 194 4 0 19.690000 46.330000 31.360000 0 0 0
581 194 3 0 19.580000 47.050000 31.650000 0 0 0
582 194 3 0 19.800000 45.610000 31.070000 0 0 0
583 195 4 0 21.180000 47.570000 30.090000 0 0 0
584 195 3 0 21.910000 47.420000 29.980000 0 0 0
585 195 3 0 20.450000 47.710000 30.210000 0 0 0
586 196 4 0 21.980000 49.840000 30.610000 0 0 0
587 196 3 0 21.770000 49.280000 31.060000 0 0 0
588 196 3 0 22.190000 50.400000 30.160000 0 0 0
589 197 4 0 21.950000 51.660000 32.100000 0 0 0
590 197 3 0 21.800000 51.040000 32.520000 0 0 0
591 197 3 0 22.090000 52.280000 31.680000 0 0 0
592 198 1 0 21.850000 53.510000 33.300000 0 0 0
593 198 3 0 21.540000 52.900000 33.750000 0 0 0
594 198 2 0 22.130000 54.070000 32.880000 0 0 0
595 199 1 0 7.430000 4.380000 24.170000 0 0 0
596 199 2 0 7.620000 5.070000 24.400000 0 0 0
597 199 3 0 7.230000 3.640000 23.920000 0 0 0
598 200 4 0 5.700000 4.610000 22.430000 0 0 0
599 200 3 0 5.590000 5.330000 22.710000 0 0 0
600 200 3 0 5.810000 3.890000 22.150000 0 0 0
601 201 4 0 3.960000 3.960000 21.090000 0 0 0
602 201 3 0 4.690000 3.810000 20.980000 0 0 0
603 201 3 0 3.230000 4.100000 21.200000 0 0 0
604 202 4 0 3.930000 1.640000 20.220000 0 0 0
605 202 3 0 3.720000 1.090000 20.670000 0 0 0
606 202 3 0 4.140000 2.200000 19.770000 0 0 0
607 203 4 0 5.230000 57.190000 19.840000 0 -1 0
608 203 3 0 5.090000 56.570000 20.260000 0 -1 0
609 203 3 0 5.370000 0.272400 19.430000 0 0 0
610 204 1 0 6.540000 55.140000 19.260000 0 -1 0
611 204 3 0 6.230000 54.530000 19.710000 0 -1 0
612 204 2 0 6.820000 55.700000 18.840000 0 -1 0
613 205 1 0 57.340000 22.230000 37.090000 0 0 0
614 205 2 0 57.530000 22.920000 37.320000 0 0 0
615 205 3 0 57.140000 21.490000 36.840000 0 0 0
616 206 4 0 56.020000 21.340000 35.360000 0 0 0
617 206 3 0 55.910000 22.060000 35.640000 0 0 0
618 206 3 0 56.130000 20.620000 35.080000 0 0 0
619 207 4 0 56.990000 19.380000 33.890000 0 0 0
620 207 3 0 0.182400 19.230000 33.770000 1 0 0
621 207 3 0 56.260000 19.520000 34.010000 0 0 0
622 208 4 0 0.910000 17.850000 32.780000 1 0 0
623 208 3 0 0.700000 17.290000 33.230000 1 0 0
624 208 3 0 1.120000 18.410000 32.330000 1 0 0
625 209 4 0 2.310000 17.260000 31.130000 1 0 0
626 209 3 0 2.170000 16.640000 31.550000 1 0 0
627 209 3 0 2.450000 17.880000 30.720000 1 0 0
628 210 1 0 3.200000 18.980000 29.530000 1 0 0
629 210 3 0 2.890000 18.370000 29.980000 1 0 0
630 210 2 0 3.480000 19.540000 29.110000 1 0 0
631 211 1 0 35.600000 4.030000 42.860000 0 0 0
632 211 2 0 35.790000 4.720000 43.090000 0 0 0
633 211 3 0 35.400000 3.290000 42.610000 0 0 0
634 212 4 0 33.750000 5.210000 44.140000 0 0 0
635 212 3 0 33.640000 5.930000 44.420000 0 0 0
636 212 3 0 33.860000 4.490000 43.850000 0 0 0
637 213 4 0 32.910000 7.050000 45.210000 0 0 0
638 213 3 0 33.640000 6.900000 45.100000 0 0 0
639 213 3 0 32.180000 7.190000 45.320000 0 0 0
640 214 4 0 32.200000 9.430000 45.770000 0 0 0
641 214 3 0 31.990000 8.870000 46.220000 0 0 0
642 214 3 0 32.410000 9.980000 45.320000 0 0 0
643 215 4 0 32.370000 11.740000 45.830000 0 0 0
644 215 3 0 32.230000 11.120000 46.250000 0 0 0
645 215 3 0 32.520000 12.360000 45.420000 0 0 0
646 216 1 0 33.490000 13.950000 45.590000 0 0 0
647 216 3 0 33.180000 13.340000 46.040000 0 0 0
648 216 2 0 33.770000 14.510000 45.170000 0 0 0
649 217 1 0 40.130000 3.110000 31.030000 0 0 0
650 217 2 0 40.320000 3.800000 31.260000 0 0 0
651 217 3 0 39.930000 2.370000 30.780000 0 0 0
652 218 4 0 39.920000 2.470000 28.770000 0 0 0
653 218 3 0 39.810000 3.190000 29.050000 0 0 0
654 218 3 0 40.030000 1.750000 28.480000 0 0 0
655 219 4 0 39.730000 2.010000 26.360000 0 0 0
656 219 3 0 40.460000 1.860000 26.250000 0 0 0
657 219 3 0 39.000000 2.150000 26.470000 0 0 0
658 220 4 0 41.540000 0.990000 25.090000 0 0 0
659 220 3 0 41.330000 0.440000 25.540000 0 0 0
660 220 3 0 41.750000 1.540000 24.640000 0 0 0
661 221 4 0 43.270000 57.450000 24.040000 0 -1 0
662 221 3 0 43.120000 56.830000 24.460000 0 -1 0
663 221 3 0 43.410000 0.532400 23.620000 0 0 0
664 222 1 0 45.080000 56.330000 23.310000 0 -1 0
665 222 3 0 44.770000 55.720000 23.760000 0 -1 0
666 222 2 0 45.360000 56.890000 22.890000 0 -1 0
667 223 1 0 55.960000 33.530000 23.210000 0 0 0
668 223 2 0 56.150000 34.220000 23.440000 0 0 0
669 223 3 0 55.760000 32.790000 22.960000 0 0 0
670 224 4 0 0.500000 32.620000 22.380000 1 0 0
671 224 3 0 0.390000 33.340000 22.660000 1 0 0
672 224 3 0 0.610000 31.900000 22.100000 1 0 0
673 225 4 0 2.510000 31.100000 21.910000 1 0 0
674 225 3 0 3.240000 30.950000 21.790000 1 0 0
675 225 3 0 1.780000 31.240000 22.020000 1 0 0
676 226 4 0 4.940000 30.460000 21.330000 1 0 0
677 226 3 0 4.730000 29.900000 21.780000 1 0 0
678 226 3 0 5.150000 31.010000 20.880000 1 0 0
679 227 4 0 7.340000 29.710000 21.380000 1 0 0
680 227 3 0 7.200000 29.090000 21.790000 1 0 0
681 227 3 0 7.480000 30.330000 20.960000 1 0 0
682 228 1 0 9.630000 29.550000 21.100000 1 0 0
683 228 3 0 9.320000 28.940000 21.550000 1 0 0
684 228 2 0 9.910000 30.110000 20.680000 1 0 0
685 229 1 0 0.370000 11.220000 20.610000 0 0 0
686 229 2 0 0.560000 11.910000 20.840000 0 0 0
687 229 3 0 0.170000 10.480000 20.360000 0 0 0
688 230 4 0 2.670000 11.040000 20.820000 0 0 0
689 230 3 0 2.560000 11.760000 21.110000 0 0 0
690 230 3 0 2.780000 10.320000 20.530000 0 0 0
691 231 4 0 4.860000 9.970000 21.300000 0 0 0
692 231 3 0 5.590000 9.820000 21.190000 0 0 0
693 231 3 0 4.130000 10.110000 21.410000 0 0 0
694 232 4 0 6.810000 8.730000 21.390000 0 0 0
695 232 3 0 6.600000 8.180000 21.840000 0 0 0
696 232 3 0 7.020000 9.280000 20.940000 0 0 0
697 233 4 0 8.900000 7.670000 21.300000 0 0 0
698 233 3 0 8.760000 7.050000 21.710000 0 0 0
699 233 3 0 9.040000 8.290000 20.880000 0 0 0
700 234 1 0 11.090000 6.450000 21.440000 0 0 0
701 234 3 0 10.780000 5.840000 21.890000 0 0 0
702 234 2 0 11.370000 7.010000 21.020000 0 0 0
703 235 1 0 11.140000 49.210000 35.370000 0 0 0
704 235 2 0 11.330000 49.900000 35.600000 0 0 0
705 235 3 0 10.940000 48.470000 35.120000 0 0 0
706 236 4 0 9.920000 50.080000 33.770000 0 0 0
707 236 3 0 9.810000 50.800000 34.050000 0 0 0
708 236 3 0 10.030000 49.360000 33.480000 0 0 0
709 237 4 0 8.680000 51.070000 32.170000 0 0 0
710 237 3 0 9.410000 50.930000 32.060000 0 0 0
711 237 3 0 7.950000 51.220000 32.290000 0 0 0
712 238 4 0 8.530000 52.150000 30.140000 0 0 0
713 238 3 0 8.320000 51.590000 30.590000 0 0 0
714 238 3 0 8.740000 52.710000 29.690000 0 0 0
715 239 4 0 9.350000 53.100000 28.250000 0 0 0
716 239 3 0 9.210000 52.480000 28.670000 0 0 0
717 239 3 0 9.500000 53.720000 27.840000 0 0 0
718 240 1 0 10.350000 54.210000 26.420000 0 0 0
719 240 3 0 10.040000 53.600000 26.870000 0 0 0
720 240 2 0 10.630000 54.770000 26.000000 0 0 0
721 241 1 0 22.480000 20.280000 17.390000 0 0 0
722 241 2 0 22.670000 20.970000 17.620000 0 0 0
723 241 3 0 22.280000 19.540000 17.140000 0 0 0
724 242 4 0 21.500000 18.650000 18.410000 0 0 0
725 242 3 0 21.390000 19.370000 18.690000 0 0 0
726 242 3 0 21.610000 17.930000 18.120000 0 0 0
727 243 4 0 20.620000 16.630000 19.710000 0 0 0
728 243 3 0 21.350000 16.480000 19.600000 0 0 0
729 243 3 0 19.890000 16.770000 19.830000 0 0 0
730 244 4 0 19.560000 15.460000 21.250000 0 0 0
731 244 3 0 19.350000 14.900000 21.700000 0 0 0
732 244 3 0 19.770000 16.020000 20.800000 0 0 0
733 245 4 0 19.080000 14.370000 23.210000 0 0 0
734 245 3 0 18.930000 13.750000 23.630000 0 0 0
735 245 3 0 19.220000 14.990000 22.800000 0 0 0
736 246 1 0 18.940000 13.340000 25.280000 0 0 0
737 246 3 0 18.630000 12.730000 25.730000 0 0 0
738 246 2 0 19.220000 13.900000 24.860000 0 0 0
739 247 1 0 16.670000 48.680000 8.820000 0 0 0
740 247 2 0 16.860000 49.370000 9.050000 0 0 0
741 247 3 0 16.470000 47.940000 8.570000 0 0 0
742 248 4 0 14.900000 49.950000 9.260000 0 0 0
743 248 3 0 14.790000 50.670000 9.550000 0 0 0
744 248 3 0 15.010000 49.230000 8.980000 0 0 0
745 249 4 0 12.660000 51.100000 9.580000 0 0 0
746 249 3 0 13.390000 50.960000 9.470000 0 0 0
747 249 3 0 11.930000 51.250000 9.700000 0 0 0
748 250 4 0 11.260000 52.480000 10.630000 0 0 0
749 250 3 0 11.050000 51.920000 11.080000 0 0 0
750 250 3 0 11.470000 53.040000 10.180000 0 0 0
751 251 4 0 11.870000 54.030000 12.570000 0 0 0
752 251 3 0 11.730000 53.410000 12.980000 0 0 0
753 251 3 0 12.020000 54.650000 12.160000 0 0 0
754 252 1 0 13.170000 55.880000 13.120000 0 0 0
755 252 3 0 12.860000 55.270000 13.570000 0 0 0
756 252 2 0 13.450000 56.440000 12.700000 0 0 0
757 253 1 0 18.920000 19.280000 27.470000 0 0 0
758 253 2 0 19.110000 19.970000 27.700000 0 0 0
759 253 3 0 18.720000 18.540000 27.220000 0 0 0
760 254 4 0 17.320000 18.030000 26.680000 0 0 0
761 254 3 0 17.210000 18.750000 26.970000 0 0 0
762 254 3 0 17.430000 17.310000 26.390000 0 0 0
763 255 4 0 15.360000 16.750000 25.880000 0 0 0
764 255 3 0 16.090000 16.600000 25.770000 0 0 0
765 255 3 0 14.630000 16.900000 25.990000 0 0 0
766 256 4 0 13.200000 15.980000 24.840000 0 0 0
767 256 3 0 12.990000 15.420000 25.290000 0 0 0
768 256 3 0 13.410000 16.540000 24.390000 0 0 0
769 257 4 0 11.320000 16.120000 26.100000 0 0 0
770 257 3 0 11.170000 15.500000 26.510000 0 0 0
771 257 3 0 11.460000 16.740000 25.690000 0 0 0
772 258 1 0 9.610000 15.970000 27.490000 0 0 0
773 258 3 0 9.300000 15.360000 27.940000 0 0 0
774 258 2 0 9.890000 16.530000 27.070000 0 0 0
775 259 1 0 3.790000 37.880000 33.450000 0 0 0
776 259 2 0 3.980000 38.570000 33.680000 0 0 0
777 259 3 0 3.590000 37.140000 33.200000 0 0 0
778 260 4 0 2.220000 36.350000 32.430000 0 0 0
779 260 3 0 2.110000 37.070000 32.710000 0 0 0
780 260 3 0 2.330000 35.630000 32.150000 0 0 0
781 261 4 0 0.980000 34.570000 32.620000 0 0 0
782 261 3 0 1.710000 34.420000 32.510000 0 0 0
783 261 3 0 0.250000 34.710000 32.740000 0 0 0
784 262 4 0 0.930000 32.120000 32.580000 0 0 0
785 262 3 0 0.720000 31.570000 33.030000 0 0 0
786 262 3 0 1.140000 32.680000 32.130000 0 0 0
787 263 4 0 0.490000 30.180000 31.640000 0 0 0
788 263 3 0 0.350000 29.560000 32.060000 0 0 0
789 263 3 0 0.630000 30.800000 31.230000 0 0 0
790 264 1 0 0.360000 28.630000 29.890000 0 0 0
791 264 3 0 0.050000 28.020000 30.340000 0 0 0
792 264 2 0 0.640000 29.190000 29.470000 0 0 0
793 265 1 0 6.810000 26.880000 48.630000 0 0 0
794 265 2 0 7.000000 27.570000 48.860000 0 0 0
795 265 3 0 6.610000 26.140000 48.380000 0 0 0
796 266 4 0 8.900000 28.250000 49.160000 0 0 0
797 266 3 0 8.790000 28.970000 49.450000 0 0 0
798 266 3 0 9.010000 27.530000 48.880000 0 0 0
799 267 4 0 10.730000 29.700000 50.190000 0 0 0
800 267 3 0 11.460000 29.560000 50.080000 0 0 0
801 267 3 0 10.000000 29.850000 50.300000 0 0 0
802 268 4 0 12.510000 30.890000 51.060000 0 0 0
803 268 3 0 12.300000 30.340000 51.510000 0 0 0
804 268 3 0 12.720000 31.440000 50.610000 0 0 0
805 269 4 0 14.300000 32.000000 51.520000 0 0 0
806 269 3 0 14.150000 31.380000 51.940000 0 0 0
807 269 3 0 14.440000 32.620000 51.110000 0 0 0
808 270 1 0 16.360000 33.370000 52.210000 0 0 0
809 270 3 0 16.050000 32.760000 52.660000 0 0 0
810 270 2 0 16.640000 33.930000 51.790000 0 0 0
811 271 1 0 42.950000 28.150000 12.280000 0 0 0
812 271 2 0 43.140000 28.840000 12.510000 0 0 0
813 271 3 0 42.750000 27.410000 12.030000 0 0 0
814 272 4 0 45.330000 28.560000 13.060000 0 0 0
815 272 3 0 45.220000 29.280000 13.350000 0 0 0
816 272 3 0 45.440000 27.840000 12.780000 0 0 0
817 273 4 0 47.690000 28.890000 14.200000 0 0 0
818 273 3 0 48.420000 28.740000 14.090000 0 0 0
819 273 3 0 46.960000 29.030000 14.310000 0 0 0
820 274 4 0 49.360000 28.870000 16.170000 0 0 0
821 274 3 0 49.150000 28.320000 16.620000 0 0 0
822 274 3 0 49.570000 29.420000 15.720000 0 0 0
823 275 4 0 51.080000 29.770000 17.810000 0 0 0
824 275 3 0 50.930000 29.150000 18.230000 0 0 0
825 275 3 0 51.220000 30.390000 17.400000 0 0 0
826 276 1 0 51.880000 28.320000 19.770000 0 0 0
827 276 3 0 51.570000 27.710000 20.220000 0 0 0
828 276 2 0 52.160000 28.880000 19.350000 0 0 0
829 277 1 0 8.670000 42.210000 7.490000 0 0 0
830 277 2 0 8.860000 42.900000 7.720000 0 0 0
831 277 3 0 8.470000 41.470000 7.240000 0 0 0
832 278 4 0 7.750000 44.320000 8.190000 0 0 0
833 278 3 0 7.640000 45.040000 8.470000 0 0 0
834 278 3 0 7.860000 43.600000 7.900000 0 0 0
835 279 4 0 7.840000 46.680000 8.880000 0 0 0
836 279 3 0 8.570000 46.540000 8.770000 0 0 0
837 279 3 0 7.110000 46.830000 9.000000 0 0 0
838 280 4 0 9.400000 48.360000 7.920000 0 0 0
839 280 3 0 9.190000 47.800000 8.370000 0 0 0
840 280 3 0 9.610000 48.920000 7.470000 0 0 0
841 281 4 0 9.980000 49.640000 6.150000 0 0 0
842 281 3 0 9.840000 49.020000 6.570000 0 0 0
843 281 3 0 10.120000 50.260000 5.740000 0 0 0
844 282 1 0 11.170000 51.660000 5.490000 0 0 0
845 282 3 0 10.860000 51.050000 5.940000 0 0 0
846 282 2 0 11.450000 52.220000 5.070000 0 0 0
847 283 1 0 2.850000 8.280000 25.590000 0 0 0
848 283 2 0 3.040000 8.970000 25.820000 0 0 0
849 283 3 0 2.650000 7.540000 25.340000 0 0 0
850 284 4 0 4.640000 7.140000 26.040000 0 0 0
851 284 3 0 4.530000 7.860000 26.330000 0 0 0
852 284 3 0 4.750000 6.420000 25.750000 0 0 0
853 285 4 0 4.590000 5.510000 27.920000 0 0 0
854 285 3 0 5.320000 5.360000 27.800000 0 0 0
855 285 3 0 3.860000 5.660000 28.030000 0 0 0
856 286 4 0 4.500000 4.260000 29.990000 0 0 0
857 286 3 0 4.290000 3.700000 30.440000 0 0 0
858 286 3 0 4.710000 4.810000 29.540000 0 0 0
859 287 4 0 4.060000 2.610000 31.850000 0 0 0
860 287 3 0 3.920000 1.990000 32.270000 0 0 0
861 287 3 0 4.200000 3.230000 31.440000 0 0 0
862 288 1 0 3.370000 0.610000 33.050000 0 0 0
863 288 3 0 3.060000 0.000000 33.500000 0 0 0
864 288 2 0 3.650000 1.170000 32.630000 0 0 0
865 289 1 0 1.700000 44.510000 16.500000 0 0 0
866 289 2 0 1.890000 45.200000 16.730000 0 0 0
867 289 3 0 1.500000 43.770000 16.250000 0 0 0
868 290 4 0 2.620000 42.360000 15.500000 0 0 0
869 290 3 0 2.510000 43.080000 15.790000 0 0 0
870 290 3 0 2.730000 41.640000 15.220000 0 0 0
871 291 4 0 4.050000 40.380000 16.280000 0 0 0
872 291 3 0 4.780000 40.240000 16.170000 0 0 0
873 291 3 0 3.320000 40.530000 16.390000 0 0 0
874 292 4 0 5.170000 38.470000 15.170000 0 0 0
875 292 3 0 4.960000 37.920000 15.620000 0 0 0
876 292 3 0 5.380000 39.020000 14.720000 0 0 0
877 293 4 0 4.230000 37.240000 13.270000 0 0 0
878 293 3 0 4.090000 36.620000 13.690000 0 0 0
879 293 3 0 4.370000 37.860000 12.860000 0 0 0
880 294 1 0 3.490000 35.910000 11.370000 0 0 0
881 294 3 0 3.180000 35.300000 11.820000 0 0 0
882 294 2 0 3.770000 36.470000 10.950000 0 0 0
883 295 1 0 4.580000 21.580000 25.890000 0 0 0
884 295 2 0 4.770000 22.270000 26.120000 0 0 0
885 295 3 0 4.380000 20.840000 25.640000 0 0 0
886 296 4 0 4.030000 19.380000 25.460000 0 0 0
887 296 3 0 3.920000 20.100000 25.740000 0 0 0
888 296 3 0 4.140000 18.660000 25.180000 0 0 0
889 297 4 0 2.810000 17.290000 26.040000 0 0 0
890 297 3 0 3.540000 17.150000 25.930000 0 0 0
891 297 3 0 2.080000 17.440000 26.150000 0 0 0
892 298 4 0 0.440000 16.690000 25.320000 0 0 0
893 298 3 0 0.230000 16.140000 25.770000 0 0 0
894 298 3 0 0.650000 17.240000 24.870000 0 0 0
895 299 4 0 56.290000 17.250000 26.740000 -1 0 0
896 299 3 0 56.140000 16.630000 27.160000 -1 0 0
897 299 3 0 56.430000 17.870000 26.330000 -1 0 0
898 300 1 0 55.430000 17.870000 28.840000 -1 0 0
899 300 3 0 55.120000 17.260000 29.290000 -1 0 0
900 300 2 0 55.710000 18.430000 28.420000 -1 0 0
901 301 1 0 53.540000 32.400000 7.560000 0 0 0
902 301 2 0 53.730000 33.090000 7.790000 0 0 0
903 301 3 0 53.340000 31.660000 7.310000 0 0 0
904 302 4 0 51.160000 32.020000 8.080000 0 0 0
905 302 3 0 51.050000 32.740000 8.370000 0 0 0
906 302 3 0 51.270000 31.300000 7.800000 0 0 0
907 303 4 0 48.820000 32.000000 9.080000 0 0 0
908 303 3 0 49.550000 31.860000 8.970000 0 0 0
909 303 3 0 48.090000 32.150000 9.200000 0 0 0
910 304 4 0 46.870000 31.020000 8.870000 0 0 0
911 304 3 0 46.660000 30.460000 9.320000 0 0 0
912 304 3 0 47.080000 31.570000 8.420000 0 0 0
913 305 4 0 44.530000 30.820000 8.020000 0 0 0
914 305 3 0 44.390000 30.200000 8.440000 0 0 0
915 305 3 0 44.680000 31.440000 7.610000 0 0 0
916 306 1 0 42.180000 30.750000 6.920000 0 0 0
917 306 3 0 41.870000 30.140000 7.370000 0 0 0
918 306 2 0 42.460000 31.310000 6.500000 0 0 0
919 307 1 0 24.280000 32.480000 30.710000 0 0 0
920 307 2 0 24.470000 33.170000 30.940000 0 0 0
921 307 3 0 24.080000 31.740000 30.460000 0 0 0
922 308 4 0 23.970000 33.830000 28.550000 0 0 0
923 308 3 0 23.860000 34.550000 28.830000 0 0 0
924 308 3 0 24.080000 33.110000 28.270000 0 0 0
925 309 4 0 23.740000 34.880000 26.240000 0 0 0
926 309 3 0 24.470000 34.740000 26.130000 0 0 0
927 309 3 0 23.010000 35.020000 26.360000 0 0 0
928 310 4 0 23.490000 36.200000 24.120000 0 0 0
929 310 3 0 23.280000 35.650000 24.570000 0 0 0
930 310 3 0 23.700000 36.750000 23.670000 0 0 0
931 311 4 0 23.420000 37.240000 21.930000 0 0 0
932 311 3 0 23.280000 36.620000 22.350000 0 0 0
933 311 3 0 23.570000 37.860000 21.520000 0 0 0
934 312 1 0 23.640000 39.080000 20.350000 0 0 0
935 312 3 0 23.330000 38.470000 20.800000 0 0 0
936 312 2 0 23.920000 39.640000 19.930000 0 0 0
937 313 1 0 28.550000 24.770000 53.000000 0 0 0
938 313 2 0 28.740000 25.460000 53.230000 0 0 0
939 313 3 0 28.350000 24.030000 52.750000 0 0 0
940 314 4 0 26.550000 24.580000 52.080000 0 0 0
941 314 3 0 26.440000 25.300000 52.370000 0 0 0
942 314 3 0 26.660000 23.860000 51.790000 0 0 0
943 315 4 0 24.360000 23.670000 51.090000 0 0 0
944 315 3 0 25.090000 23.530000 50.980000 0 0 0
945 315 3 0 23.630000 23.810000 51.200000 0 0 0
946 316 4 0 23.050000 21.550000 51.450000 0 0 0
947 316 3 0 22.840000 20.990000 51.900000 0 0 0
948 316 3 0 23.260000 22.100000 51.000000 0 0 0
949 317 4 0 20.910000 20.580000 50.410000 0 0 0
950 317 3 0 20.770000 19.960000 50.830000 0 0 0
951 317 3 0 21.060000 21.200000 50.000000 0 0 0
952 318 1 0 18.610000 20.330000 49.290000 0 0 0
953 318 3 0 18.300000 19.720000 49.740000 0 0 0
954 318 2 0 18.890000 20.890000 48.870000 0 0 0
955 319 1 0 19.370000 28.840000 30.480000 0 0 0
956 319 2 0 19.560000 29.530000 30.710000 0 0 0
957 319 3 0 19.170000 28.100000 30.230000 0 0 0
958 320 4 0 17.080000 27.790000 30.850000 0 0 0
959 320 3 0 16.970000 28.510000 31.140000 0 0 0
960 320 3 0 17.190000 27.070000 30.560000 0 0 0
961 321 4 0 14.590000 27.500000 31.440000 0 0 0
962 321 3 0 15.320000 27.360000 31.330000 0 0 0
963 321 3 0 13.860000 27.640000 31.550000 0 0 0
964 322 4 0 12.460000 27.360000 32.210000 0 0 0
965 322 3 0 12.250000 26.810000 32.660000 0 0 0
966 322 3 0 12.670000 27.920000 31.760000 0 0 0
967 323 4 0 10.030000 27.410000 32.740000 0 0 0
968 323 3 0 9.880000 26.790000 33.160000 0 0 0
969 323 3 0 10.170000 28.030000 32.320000 0 0 0
970 324 1 0 7.720000 27.370000 33.600000 0 0 0
971 324 3 0 7.410000 26.760000 34.050000 0 0 0
972 324 2 0 8.000000 27.930000 33.180000 0 0 0
973 325 1 0 43.420000 54.020000 36.420000 0 0 0
974 325 2 0 43.610000 54.710000 36.650000 0 0 0
975 325 3 0 43.220000 53.280000 36.170000 0 0 0
976 326 4 0 45.050000 52.500000 36.040000 0 0 0
977 326 3 0 44.940000 53.220000 36.330000 0 0 0
978 326 3 0 45.160000 51.780000 35.750000 0 0 0
979 327 4 0 45.930000 50.900000 34.730000 0 0 0
980 327 3 0 46.660000 50.750000 34.620000 0 0 0
981 327 3 0 45.200000 51.040000 34.840000 0 0 0
982 328 4 0 46.610000 49.050000 33.180000 0 0 0
983 328 3 0 46.400000 48.490000 33.630000 0 0 0
984 328 3 0 46.820000 49.610000 32.730000 0 0 0
985 329 4 0 45.170000 47.290000 32.130000 0 0 0
986 329 3 0 45.030000 46.670000 32.550000 0 0 0
987 329 3 0 45.320000 47.910000 31.710000 0 0 0
988 330 1 0 44.320000 45.990000 30.500000 0 0 0
989 330 3 0 44.010000 45.380000 30.950000 0 0 0
990 330 2 0 44.600000 46.550000 30.080000 0 0 0
991 331 1 0 56.780000 13.100000 7.590000 0 0 0
992 331 2 0 56.970000 13.790000 7.820000 0 0 0
993 331 3 0 56.580000 12.360000 7.340000 0 0 0
994 332 4 0 57.160000 14.200000 9.850000 0 0 0
995 332 3 0 57.050000 14.920000 10.140000 0 0 0
996 332 3 0 57.270000 13.480000 9.570000 0 0 0
997 333 4 0 57.430000 15.170000 12.090000 0 0 0
998 333 3 0 0.622400 15.020000 11.980000 1 0 0
999 333 3 0 56.700000 15.310000 12.210000 0 0 0
1000 334 4 0 0.390000 16.630000 13.830000 1 0 0
1001 334 3 0 0.180000 16.070000 14.280000 1 0 0
1002 334 3 0 0.600000 17.190000 13.380000 1 0 0
1003 335 4 0 1.880000 17.950000 15.360000 1 0 0
1004 335 3 0 1.740000 17.330000 15.780000 1 0 0
1005 335 3 0 2.020000 18.570000 14.950000 1 0 0
1006 336 1 0 3.410000 19.480000 14.140000 1 0 0
1007 336 3 0 3.100000 18.870000 14.590000 1 0 0
1008 336 2 0 3.690000 20.040000 13.720000 1 0 0
1009 337 1 0 55.900000 38.710000 55.780000 0 0 0
1010 337 2 0 56.090000 39.400000 56.010000 0 0 0
1011 337 3 0 55.700000 37.970000 55.530000 0 0 0
1012 338 4 0 0.900000 38.860000 56.130000 1 0 0
1013 338 3 0 0.790000 39.580000 56.420000 1 0 0
1014 338 3 0 1.010000 38.140000 55.850000 1 0 0
1015 339 4 0 2.670000 39.340000 57.340000 1 0 0
1016 339 3 0 3.400000 39.200000 57.230000 1 0 0
1017 339 3 0 1.940000 39.490000 57.450000 1 0 0
1018 340 4 0 4.900000 39.690000 0.960000 1 0 1
1019 340 3 0 4.690000 39.130000 1.410000 1 0 1
1020 340 3 0 5.110000 40.240000 0.510000 1 0 1
1021 341 4 0 7.060000 39.000000 1.230000 1 0 1
1022 341 3 0 6.920000 38.380000 1.650000 1 0 1
1023 341 3 0 7.200000 39.620000 0.820000 1 0 1
1024 342 1 0 9.420000 38.180000 1.200000 1 0 1
1025 342 3 0 9.110000 37.570000 1.650000 1 0 1
1026 342 2 0 9.700000 38.740000 0.780000 1 0 1
1027 343 1 0 44.540000 44.630000 13.560000 0 0 0
1028 343 2 0 44.730000 45.320000 13.790000 0 0 0
1029 343 3 0 44.340000 43.890000 13.310000 0 0 0
1030 344 4 0 42.540000 43.330000 13.630000 0 0 0
1031 344 3 0 42.430000 44.050000 13.910000 0 0 0
1032 344 3 0 42.650000 42.610000 13.350000 0 0 0
1033 345 4 0 41.000000 41.560000 13.070000 0 0 0
1034 345 3 0 41.730000 41.410000 12.960000 0 0 0
1035 345 3 0 40.270000 41.700000 13.190000 0 0 0
1036 346 4 0 39.260000 39.810000 12.430000 0 0 0
1037 346 3 0 39.050000 39.250000 12.880000 0 0 0
1038 346 3 0 39.470000 40.370000 11.980000 0 0 0
1039 347 4 0 37.210000 39.210000 12.980000 0 0 0
1040 347 3 0 37.070000 38.590000 13.400000 0 0 0
1041 347 3 0 37.360000 39.830000 12.570000 0 0 0
1042 348 1 0 34.790000 38.760000 13.590000 0 0 0
1043 348 3 0 34.480000 38.150000 14.040000 0 0 0
1044 348 2 0 35.070000 39.320000 13.170000 0 0 0
1045 349 1 0 16.190000 40.200000 36.960000 0 0 0
1046 349 2 0 16.380000 40.890000 37.190000 0 0 0
1047 349 3 0 15.990000 39.460000 36.710000 0 0 0
1048 350 4 0 18.020000 41.920000 37.350000 0 0 0
1049 350 3 0 17.910000 42.640000 37.630000 0 0 0
1050 350 3 0 18.130000 41.200000 37.070000 0 0 0
1051 351 4 0 18.640000 44.320000 37.880000 0 0 0
1052 351 3 0 19.370000 44.180000 37.760000 0 0 0
1053 351 3 0 17.910000 44.470000 38.000000 0 0 0
1054 352 4 0 18.900000 46.500000 38.590000 0 0 0
1055 352 3 0 18.690000 45.950000 39.040000 0 0 0
1056 352 3 0 19.110000 47.060000 38.140000 0 0 0
1057 353 4 0 18.840000 48.870000 39.500000 0 0 0
1058 353 3 0 18.690000 48.250000 39.920000 0 0 0
1059 353 3 0 18.980000 49.490000 39.090000 0 0 0
1060 354 1 0 20.040000 50.740000 40.550000 0 0 0
1061 354 3 0 19.730000 50.130000 41.000000 0 0 0
1062 354 2 0 20.320000 51.300000 40.130000 0 0 0
1063 355 1 0 48.820000 10.240000 9.250000 0 0 0
1064 355 2 0 49.010000 10.930000 9.480000 0 0 0
1065 355 3 0 48.620000 9.500000 9.000000 0 0 0
1066 356 4 0 49.590000 9.340000 11.080000 0 0 0
1067 356 3 0 49.480000 10.060000 11.370000 0 0 0
1068 356 3 0 49.700000 8.620000 10.800000 0 0 0
1069 357 4 0 50.470000 8.670000 13.250000 0 0 0
1070 357 3 0 51.200000 8.520000 13.140000 0 0 0
1071 357 3 0 49.740000 8.810000 13.370000 0 0 0
1072 358 4 0 49.340000 9.550000 15.370000 0 0 0
1073 358 3 0 49.130000 8.990000 15.820000 0 0 0
1074 358 3 0 49.550000 10.100000 14.920000 0 0 0
1075 359 4 0 50.040000 11.360000 16.660000 0 0 0
1076 359 3 0 49.890000 10.740000 17.080000 0 0 0
1077 359 3 0 50.180000 11.980000 16.250000 0 0 0
1078 360 1 0 49.860000 12.820000 18.710000 0 0 0
1079 360 3 0 49.550000 12.210000 19.160000 0 0 0
1080 360 2 0 50.140000 13.380000 18.290000 0 0 0
1081 361 1 0 27.740000 24.480000 31.290000 0 0 0
1082 361 2 0 27.930000 25.170000 31.520000 0 0 0
1083 361 3 0 27.540000 23.740000 31.040000 0 0 0
1084 362 4 0 29.170000 25.190000 33.170000 0 0 0
1085 362 3 0 29.060000 25.910000 33.460000 0 0 0
1086 362 3 0 29.280000 24.470000 32.880000 0 0 0
1087 363 4 0 31.580000 25.500000 33.730000 0 0 0
1088 363 3 0 32.310000 25.350000 33.620000 0 0 0
1089 363 3 0 30.850000 25.640000 33.850000 0 0 0
1090 364 4 0 33.660000 24.300000 33.950000 0 0 0
1091 364 3 0 33.450000 23.750000 34.400000 0 0 0
1092 364 3 0 33.870000 24.860000 33.500000 0 0 0
1093 365 4 0 35.540000 23.030000 34.330000 0 0 0
1094 365 3 0 35.390000 22.410000 34.740000 0 0 0
1095 365 3 0 35.680000 23.650000 33.910000 0 0 0
1096 366 1 0 37.310000 22.310000 32.710000 0 0 0
1097 366 3 0 37.000000 21.700000 33.160000 0 0 0
1098 366 2 0 37.590000 22.870000 32.290000 0 0 0
1099 367 1 0 44.030000 54.000000 43.060000 0 0 0
1100 367 2 0 44.220000 54.690000 43.290000 0 0 0
1101 367 3 0 43.830000 53.260000 42.810000 0 0 0
1102 368 4 0 44.340000 55.520000 41.060000 0 0 0
1103 368 3 0 44.230000 56.240000 41.350000 0 0 0
1104 368 3 0 44.450000 54.800000 40.770000 0 0 0
1105 369 4 0 43.690000 57.320000 39.640000 0 0 0
1106 369 3 0 44.420000 57.180000 39.530000 0 0 0
1107 369 3 0 42.960000 57.470000 39.760000 0 0 0
1108 370 4 0 43.340000 1.640000 37.970000 0 1 0
1109 370 3 0 43.130000 1.090000 38.420000 0 1 0
1110 370 3 0 43.550000 2.200000 37.520000 0 1 0
1111 371 4 0 43.240000 3.260000 36.010000 0 1 0
1112 371 3 0 43.090000 2.640000 36.430000 0 1 0
1113 371 3 0 43.380000 3.880000 35.590000 0 1 0
1114 372 1 0 42.840000 4.400000 33.930000 0 1 0
1115 372 3 0 42.530000 3.790000 34.380000 0 1 0
1116 372 2 0 43.120000 4.960000 33.510000 0 1 0
1117 373 1 0 18.150000 29.090000 40.400000 0 0 0
1118 373 2 0 18.340000 29.780000 40.630000 0 0 0
1119 373 3 0 17.950000 28.350000 40.150000 0 0 0
1120 374 4 0 15.830000 28.690000 41.020000 0 0 0
1121 374 3 0 15.720000 29.410000 41.310000 0 0 0
1122 374 3 0 15.940000 27.970000 40.740000 0 0 0
1123 375 4 0 13.800000 27.620000 41.610000 0 0 0
1124 375 3 0 14.530000 27.480000 41.490000 0 0 0
1125 375 3 0 13.070000 27.760000 41.720000 0 0 0
1126 376 4 0 11.720000 26.240000 42.140000 0 0 0
1127 376 3 0 11.510000 25.690000 42.590000 0 0 0
1128 376 3 0 11.930000 26.790000 41.690000 0 0 0
1129 377 4 0 9.980000 24.900000 42.580000 0 0 0
1130 377 3 0 9.840000 24.280000 43.000000 0 0 0
1131 377 3 0 10.120000 25.520000 42.160000 0 0 0
1132 378 1 0 8.630000 22.830000 42.690000 0 0 0
1133 378 3 0 8.320000 22.220000 43.140000 0 0 0
1134 378 2 0 8.910000 23.390000 42.270000 0 0 0
1135 379 1 0 25.250000 8.630000 2.040000 0 0 0
1136 379 2 0 25.440000 9.320000 2.270000 0 0 0
1137 379 3 0 25.050000 7.890000 1.790000 0 0 0
1138 380 4 0 27.100000 10.100000 2.950000 0 0 0
1139 380 3 0 26.990000 10.820000 3.230000 0 0 0
1140 380 3 0 27.210000 9.380000 2.670000 0 0 0
1141 381 4 0 28.560000 11.510000 4.320000 0 0 0
1142 381 3 0 29.290000 11.360000 4.210000 0 0 0
1143 381 3 0 27.830000 11.650000 4.440000 0 0 0
1144 382 4 0 30.160000 12.670000 5.820000 0 0 0
1145 382 3 0 29.950000 12.120000 6.270000 0 0 0
1146 382 3 0 30.370000 13.220000 5.370000 0 0 0
1147 383 4 0 32.150000 12.700000 6.910000 0 0 0
1148 383 3 0 32.000000 12.080000 7.330000 0 0 0
1149 383 3 0 32.290000 13.320000 6.500000 0 0 0
1150 384 1 0 34.470000 13.660000 7.420000 0 0 0
1151 384 3 0 34.160000 13.050000 7.870000 0 0 0
1152 384 2 0 34.750000 14.220000 7.000000 0 0 0
1153 385 1 0 55.340000 28.110000 6.910000 0 0 0
1154 385 2 0 55.530000 28.800000 7.140000 0 0 0
1155 385 3 0 55.140000 27.370000 6.660000 0 0 0
1156 386 4 0 53.180000 27.710000 5.970000 0 0 0
1157 386 3 0 53.070000 28.430000 6.250000 0 0 0
1158 386 3 0 53.290000 26.990000 5.690000 0 0 0
1159 387 4 0 51.180000 26.140000 6.020000 0 0 0
1160 387 3 0 51.910000 25.990000 5.910000 0 0 0
1161 387 3 0 50.450000 26.280000 6.140000 0 0 0
1162 388 4 0 49.290000 26.140000 7.590000 0 0 0
1163 388 3 0 49.080000 25.580000 8.040000 0 0 0
1164 388 3 0 49.500000 26.690000 7.140000 0 0 0
1165 389 4 0 46.890000 26.000000 8.290000 0 0 0
1166 389 3 0 46.750000 25.380000 8.710000 0 0 0
1167 389 3 0 47.040000 26.620000 7.880000 0 0 0
1168 390 1 0 44.500000 26.660000 8.830000 0 0 0
1169 390 3 0 44.190000 26.050000 9.280000 0 0 0
1170 390 2 0 44.780000 27.220000 8.410000 0 0 0
1171 391 1 0 2.050000 0.930000 53.810000 0 0 0
1172 391 2 0 2.240000 1.620000 54.040000 0 0 0
1173 391 3 0 1.850000 0.190000 53.560000 0 0 0
1174 392 4 0 1.690000 57.370000 56.210000 0 -1 0
1175 392 3 0 1.580000 0.552400 56.500000 0 0 0
1176 392 3 0 1.800000 56.650000 55.930000 0 -1 0
1177 393 4 0 1.270000 57.190000 0.800000 0 -1 1
1178 393 3 0 2.000000 57.050000 0.690000 0 -1 1
1179 393 3 0 0.540000 57.340000 0.920000 0 -1 1
1180 394 4 0 0.200000 0.420000 2.900000 0 0 1
1181 394 3 0 57.527600 57.407600 3.350000 -1 -1 1
1182 394 3 0 0.410000 0.980000 2.450000 0 0 1
1183 395 4 0 56.510000 1.400000 4.420000 -1 0 1
1184 395 3 0 56.360000 0.780000 4.840000 -1 0 1
1185 395 3 0 56.650000 2.020000 4.010000 -1 0 1
1186 396 1 0 56.080000 2.660000 6.360000 -1 0 1
1187 396 3 0 55.770000 2.050000 6.810000 -1 0 1
1188 396 2 0 56.360000 3.220000 5.940000 -1 0 1
1189 397 1 0 56.630000 30.360000 36.750000 0 0 0
1190 397 2 0 56.820000 31.050000 36.980000 0 0 0
1191 397 3 0 56.430000 29.620000 36.500000 0 0 0
1192 398 4 0 0.470000 30.420000 38.790000 1 0 0
1193 398 3 0 0.360000 31.140000 39.070000 1 0 0
1194 398 3 0 0.580000 29.700000 38.510000 1 0 0
1195 399 4 0 0.830000 29.200000 40.510000 1 0 0
1196 399 3 0 1.560000 29.050000 40.400000 1 0 0
1197 399 3 0 0.100000 29.340000 40.620000 1 0 0
1198 400 4 0 57.300000 29.660000 42.700000 0 0 0
1199 400 3 0 57.090000 29.110000 43.150000 0 0 0
1200 400 3 0 57.510000 30.220000 42.250000 0 0 0
1201 401 4 0 57.060000 30.800000 44.730000 0 0 0
1202 401 3 0 56.920000 30.180000 45.140000 0 0 0
1203 401 3 0 57.210000 31.420000 44.310000 0 0 0
1204 402 1 0 56.030000 31.690000 46.840000 0 0 0
1205 402 3 0 55.720000 31.080000 47.290000 0 0 0
1206 402 2 0 56.310000 32.250000 46.420000 0 0 0
1207 403 1 0 17.950000 33.310000 30.910000 0 0 0
1208 403 2 0 18.140000 34.000000 31.140000 0 0 0
1209 403 3 0 17.750000 32.570000 30.660000 0 0 0
1210 404 4 0 18.520000 32.330000 28.950000 0 0 0
1211 404 3 0 18.410000 33.050000 29.230000 0 0 0
1212 404 3 0 18.630000 31.610000 28.670000 0 0 0
1213 405 4 0 19.000000 32.240000 26.450000 0 0 0
1214 405 3 0 19.730000 32.100000 26.340000 0 0 0
1215 405 3 0 18.270000 32.390000 26.570000 0 0 0
1216 406 4 0 19.410000 31.720000 24.050000 0 0 0
1217 406 3 0 19.200000 31.170000 24.500000 0 0 0
1218 406 3 0 19.620000 32.280000 23.600000 0 0 0
1219 407 4 0 20.700000 31.830000 21.880000 0 0 0
1220 407 3 0 20.550000 31.210000 22.300000 0 0 0
1221 407 3 0 20.840000 32.450000 21.470000 0 0 0
1222 408 1 0 22.260000 31.950000 19.870000 0 0 0
1223 408 3 0 21.950000 31.340000 20.320000 0 0 0
1224 408 2 0 22.540000 32.510000 19.450000 0 0 0
1225 409 1 0 16.130000 8.180000 56.510000 0 0 0
1226 409 2 0 16.320000 8.870000 56.740000 0 0 0
1227 409 3 0 15.930000 7.440000 56.260000 0 0 0
1228 410 4 0 15.470000 6.930000 1.020000 0 0 1
1229 410 3 0 15.360000 7.650000 1.300000 0 0 1
1230 410 3 0 15.580000 6.210000 0.740000 0 0 1
1231 411 4 0 14.020000 6.250000 2.590000 0 0 1
1232 411 3 0 14.750000 6.100000 2.480000 0 0 1
1233 411 3 0 13.290000 6.390000 2.710000 0 0 1
1234 412 4 0 12.780000 5.050000 4.420000 0 0 1
1235 412 3 0 12.570000 4.500000 4.870000 0 0 1
1236 412 3 0 12.990000 5.600000 3.970000 0 0 1
1237 413 4 0 11.610000 5.650000 6.450000 0 0 1
1238 413 3 0 11.470000 5.030000 6.870000 0 0 1
1239 413 3 0 11.750000 6.270000 6.040000 0 0 1
1240 414 1 0 9.750000 6.250000 8.010000 0 0 1
1241 414 3 0 9.440000 5.640000 8.460000 0 0 1
1242 414 2 0 10.030000 6.810000 7.590000 0 0 1
1243 415 1 0 15.580000 46.420000 56.470000 0 0 0
1244 415 2 0 15.770000 47.110000 56.700000 0 0 0
1245 415 3 0 15.380000 45.680000 56.220000 0 0 0
1246 416 4 0 16.580000 48.740000 56.830000 0 0 0
1247 416 3 0 16.470000 49.460000 57.120000 0 0 0
1248 416 3 0 16.690000 48.020000 56.540000 0 0 0
1249 417 4 0 17.680000 50.980000 57.440000 0 0 0
1250 417 3 0 18.410000 50.830000 57.320000 0 0 0
1251 417 3 0 16.950000 51.120000 0.012400 0 0 1
1252 418 4 0 18.600000 53.280000 0.690000 0 0 1
1253 418 3 0 18.390000 52.720000 1.140000 0 0 1
1254 418 3 0 18.810000 53.840000 0.240000 0 0 1
1255 419 4 0 18.750000 55.020000 2.510000 0 0 1
1256 419 3 0 18.610000 54.400000 2.930000 0 0 1
1257 419 3 0 18.890000 55.640000 2.100000 0 0 1
1258 420 1 0 17.650000 56.190000 4.470000 0 0 1
1259 420 3 0 17.340000 55.580000 4.920000 0 0 1
1260 420 2 0 17.930000 56.750000 4.050000 0 0 1
1261 421 1 0 53.300000 18.910000 39.950000 0 0 0
1262 421 2 0 53.490000 19.600000 40.180000 0 0 0
1263 421 3 0 53.100000 18.170000 39.700000 0 0 0
1264 422 4 0 51.020000 18.780000 40.700000 0 0 0
1265 422 3 0 50.910000 19.500000 40.990000 0 0 0
1266 422 3 0 51.130000 18.060000 40.420000 0 0 0
1267 423 4 0 48.840000 18.280000 41.000000 0 0 0
1268 423 3 0 49.570000 18.130000 40.880000 0 0 0
1269 423 3 0 48.110000 18.430000 41.110000 0 0 0
1270 424 4 0 47.440000 19.950000 42.370000 0 0 0
1271 424 3 0 47.230000 19.400000 42.820000 0 0 0
1272 424 3 0 47.650000 20.500000 41.920000 0 0 0
1273 425 4 0 46.480000 21.490000 44.090000 0 0 0
1274 425 3 0 46.330000 20.870000 44.500000 0 0 0
1275 425 3 0 46.620000 22.110000 43.670000 0 0 0
1276 426 1 0 44.550000 22.440000 44.760000 0 0 0
1277 426 3 0 44.240000 21.830000 45.210000 0 0 0
1278 426 2 0 44.830000 23.000000 44.340000 0 0 0
1279 427 1 0 37.770000 35.190000 14.300000 0 0 0
1280 427 2 0 37.960000 35.880000 14.530000 0 0 0
1281 427 3 0 37.570000 34.450000 14.050000 0 0 0
1282 428 4 0 35.750000 34.800000 15.720000 0 0 0
1283 428 3 0 35.640000 35.520000 16.010000 0 0 0
1284 428 3 0 35.860000 34.080000 15.440000 0 0 0
1285 429 4 0 33.920000 33.720000 17.030000 0 0 0
1286 429 3 0 34.650000 33.570000 16.920000 0 0 0
1287 429 3 0 33.190000 33.860000 17.150000 0 0 0
1288 430 4 0 32.140000 32.200000 18.010000 0 0 0
1289 430 3 0 31.930000 31.650000 18.460000 0 0 0
1290 430 3 0 32.350000 32.760000 17.560000 0 0 0
1291 431 4 0 31.280000 30.910000 19.690000 0 0 0
1292 431 3 0 31.140000 30.290000 20.110000 0 0 0
1293 431 3 0 31.430000 31.530000 19.280000 0 0 0
1294 432 1 0 33.000000 29.830000 21.240000 0 0 0
1295 432 3 0 32.690000 29.220000 21.690000 0 0 0
1296 432 2 0 33.280000 30.390000 20.820000 0 0 0
1297 433 1 0 30.290000 48.660000 32.800000 0 0 0
1298 433 2 0 30.480000 49.350000 33.030000 0 0 0
1299 433 3 0 30.090000 47.920000 32.550000 0 0 0
1300 434 4 0 31.990000 48.600000 34.320000 0 0 0
1301 434 3 0 31.880000 49.320000 34.600000 0 0 0
1302 434 3 0 32.100000 47.880000 34.040000 0 0 0
1303 435 4 0 33.340000 48.660000 36.400000 0 0 0
1304 435 3 0 34.070000 48.510000 36.290000 0 0 0
1305 435 3 0 32.610000 48.800000 36.520000 0 0 0
1306 436 4 0 34.640000 50.030000 38.030000 0 0 0
1307 436 3 0 34.430000 49.470000 38.480000 0 0 0
1308 436 3 0 34.850000 50.590000 37.580000 0 0 0
1309 437 4 0 34.850000 51.220000 39.940000 0 0 0
1310 437 3 0 34.700000 50.600000 40.360000 0 0 0
1311 437 3 0 34.990000 51.840000 39.530000 0 0 0
1312 438 1 0 35.380000 52.530000 41.840000 0 0 0
1313 438 3 0 35.070000 51.920000 42.290000 0 0 0
1314 438 2 0 35.660000 53.090000 41.420000 0 0 0
1315 439 1 0 40.160000 18.600000 22.350000 0 0 0
1316 439 2 0 40.350000 19.290000 22.580000 0 0 0
1317 439 3 0 39.960000 17.860000 22.100000 0 0 0
1318 440 4 0 41.650000 20.240000 21.090000 0 0 0
1319 440 3 0 41.540000 20.960000 21.380000 0 0 0
1320 440 3 0 41.760000 19.520000 20.800000 0 0 0
1321 441 4 0 42.210000 22.570000 20.280000 0 0 0
1322 441 3 0 42.940000 22.430000 20.170000 0 0 0
1323 441 3 0 41.480000 22.720000 20.400000 0 0 0
1324 442 4 0 42.510000 24.740000 19.720000 0 0 0
1325 442 3 0 42.300000 24.190000 20.170000 0 0 0
1326 442 3 0 42.720000 25.300000 19.270000 0 0 0
1327 443 4 0 42.290000 27.340000 19.620000 0 0 0
1328 443 3 0 42.150000 26.720000 20.030000 0 0 0
1329 443 3 0 42.440000 27.960000 19.210000 0 0 0
1330 444 1 0 42.590000 29.680000 20.510000 0 0 0
1331 444 3 0 42.280000 29.070000 20.960000 0 0 0
1332 444 2 0 42.870000 30.240000 20.090000 0 0 0
1333 445 1 0 29.760000 52.670000 44.730000 0 0 0
1334 445 2 0 29.950000 53.360000 44.960000 0 0 0
1335 445 3 0 29.560000 51.930000 44.480000 0 0 0
1336 446 4 0 30.370000 53.310000 47.190000 0 0 0
1337 446 3 0 30.260000 54.030000 47.480000 0 0 0
1338 446 3 0 30.480000 52.590000 46.910000 0 0 0
1339 447 4 0 32.140000 54.270000 48.570000 0 0 0
1340 447 3 0 32.870000 54.120000 48.460000 0 0 0
1341 447 3 0 31.410000 54.410000 48.690000 0 0 0
1342 448 4 0 33.980000 54.900000 49.640000 0 0 0
1343 448 3 0 33.770000 54.340000 50.090000 0 0 0
1344 448 3 0 34.190000 55.460000 49.190000 0 0 0
1345 449 4 0 35.050000 53.110000 50.980000 0 0 0
1346 449 3 0 34.900000 52.490000 51.390000 0 0 0
1347 449 3 0 35.190000 53.730000 50.560000 0 0 0
1348 450 1 0 35.330000 51.060000 51.560000 0 0 0
1349 450 3 0 35.020000 50.450000 52.010000 0 0 0
1350 450 2 0 35.610000 51.620000 51.140000 0 0 0
1351 451 1 0 1.510000 6.940000 20.370000 0 0 0
1352 451 2 0 1.700000 7.630000 20.600000 0 0 0
1353 451 3 0 1.310000 6.200000 20.120000 0 0 0
1354 452 4 0 0.070000 6.690000 22.470000 0 0 0
1355 452 3 0 57.497600 7.410000 22.760000 -1 0 0
1356 452 3 0 0.180000 5.970000 22.180000 0 0 0
1357 453 4 0 0.430000 5.260000 24.330000 0 0 0
1358 453 3 0 1.160000 5.110000 24.210000 0 0 0
1359 453 3 0 57.237600 5.400000 24.440000 -1 0 0
1360 454 4 0 0.280000 3.950000 26.510000 0 0 0
1361 454 3 0 0.070000 3.400000 26.960000 0 0 0
1362 454 3 0 0.490000 4.510000 26.060000 0 0 0
1363 455 4 0 55.700000 3.130000 27.580000 -1 0 0
1364 455 3 0 55.560000 2.510000 28.000000 -1 0 0
1365 455 3 0 55.850000 3.750000 27.160000 -1 0 0
1366 456 1 0 54.540000 2.680000 29.730000 -1 0 0
1367 456 3 0 54.230000 2.070000 30.180000 -1 0 0
1368 456 2 0 54.820000 3.240000 29.310000 -1 0 0
1369 457 1 0 38.100000 32.870000 19.360000 0 0 0
1370 457 2 0 38.290000 33.560000 19.590000 0 0 0
1371 457 3 0 37.900000 32.130000 19.110000 0 0 0
1372 458 4 0 37.320000 30.800000 19.850000 0 0 0
1373 458 3 0 37.210000 31.520000 20.140000 0 0 0
1374 458 3 0 37.430000 30.080000 19.570000 0 0 0
1375 459 4 0 38.190000 29.450000 21.530000 0 0 0
1376 459 3 0 38.920000 29.300000 21.420000 0 0 0
1377 459 3 0 37.460000 29.590000 21.650000 0 0 0
1378 460 4 0 39.240000 28.250000 23.120000 0 0 0
1379 460 3 0 39.030000 27.700000 23.570000 0 0 0
1380 460 3 0 39.450000 28.810000 22.670000 0 0 0
1381 461 4 0 40.260000 28.220000 25.160000 0 0 0
1382 461 3 0 40.110000 27.600000 25.580000 0 0 0
1383 461 3 0 40.400000 28.840000 24.740000 0 0 0
1384 462 1 0 41.370000 29.710000 26.810000 0 0 0
1385 462 3 0 41.060000 29.100000 27.260000 0 0 0
1386 462 2 0 41.650000 30.270000 26.390000 0 0 0
1387 463 1 0 52.180000 1.020000 15.040000 0 0 0
1388 463 2 0 52.370000 1.710000 15.270000 0 0 0
1389 463 3 0 51.980000 0.280000 14.790000 0 0 0
1390 464 4 0 51.810000 1.020000 12.580000 0 0 0
1391 464 3 0 51.700000 1.740000 12.860000 0 0 0
1392 464 3 0 51.920000 0.300000 12.300000 0 0 0
1393 465 4 0 51.510000 1.190000 10.240000 0 0 0
1394 465 3 0 52.240000 1.040000 10.130000 0 0 0
1395 465 3 0 50.780000 1.330000 10.360000 0 0 0
1396 466 4 0 51.740000 0.760000 7.980000 0 0 0
1397 466 3 0 51.530000 0.210000 8.430000 0 0 0
1398 466 3 0 51.950000 1.320000 7.530000 0 0 0
1399 467 4 0 52.520000 1.110000 5.620000 0 0 0
1400 467 3 0 52.370000 0.490000 6.040000 0 0 0
1401 467 3 0 52.660000 1.730000 5.210000 0 0 0
1402 468 1 0 52.190000 1.930000 3.530000 0 0 0
1403 468 3 0 51.880000 1.320000 3.980000 0 0 0
1404 468 2 0 52.470000 2.490000 3.110000 0 0 0
1405 469 1 0 15.780000 22.210000 51.770000 0 0 0
1406 469 2 0 15.970000 22.900000 52.000000 0 0 0
1407 469 3 0 15.580000 21.470000 51.520000 0 0 0
1408 470 4 0 14.480000 24.000000 52.430000 0 0 0
1409 470 3 0 14.370000 24.720000 52.720000 0 0 0
1410 470 3 0 14.590000 23.280000 52.150000 0 0 0
1411 471 4 0 13.190000 25.930000 52.560000 0 0 0
1412 471 3 0 13.920000 25.790000 52.450000 0 0 0
1413 471 3 0 12.460000 26.070000 52.680000 0 0 0
1414 472 4 0 10.640000 25.970000 52.650000 0 0 0
1415 472 3 0 10.430000 25.420000 53.100000 0 0 0
1416 472 3 0 10.850000 26.520000 52.200000 0 0 0
1417 473 4 0 8.190000 25.520000 52.890000 0 0 0
1418 473 3 0 8.040000 24.900000 53.300000 0 0 0
1419 473 3 0 8.330000 26.140000 52.470000 0 0 0
1420 474 1 0 6.010000 25.790000 53.200000 0 0 0
1421 474 3 0 5.700000 25.180000 53.650000 0 0 0
1422 474 2 0 6.290000 26.350000 52.780000 0 0 0
1423 475 1 0 9.840000 30.380000 7.680000 0 0 0
1424 475 2 0 10.030000 31.070000 7.910000 0 0 0
1425 475 3 0 9.640000 29.640000 7.430000 0 0 0
1426 476 4 0 11.100000 30.000000 9.470000 0 0 0
1427 476 3 0 10.990000 30.720000 9.750000 0 0 0
1428 476 3 0 11.210000 29.280000 9.180000 0 0 0
1429 477 4 0 12.970000 29.170000 10.860000 0 0 0
1430 477 3 0 13.700000 29.020000 10.750000 0 0 0
1431 477 3 0 12.240000 29.310000 10.980000 0 0 0
1432 478 4 0 14.310000 28.680000 12.650000 0 0 0
1433 478 3 0 14.100000 28.120000 13.100000 0 0 0
1434 478 3 0 14.520000 29.230000 12.200000 0 0 0
1435 479 4 0 15.540000 30.440000 13.610000 0 0 0
1436 479 3 0 15.400000 29.820000 14.030000 0 0 0
1437 479 3 0 15.690000 31.060000 13.200000 0 0 0
1438 480 1 0 17.440000 30.460000 14.840000 0 0 0
1439 480 3 0 17.130000 29.850000 15.290000 0 0 0
1440 480 2 0 17.720000 31.020000 14.420000 0 0 0
1441 481 1 0 32.190000 27.530000 14.540000 0 0 0
1442 481 2 0 32.380000 28.220000 14.770000 0 0 0
1443 481 3 0 31.990000 26.790000 14.290000 0 0 0
1444 482 4 0 33.680000 26.780000 16.280000 0 0 0
1445 482 3 0 33.570000 27.500000 16.560000 0 0 0
1446 482 3 0 33.790000 26.060000 15.990000 0 0 0
1447 483 4 0 33.960000 24.580000 16.820000 0 0 0
1448 483 3 0 34.690000 24.440000 16.710000 0 0 0
1449 483 3 0 33.230000 24.730000 16.940000 0 0 0
1450 484 4 0 33.710000 22.110000 17.040000 0 0 0
1451 484 3 0 33.500000 21.550000 17.490000 0 0 0
1452 484 3 0 33.920000 22.660000 16.590000 0 0 0
1453 485 4 0 33.260000 19.680000 16.660000 0 0 0
1454 485 3 0 33.120000 19.060000 17.080000 0 0 0
1455 485 3 0 33.410000 20.300000 16.250000 0 0 0
1456 486 1 0 32.470000 17.310000 16.260000 0 0 0
1457 486 3 0 32.160000 16.700000 16.710000 0 0 0
1458 486 2 0 32.750000 17.870000 15.840000 0 0 0
1459 487 1 0 25.200000 29.430000 25.460000 0 0 0
1460 487 2 0 25.390000 30.120000 25.690000 0 0 0
1461 487 3 0 25.000000 28.690000 25.210000 0 0 0
1462 488 4 0 23.170000 28.620000 24.800000 0 0 0
1463 488 3 0 23.060000 29.340000 25.080000 0 0 0
1464 488 3 0 23.280000 27.900000 24.520000 0 0 0
1465 489 4 0 22.670000 27.220000 23.110000 0 0 0
1466 489 3 0 23.400000 27.080000 23.000000 0 0 0
1467 489 3 0 21.940000 27.360000 23.220000 0 0 0
1468 490 4 0 22.260000 27.180000 20.660000 0 0 0
1469 490 3 0 22.050000 26.630000 21.110000 0 0 0
1470 490 3 0 22.470000 27.730000 20.210000 0 0 0
1471 491 4 0 23.930000 27.460000 18.870000 0 0 0
1472 491 3 0 23.780000 26.840000 19.290000 0 0 0
1473 491 3 0 24.070000 28.080000 18.460000 0 0 0
1474 492 1 0 25.430000 28.790000 17.700000 0 0 0
1475 492 3 0 25.120000 28.180000 18.150000 0 0 0
1476 492 2 0 25.710000 29.350000 17.280000 0 0 0
1477 493 1 0 2.170000 47.600000 43.240000 0 0 0
1478 493 2 0 2.360000 48.290000 43.470000 0 0 0
1479 493 3 0 1.970000 46.860000 42.990000 0 0 0
1480 494 4 0 2.080000 46.960000 45.640000 0 0 0
1481 494 3 0 1.970000 47.680000 45.930000 0 0 0
1482 494 3 0 2.190000 46.240000 45.350000 0 0 0
1483 495 4 0 1.840000 47.920000 47.670000 0 0 0
1484 495 3 0 2.570000 47.770000 47.560000 0 0 0
1485 495 3 0 1.110000 48.060000 47.790000 0 0 0
1486 496 4 0 1.910000 48.260000 49.880000 0 0 0
1487 496 3 0 1.700000 47.700000 50.330000 0 0 0
1488 496 3 0 2.120000 48.810000 49.430000 0 0 0
1489 497 4 0 2.260000 48.420000 52.400000 0 0 0
1490 497 3 0 2.120000 47.800000 52.820000 0 0 0
1491 497 3 0 2.400000 49.040000 51.990000 0 0 0
1492 498 1 0 1.710000 48.510000 54.690000 0 0 0
1493 498 3 0 1.400000 47.900000 55.140000 0 0 0
1494 498 2 0 1.990000 49.070000 54.270000 0 0 0
1495 499 1 0 45.720000 29.820000 25.280000 0 0 0
1496 499 2 0 45.910000 30.510000 25.510000 0 0 0
1497 499 3 0 45.520000 29.080000 25.030000 0 0 0
1498 500 4 0 44.600000 31.580000 23.810000 0 0 0
1499 500 3 0 44.490000 32.300000 24.090000 0 0 0
1500 500 3 0 44.710000 30.860000 23.530000 0 0 0
1501 501 4 0 44.070000 33.560000 22.180000 0 0 0
1502 501 3 0 44.800000 33.410000 22.070000 0 0 0
1503 501 3 0 43.340000 33.700000 22.290000 0 0 0
1504 502 4 0 43.280000 35.830000 21.640000 0 0 0
1505 502 3 0 43.070000 35.280000 22.090000 0 0 0
1506 502 3 0 43.490000 36.390000 21.190000 0 0 0
1507 503 4 0 42.500000 37.990000 21.270000 0 0 0
1508 503 3 0 42.360000 37.370000 21.680000 0 0 0
1509 503 3 0 42.640000 38.610000 20.850000 0 0 0
1510 504 1 0 42.500000 39.760000 23.120000 0 0 0
1511 504 3 0 42.190000 39.150000 23.570000 0 0 0
1512 504 2 0 42.780000 40.320000 22.700000 0 0 0
1513 505 1 0 42.630000 30.100000 52.220000 0 0 0
1514 505 2 0 42.820000 30.790000 52.450000 0 0 0
1515 505 3 0 42.430000 29.360000 51.970000 0 0 0
1516 506 4 0 42.930000 31.100000 49.920000 0 0 0
1517 506 3 0 42.820000 31.820000 50.210000 0 0 0
1518 506 3 0 43.040000 30.380000 49.630000 0 0 0
1519 507 4 0 44.610000 30.520000 48.260000 0 0 0
1520 507 3 0 45.340000 30.380000 48.140000 0 0 0
1521 507 3 0 43.880000 30.670000 48.370000 0 0 0
1522 508 4 0 46.350000 29.780000 46.560000 0 0 0
1523 508 3 0 46.140000 29.230000 47.010000 0 0 0
1524 508 3 0 46.560000 30.340000 46.110000 0 0 0
1525 509 4 0 47.150000 28.110000 45.270000 0 0 0
1526 509 3 0 47.000000 27.490000 45.690000 0 0 0
1527 509 3 0 47.290000 28.730000 44.860000 0 0 0
1528 510 1 0 47.500000 26.370000 43.490000 0 0 0
1529 510 3 0 47.190000 25.760000 43.940000 0 0 0
1530 510 2 0 47.780000 26.930000 43.070000 0 0 0
1531 511 1 0 52.410000 15.030000 26.900000 0 0 0
1532 511 2 0 52.600000 15.720000 27.130000 0 0 0
1533 511 3 0 52.210000 14.290000 26.650000 0 0 0
1534 512 4 0 50.950000 15.010000 29.020000 0 0 0
1535 512 3 0 50.840000 15.730000 29.310000 0 0 0
1536 512 3 0 51.060000 14.290000 28.730000 0 0 0
1537 513 4 0 50.350000 17.020000 30.370000 0 0 0
1538 513 3 0 51.080000 16.880000 30.260000 0 0 0
1539 513 3 0 49.620000 17.160000 30.480000 0 0 0
1540 514 4 0 50.870000 19.290000 31.040000 0 0 0
1541 514 3 0 50.660000 18.730000 31.490000 0 0 0
1542 514 3 0 51.080000 19.850000 30.590000 0 0 0
1543 515 4 0 50.130000 21.150000 32.120000 0 0 0
1544 515 3 0 49.980000 20.530000 32.540000 0 0 0
1545 515 3 0 50.270000 21.770000 31.710000 0 0 0
1546 516 1 0 49.770000 23.350000 33.270000 0 0 0
1547 516 3 0 49.460000 22.740000 33.720000 0 0 0
1548 516 2 0 50.050000 23.910000 32.850000 0 0 0
1549 517 1 0 57.380000 54.460000 34.480000 0 0 0
1550 517 2 0 0.032400 55.150000 34.710000 1 0 0
1551 517 3 0 57.180000 53.720000 34.230000 0 0 0
1552 518 4 0 1.570000 54.700000 35.920000 1 0 0
1553 518 3 0 1.460000 55.420000 36.200000 1 0 0
1554 518 3 0 1.680000 53.980000 35.640000 1 0 0
1555 519 4 0 2.950000 54.260000 38.060000 1 0 0
1556 519 3 0 3.680000 54.120000 37.950000 1 0 0
1557 519 3 0 2.220000 54.410000 38.170000 1 0 0
1558 520 4 0 3.710000 52.110000 39.110000 1 0 0
1559 520 3 0 3.500000 51.550000 39.560000 1 0 0
1560 520 3 0 3.920000 52.670000 38.660000 1 0 0
1561 521 4 0 4.230000 49.840000 40.000000 1 0 0
1562 521 3 0 4.090000 49.220000 40.420000 1 0 0
1563 521 3 0 4.370000 50.460000 39.580000 1 0 0
1564 522 1 0 6.130000 48.190000 40.500000 1 0 0
1565 522 3 0 5.820000 47.580000 40.950000 1 0 0
1566 522 2 0 6.410000 48.750000 40.080000 1 0 0
1567 523 1 0 6.040000 9.460000 45.320000 0 0 0
1568 523 2 0 6.230000 10.150000 45.550000 0 0 0
1569 523 3 0 5.840000 8.720000 45.070000 0 0 0
1570 524 4 0 5.020000 9.930000 43.400000 0 0 0
1571 524 3 0 4.910000 10.650000 43.690000 0 0 0
1572 524 3 0 5.130000 9.210000 43.110000 0 0 0
1573 525 4 0 3.860000 9.220000 41.380000 0 0 0
1574 525 3 0 4.590000 9.070000 41.270000 0 0 0
1575 525 3 0 3.130000 9.360000 41.490000 0 0 0
1576 526 4 0 3.080000 9.600000 39.280000 0 0 0
1577 526 3 0 2.870000 9.040000 39.730000 0 0 0
1578 526 3 0 3.290000 10.150000 38.830000 0 0 0
1579 527 4 0 1.610000 9.480000 37.500000 0 0 0
1580 527 3 0 1.470000 8.860000 37.920000 0 0 0
1581 527 3 0 1.750000 10.100000 37.080000 0 0 0
1582 528 1 0 57.350000 8.430000 36.380000 -1 0 0
1583 528 3 0 57.040000 7.820000 36.830000 -1 0 0
1584 528 2 0 0.092400 8.990000 35.960000 0 0 0
1585 529 1 0 45.460000 4.120000 41.630000 0 0 0
1586 529 2 0 45.650000 4.810000 41.860000 0 0 0
1587 529 3 0 45.260000 3.380000 41.380000 0 0 0
1588 530 4 0 43.240000 4.270000 42.780000 0 0 0
1589 530 3 0 43.130000 4.990000 43.060000 0 0 0
1590 530 3 0 43.350000 3.550000 42.490000 0 0 0
1591 531 4 0 41.640000 5.290000 44.380000 0 0 0
1592 531 3 0 42.370000 5.140000 44.260000 0 0 0
1593 531 3 0 40.910000 5.430000 44.490000 0 0 0
1594 532 4 0 39.860000 6.620000 43.990000 0 0 0
1595 532 3 0 39.650000 6.070000 44.440000 0 0 0
1596 532 3 0 40.070000 7.180000 43.540000 0 0 0
1597 533 4 0 38.280000 8.240000 43.260000 0 0 0
1598 533 3 0 38.130000 7.620000 43.670000 0 0 0
1599 533 3 0 38.420000 8.860000 42.840000 0 0 0
1600 534 1 0 36.770000 10.210000 42.550000 0 0 0
1601 534 3 0 36.460000 9.600000 43.000000 0 0 0
1602 534 2 0 37.050000 10.770000 42.130000 0 0 0
1603 535 1 0 13.000000 36.500000 51.400000 0 0 0
1604 535 2 0 13.190000 37.190000 51.630000 0 0 0
1605 535 3 0 12.800000 35.760000 51.150000 0 0 0
1606 536 4 0 14.870000 37.900000 50.550000 0 0 0
1607 536 3 0 14.760000 38.620000 50.830000 0 0 0
1608 536 3 0 14.980000 37.180000 50.260000 0 0 0
1609 537 4 0 16.950000 39.120000 49.750000 0 0 0
1610 537 3 0 17.680000 38.970000 49.630000 0 0 0
1611 537 3 0 16.220000 39.260000 49.860000 0 0 0
1612 538 4 0 18.530000 40.090000 48.530000 0 0 0
1613 538 3 0 18.320000 39.540000 48.980000 0 0 0
1614 538 3 0 18.740000 40.650000 48.080000 0 0 0
1615 539 4 0 19.300000 41.390000 46.450000 0 0 0
1616 539 3 0 19.150000 40.770000 46.860000 0 0 0
1617 539 3 0 19.440000 42.010000 46.030000 0 0 0
1618 540 1 0 19.030000 43.410000 45.010000 0 0 0
1619 540 3 0 18.720000 42.800000 45.460000 0 0 0
1620 540 2 0 19.310000 43.970000 44.590000 0 0 0
1621 541 1 0 35.210000 27.850000 11.210000 0 0 0
1622 541 2 0 35.400000 28.540000 11.440000 0 0 0
1623 541 3 0 35.010000 27.110000 10.960000 0 0 0
1624 542 4 0 33.420000 27.600000 9.860000 0 0 0
1625 542 3 0 33.310000 28.320000 10.140000 0 0 0
1626 542 3 0 33.530000 26.880000 9.580000 0 0 0
1627 543 4 0 31.780000 25.840000 8.970000 0 0 0
1628 543 3 0 32.510000 25.700000 8.860000 0 0 0
1629 543 3 0 31.050000 25.990000 9.090000 0 0 0
1630 544 4 0 30.750000 23.930000 7.720000 0 0 0
1631 544 3 0 30.540000 23.370000 8.170000 0 0 0
1632 544 3 0 30.960000 24.480000 7.270000 0 0 0
1633 545 4 0 30.600000 22.860000 5.410000 0 0 0
1634 545 3 0 30.460000 22.240000 5.830000 0 0 0
1635 545 3 0 30.750000 23.480000 5.000000 0 0 0
1636 546 1 0 31.210000 21.600000 3.260000 0 0 0
1637 546 3 0 30.900000 20.990000 3.710000 0 0 0
1638 546 2 0 31.490000 22.160000 2.840000 0 0 0
1639 547 1 0 28.880000 23.200000 42.370000 0 0 0
1640 547 2 0 29.070000 23.890000 42.600000 0 0 0
1641 547 3 0 28.680000 22.460000 42.120000 0 0 0
1642 548 4 0 26.960000 22.760000 41.170000 0 0 0
1643 548 3 0 26.850000 23.480000 41.460000 0 0 0
1644 548 3 0 27.070000 22.040000 40.880000 0 0 0
1645 549 4 0 25.470000 21.760000 39.550000 0 0 0
1646 549 3 0 26.200000 21.620000 39.440000 0 0 0
1647 549 3 0 24.740000 21.910000 39.660000 0 0 0
1648 550 4 0 23.330000 20.410000 39.160000 0 0 0
1649 550 3 0 23.120000 19.860000 39.610000 0 0 0
1650 550 3 0 23.540000 20.960000 38.710000 0 0 0
1651 551 4 0 22.350000 18.700000 40.840000 0 0 0
1652 551 3 0 22.200000 18.080000 41.250000 0 0 0
1653 551 3 0 22.490000 19.320000 40.420000 0 0 0
1654 552 1 0 21.420000 17.040000 42.060000 0 0 0
1655 552 3 0 21.110000 16.430000 42.510000 0 0 0
1656 552 2 0 21.700000 17.600000 41.640000 0 0 0
1657 553 1 0 20.820000 26.590000 7.270000 0 0 0
1658 553 2 0 21.010000 27.280000 7.500000 0 0 0
1659 553 3 0 20.620000 25.850000 7.020000 0 0 0
1660 554 4 0 21.210000 28.590000 6.070000 0 0 0
1661 554 3 0 21.100000 29.310000 6.350000 0 0 0
1662 554 3 0 21.320000 27.870000 5.790000 0 0 0
1663 555 4 0 20.590000 30.810000 6.100000 0 0 0
1664 555 3 0 21.320000 30.670000 5.990000 0 0 0
1665 555 3 0 19.860000 30.950000 6.220000 0 0 0
1666 556 4 0 19.710000 32.900000 7.220000 0 0 0
1667 556 3 0 19.500000 32.350000 7.670000 0 0 0
1668 556 3 0 19.920000 33.450000 6.770000 0 0 0
1669 557 4 0 18.570000 35.080000 7.350000 0 0 0
1670 557 3 0 18.430000 34.460000 7.770000 0 0 0
1671 557 3 0 18.710000 35.700000 6.940000 0 0 0
1672 558 1 0 17.580000 37.000000 6.850000 0 0 0
1673 558 3 0 17.270000 36.390000 7.300000 0 0 0
1674 558 2 0 17.860000 37.560000 6.430000 0 0 0
1675 559 1 0 12.290000 3.800000 24.510000 0 0 0
1676 559 2 0 12.480000 4.490000 24.740000 0 0 0
1677 559 3 0 12.090000 3.060000 24.260000 0 0 0
1678 560 4 0 11.250000 2.750000 26.140000 0 0 0
1679 560 3 0 11.140000 3.470000 26.430000 0 0 0
1680 560 3 0 11.360000 2.030000 25.850000 0 0 0
1681 561 4 0 9.770000 1.730000 27.980000 0 0 0
1682 561 3 0 10.500000 1.580000 27.870000 0 0 0
1683 561 3 0 9.040000 1.870000 28.090000 0 0 0
1684 562 4 0 7.660000 0.380000 27.600000 0 0 0
1685 562 3 0 7.450000 57.367600 28.050000 0 -1 0
1686 562 3 0 7.870000 0.930000 27.150000 0 0 0
1687 563 4 0 5.440000 0.740000 26.510000 0 0 0
1688 563 3 0 5.300000 0.120000 26.920000 0 0 0
1689 563 3 0 5.580000 1.360000 26.090000 0 0 0
1690 564 1 0 3.390000 0.350000 25.140000 0 0 0
1691 564 3 0 3.080000 57.277600 25.590000 0 -1 0
1692 564 2 0 3.670000 0.910000 24.720000 0 0 0
1693 565 1 0 56.810000 8.610000 41.350000 0 0 0
1694 565 2 0 57.000000 9.300000 41.580000 0 0 0
1695 565 3 0 56.610000 7.870000 41.100000 0 0 0
1696 566 4 0 55.050000 8.980000 43.120000 0 0 0
1697 566 3 0 54.940000 9.700000 43.410000 0 0 0
1698 566 3 0 55.160000 8.260000 42.840000 0 0 0
1699 567 4 0 54.010000 10.860000 44.390000 0 0 0
1700 567 3 0 54.740000 10.710000 44.280000 0 0 0
1701 567 3 0 53.280000 11.010000 44.500000 0 0 0
1702 568 4 0 52.440000 12.290000 45.660000 0 0 0
1703 568 3 0 52.230000 11.740000 46.110000 0 0 0
1704 568 3 0 52.650000 12.840000 45.210000 0 0 0
1705 569 4 0 52.070000 13.600000 47.400000 0 0 0
1706 569 3 0 51.920000 12.980000 47.820000 0 0 0
1707 569 3 0 52.210000 14.220000 46.990000 0 0 0
1708 570 1 0 52.130000 14.720000 49.610000 0 0 0
1709 570 3 0 51.820000 14.110000 50.060000 0 0 0
1710 570 2 0 52.410000 15.280000 49.190000 0 0 0
1711 571 1 0 54.840000 49.570000 47.460000 0 0 0
1712 571 2 0 55.030000 50.260000 47.690000 0 0 0
1713 571 3 0 54.640000 48.830000 47.210000 0 0 0
1714 572 4 0 52.620000 49.510000 48.210000 0 0 0
1715 572 3 0 52.510000 50.230000 48.490000 0 0 0
1716 572 3 0 52.730000 48.790000 47.920000 0 0 0
1717 573 4 0 50.580000 49.270000 48.850000 0 0 0
1718 573 3 0 51.310000 49.120000 48.730000 0 0 0
1719 573 3 0 49.850000 49.410000 48.960000 0 0 0
1720 574 4 0 48.580000 50.570000 47.930000 0 0 0
1721 574 3 0 48.370000 50.020000 48.380000 0 0 0
1722 574 3 0 48.790000 51.130000 47.480000 0 0 0
1723 575 4 0 46.400000 51.830000 48.090000 0 0 0
1724 575 3 0 46.250000 51.210000 48.510000 0 0 0
1725 575 3 0 46.540000 52.450000 47.680000 0 0 0
1726 576 1 0 44.880000 53.540000 47.040000 0 0 0
1727 576 3 0 44.570000 52.930000 47.490000 0 0 0
1728 576 2 0 45.160000 54.100000 46.620000 0 0 0
1729 577 1 0 0.740000 15.580000 46.540000 0 0 0
1730 577 2 0 0.930000 16.270000 46.770000 0 0 0
1731 577 3 0 0.540000 14.840000 46.290000 0 0 0
1732 578 4 0 0.010000 17.740000 46.290000 0 0 0
1733 578 3 0 57.437600 18.460000 46.570000 -1 0 0
1734 578 3 0 0.120000 17.020000 46.000000 0 0 0
1735 579 4 0 0.430000 19.850000 46.700000 0 0 0
1736 579 3 0 1.160000 19.700000 46.590000 0 0 0
1737 579 3 0 57.237600 20.000000 46.810000 -1 0 0
1738 580 4 0 2.560000 21.170000 45.910000 0 0 0
1739 580 3 0 2.350000 20.620000 46.360000 0 0 0
1740 580 3 0 2.770000 21.720000 45.460000 0 0 0
1741 581 4 0 4.440000 22.370000 45.840000 0 0 0
1742 581 3 0 4.300000 21.750000 46.250000 0 0 0
1743 581 3 0 4.580000 22.990000 45.420000 0 0 0
1744 582 1 0 6.320000 23.490000 45.930000 0 0 0
1745 582 3 0 6.010000 22.880000 46.380000 0 0 0
1746 582 2 0 6.600000 24.050000 45.510000 0 0 0
1747 583 1 0 54.810000 46.280000 44.160000 0 0 0
1748 583 2 0 55.000000 46.970000 44.390000 0 0 0
1749 583 3 0 54.610000 45.540000 43.910000 0 0 0
1750 584 4 0 56.260000 44.450000 43.330000 0 0 0
1751 584 3 0 56.150000 45.170000 43.620000 0 0 0
1752 584 3 0 56.370000 43.730000 43.040000 0 0 0
1753 585 4 0 0.380000 42.450000 43.670000 1 0 0
1754 585 3 0 1.110000 42.310000 43.560000 1 0 0
1755 585 3 0 57.187600 42.600000 43.780000 0 0 0
1756 586 4 0 1.070000 42.060000 46.030000 1 0 0
1757 586 3 0 0.860000 41.510000 46.480000 1 0 0
1758 586 3 0 1.280000 42.620000 45.580000 1 0 0
1759 587 4 0 0.420000 43.640000 47.550000 1 0 0
1760 587 3 0 0.280000 43.020000 47.960000 1 0 0
1761 587 3 0 0.560000 44.260000 47.130000 1 0 0
1762 588 1 0 55.850000 44.400000 48.590000 0 0 0
1763 588 3 0 55.540000 43.790000 49.040000 0 0 0
1764 588 2 0 56.130000 44.960000 48.170000 0 0 0
1765 589 1 0 23.420000 26.890000 42.030000 0 0 0
1766 589 2 0 23.610000 27.580000 42.260000 0 0 0
1767 589 3 0 23.220000 26.150000 41.780000 0 0 0
1768 590 4 0 21.460000 27.600000 43.020000 0 0 0
1769 590 3 0 21.350000 28.320000 43.300000 0 0 0
1770 590 3 0 21.570000 26.880000 42.730000 0 0 0
1771 591 4 0 19.490000 28.530000 44.270000 0 0 0
1772 591 3 0 20.220000 28.390000 44.150000 0 0 0
1773 591 3 0 18.760000 28.680000 44.380000 0 0 0
1774 592 4 0 18.380000 29.380000 46.070000 0 0 0
1775 592 3 0 18.170000 28.830000 46.520000 0 0 0
1776 592 3 0 18.590000 29.940000 45.620000 0 0 0
1777 593 4 0 18.230000 29.560000 48.710000 0 0 0
1778 593 3 0 18.080000 28.940000 49.130000 0 0 0
1779 593 3 0 18.370000 30.180000 48.300000 0 0 0
1780 594 1 0 19.850000 30.380000 50.210000 0 0 0
1781 594 3 0 19.540000 29.770000 50.660000 0 0 0
1782 594 2 0 20.130000 30.940000 49.790000 0 0 0
1783 595 1 0 0.850000 49.010000 7.900000 0 0 0
1784 595 2 0 1.040000 49.700000 8.130000 0 0 0
1785 595 3 0 0.650000 48.270000 7.650000 0 0 0
1786 596 4 0 3.030000 50.070000 8.550000 0 0 0
1787 596 3 0 2.920000 50.790000 8.830000 0 0 0
1788 596 3 0 3.140000 49.350000 8.270000 0 0 0
1789 597 4 0 4.950000 50.450000 9.560000 0 0 0
1790 597 3 0 5.680000 50.300000 9.450000 0 0 0
1791 597 3 0 4.220000 50.590000 9.680000 0 0 0
1792 598 4 0 6.850000 50.890000 10.690000 0 0 0
1793 598 3 0 6.640000 50.340000 11.140000 0 0 0
1794 598 3 0 7.060000 51.450000 10.240000 0 0 0
1795 599 4 0 8.000000 50.870000 12.880000 0 0 0
1796 599 3 0 7.860000 50.250000 13.300000 0 0 0
1797 599 3 0 8.150000 51.490000 12.470000 0 0 0
1798 600 1 0 7.730000 50.340000 15.330000 0 0 0
1799 600 3 0 7.420000 49.730000 15.780000 0 0 0
1800 600 2 0 8.010000 50.900000 14.910000 0 0 0
1801 601 1 0 24.710000 13.470000 57.500000 0 0 0
1802 601 2 0 24.900000 14.160000 0.192400 0 0 1
1803 601 3 0 24.510000 12.730000 57.250000 0 0 0
1804 602 4 0 25.260000 15.360000 56.100000 0 0 0
1805 602 3 0 25.150000 16.080000 56.390000 0 0 0
1806 602 3 0 25.370000 14.640000 55.820000 0 0 0
1807 603 4 0 25.320000 17.420000 54.770000 0 0 0
1808 603 3 0 26.050000 17.280000 54.660000 0 0 0
1809 603 3 0 24.590000 17.560000 54.890000 0 0 0
1810 604 4 0 24.530000 19.400000 55.670000 0 0 0
1811 604 3 0 24.320000 18.850000 56.120000 0 0 0
1812 604 3 0 24.740000 19.950000 55.220000 0 0 0
1813 605 4 0 24.010000 21.630000 56.050000 0 0 0
1814 605 3 0 23.860000 21.010000 56.470000 0 0 0
1815 605 3 0 24.150000 22.250000 55.640000 0 0 0
1816 606 1 0 23.770000 23.800000 56.150000 0 0 0
1817 606 3 0 23.460000 23.190000 56.600000 0 0 0
1818 606 2 0 24.050000 24.360000 55.730000 0 0 0
1819 607 1 0 3.630000 32.050000 51.910000 0 0 0
1820 607 2 0 3.820000 32.740000 52.140000 0 0 0
1821 607 3 0 3.430000 31.310000 51.660000 0 0 0
1822 608 4 0 2.540000 31.770000 49.760000 0 0 0
1823 608 3 0 2.430000 32.490000 50.050000 0 0 0
1824 608 3 0 2.650000 31.050000 49.470000 0 0 0
1825 609 4 0 2.550000 29.760000 48.570000 0 0 0
1826 609 3 0 3.280000 29.620000 48.460000 0 0 0
1827 609 3 0 1.820000 29.900000 48.690000 0 0 0
1828 610 4 0 2.000000 28.330000 47.040000 0 0 0
1829 610 3 0 1.790000 27.780000 47.490000 0 0 0
1830 610 3 0 2.210000 28.890000 46.590000 0 0 0
1831 611 4 0 1.220000 26.520000 45.650000 0 0 0
1832 611 3 0 1.080000 25.900000 46.070000 0 0 0
1833 611 3 0 1.360000 27.140000 45.240000 0 0 0
1834 612 1 0 0.170000 24.440000 44.750000 0 0 0
1835 612 3 0 57.397600 23.830000 45.200000 -1 0 0
1836 612 2 0 0.450000 25.000000 44.330000 0 0 0
1837 613 1 0 28.440000 32.450000 26.200000 0 0 0
1838 613 2 0 28.630000 33.140000 26.430000 0 0 0
1839 613 3 0 28.240000 31.710000 25.950000 0 0 0
1840 614 4 0 29.690000 32.720000 24.170000 0 0 0
1841 614 3 0 29.580000 33.440000 24.460000 0 0 0
1842 614 3 0 29.800000 32.000000 23.880000 0 0 0
1843 615 4 0 32.240000 32.920000 24.200000 0 0 0
1844 615 3 0 32.970000 32.770000 24.090000 0 0 0
1845 615 3 0 31.510000 33.060000 24.310000 0 0 0
1846 616 4 0 33.230000 34.560000 23.050000 0 0 0
1847 616 3 0 33.020000 34.010000 23.500000 0 0 0
1848 616 3 0 33.440000 35.110000 22.600000 0 0 0
1849 617 4 0 33.710000 36.830000 22.460000 0 0 0
1850 617 3 0 33.570000 36.210000 22.880000 0 0 0
1851 617 3 0 33.850000 37.450000 22.050000 0 0 0
1852 618 1 0 32.910000 39.130000 21.710000 0 0 0
1853 618 3 0 32.600000 38.520000 22.160000 0 0 0
1854 618 2 0 33.190000 39.690000 21.290000 0 0 0
1855 619 1 0 39.650000 49.620000 16.880000 0 0 0
1856 619 2 0 39.840000 50.310000 17.110000 0 0 0
1857 619 3 0 39.450000 48.880000 16.630000 0 0 0
1858 620 4 0 39.010000 47.290000 16.140000 0 0 0
1859 620 3 0 38.900000 48.010000 16.430000 0 0 0
1860 620 3 0 39.120000 46.570000 15.860000 0 0 0
1861 621 4 0 37.900000 45.070000 15.520000 0 0 0
1862 621 3 0 38.630000 44.920000 15.410000 0 0 0
1863 621 3 0 37.170000 45.210000 15.640000 0 0 0
1864 622 4 0 35.590000 45.190000 16.230000 0 0 0
1865 622 3 0 35.380000 44.630000 16.680000 0 0 0
1866 622 3 0 35.800000 45.750000 15.780000 0 0 0
1867 623 4 0 34.500000 46.940000 17.510000 0 0 0
1868 623 3 0 34.360000 46.320000 17.920000 0 0 0
1869 623 3 0 34.650000 47.560000 17.100000 0 0 0
1870 624 1 0 33.680000 48.600000 19.280000 0 0 0
1871 624 3 0 33.370000 47.990000 19.730000 0 0 0
1872 624 2 0 33.960000 49.160000 18.860000 0 0 0
1873 625 1 0 15.350000 21.420000 7.010000 0 0 0
1874 625 2 0 15.540000 22.110000 7.240000 0 0 0
1875 625 3 0 15.150000 20.680000 6.760000 0 0 0
1876 626 4 0 16.170000 23.290000 6.210000 0 0 0
1877 626 3 0 16.060000 24.010000 6.490000 0 0 0
1878 626 3 0 16.280000 22.570000 5.930000 0 0 0
1879 627 4 0 16.080000 25.110000 4.880000 0 0 0
1880 627 3 0 16.810000 24.970000 4.770000 0 0 0
1881 627 3 0 15.350000 25.260000 5.000000 0 0 0
1882 628 4 0 15.430000 26.770000 3.530000 0 0 0
1883 628 3 0 15.220000 26.220000 3.980000 0 0 0
1884 628 3 0 15.640000 27.320000 3.080000 0 0 0
1885 629 4 0 13.770000 26.270000 1.640000 0 0 0
1886 629 3 0 13.630000 25.650000 2.060000 0 0 0
1887 629 3 0 13.910000 26.890000 1.230000 0 0 0
1888 630 1 0 12.750000 24.900000 57.350000 0 0 -1
1889 630 3 0 12.440000 24.290000 0.262400 0 0 0
1890 630 2 0 13.030000 25.460000 56.930000 0 0 -1
1891 631 1 0 19.290000 29.360000 1.930000 0 0 0
1892 631 2 0 19.480000 30.050000 2.160000 0 0 0
1893 631 3 0 19.090000 28.620000 1.680000 0 0 0
1894 632 4 0 19.650000 26.910000 1.400000 0 0 0
1895 632 3 0 19.540000 27.630000 1.680000 0 0 0
1896 632 3 0 19.760000 26.190000 1.120000 0 0 0
1897 633 4 0 20.260000 24.710000 2.440000 0 0 0
1898 633 3 0 20.990000 24.570000 2.330000 0 0 0
1899 633 3 0 19.530000 24.860000 2.560000 0 0 0
1900 634 4 0 20.600000 22.600000 3.820000 0 0 0
1901 634 3 0 20.390000 22.040000 4.270000 0 0 0
1902 634 3 0 20.810000 23.150000 3.370000 0 0 0
1903 635 4 0 21.990000 20.610000 3.130000 0 0 0
1904 635 3 0 21.840000 19.990000 3.550000 0 0 0
1905 635 3 0 22.130000 21.230000 2.720000 0 0 0
1906 636 1 0 23.480000 18.670000 2.300000 0 0 0
1907 636 3 0 23.170000 18.060000 2.750000 0 0 0
1908 636 2 0 23.760000 19.230000 1.880000 0 0 0
1909 637 1 0 19.250000 24.890000 48.140000 0 0 0
1910 637 2 0 19.440000 25.580000 48.370000 0 0 0
1911 637 3 0 19.050000 24.150000 47.890000 0 0 0
1912 638 4 0 21.570000 25.670000 47.650000 0 0 0
1913 638 3 0 21.460000 26.390000 47.930000 0 0 0
1914 638 3 0 21.680000 24.950000 47.360000 0 0 0
1915 639 4 0 23.350000 27.280000 47.590000 0 0 0
1916 639 3 0 24.080000 27.140000 47.480000 0 0 0
1917 639 3 0 22.620000 27.430000 47.710000 0 0 0
1918 640 4 0 24.340000 28.150000 49.310000 0 0 0
1919 640 3 0 24.130000 27.600000 49.760000 0 0 0
1920 640 3 0 24.550000 28.700000 48.860000 0 0 0
1921 641 4 0 25.010000 29.300000 51.580000 0 0 0
1922 641 3 0 24.860000 28.680000 52.000000 0 0 0
1923 641 3 0 25.150000 29.920000 51.170000 0 0 0
1924 642 1 0 25.860000 30.090000 53.920000 0 0 0
1925 642 3 0 25.550000 29.480000 54.370000 0 0 0
1926 642 2 0 26.140000 30.650000 53.500000 0 0 0
1927 643 1 0 43.170000 16.910000 11.970000 0 0 0
1928 643 2 0 43.360000 17.600000 12.200000 0 0 0
1929 643 3 0 42.970000 16.170000 11.720000 0 0 0
1930 644 4 0 42.300000 14.860000 13.160000 0 0 0
1931 644 3 0 42.190000 15.580000 13.450000 0 0 0
1932 644 3 0 42.410000 14.140000 12.880000 0 0 0
1933 645 4 0 41.270000 12.800000 14.120000 0 0 0
1934 645 3 0 42.000000 12.650000 14.010000 0 0 0
1935 645 3 0 40.540000 12.940000 14.230000 0 0 0
1936 646 4 0 40.100000 10.950000 13.780000 0 0 0
1937 646 3 0 39.890000 10.390000 14.230000 0 0 0
1938 646 3 0 40.310000 11.510000 13.330000 0 0 0
1939 647 4 0 40.170000 8.930000 15.230000 0 0 0
1940 647 3 0 40.030000 8.310000 15.650000 0 0 0
1941 647 3 0 40.320000 9.550000 14.820000 0 0 0
1942 648 1 0 40.540000 6.790000 16.450000 0 0 0
1943 648 3 0 40.230000 6.180000 16.900000 0 0 0
1944 648 2 0 40.820000 7.350000 16.030000 0 0 0
1945 649 1 0 25.740000 23.810000 19.070000 0 0 0
1946 649 2 0 25.930000 24.500000 19.300000 0 0 0
1947 649 3 0 25.540000 23.070000 18.820000 0 0 0
1948 650 4 0 27.440000 24.830000 18.130000 0 0 0
1949 650 3 0 27.330000 25.550000 18.410000 0 0 0
1950 650 3 0 27.550000 24.110000 17.840000 0 0 0
1951 651 4 0 27.800000 25.820000 16.120000 0 0 0
1952 651 3 0 28.530000 25.670000 16.010000 0 0 0
1953 651 3 0 27.070000 25.960000 16.240000 0 0 0
1954 652 4 0 27.600000 26.620000 13.690000 0 0 0
1955 652 3 0 27.390000 26.070000 14.140000 0 0 0
1956 652 3 0 27.810000 27.170000 13.240000 0 0 0
1957 653 4 0 27.560000 26.950000 11.470000 0 0 0
1958 653 3 0 27.410000 26.330000 11.890000 0 0 0
1959 653 3 0 27.700000 27.570000 11.060000 0 0 0
1960 654 1 0 27.720000 27.580000 9.100000 0 0 0
1961 654 3 0 27.410000 26.970000 9.550000 0 0 0
1962 654 2 0 28.000000 28.140000 8.680000 0 0 0
1963 655 1 0 20.130000 38.690000 26.730000 0 0 0
1964 655 2 0 20.320000 39.380000 26.960000 0 0 0
1965 655 3 0 19.930000 37.950000 26.480000 0 0 0
1966 656 4 0 19.550000 37.350000 24.630000 0 0 0
1967 656 3 0 19.440000 38.070000 24.920000 0 0 0
1968 656 3 0 19.660000 36.630000 24.340000 0 0 0
1969 657 4 0 18.760000 35.980000 22.650000 0 0 0
1970 657 3 0 19.490000 35.830000 22.540000 0 0 0
1971 657 3 0 18.030000 36.120000 22.770000 0 0 0
1972 658 4 0 17.660000 34.540000 20.750000 0 0 0
1973 658 3 0 17.450000 33.990000 21.200000 0 0 0
1974 658 3 0 17.870000 35.100000 20.300000 0 0 0
1975 659 4 0 17.350000 33.250000 18.920000 0 0 0
1976 659 3 0 17.210000 32.630000 19.330000 0 0 0
1977 659 3 0 17.500000 33.870000 18.510000 0 0 0
1978 660 1 0 17.110000 34.250000 16.570000 0 0 0
1979 660 3 0 16.800000 33.640000 17.020000 0 0 0
1980 660 2 0 17.390000 34.810000 16.150000 0 0 0
1981 661 1 0 22.150000 51.140000 21.600000 0 0 0
1982 661 2 0 22.340000 51.830000 21.830000 0 0 0
1983 661 3 0 21.950000 50.400000 21.350000 0 0 0
1984 662 4 0 23.850000 49.520000 21.360000 0 0 0
1985 662 3 0 23.740000 50.240000 21.650000 0 0 0
1986 662 3 0 23.960000 48.800000 21.070000 0 0 0
1987 663 4 0 25.330000 47.620000 21.100000 0 0 0
1988 663 3 0 26.060000 47.470000 20.990000 0 0 0
1989 663 3 0 24.600000 47.760000 21.220000 0 0 0
1990 664 4 0 25.920000 47.740000 18.960000 0 0 0
1991 664 3 0 25.710000 47.180000 19.410000 0 0 0
1992 664 3 0 26.130000 48.300000 18.510000 0 0 0
1993 665 4 0 28.090000 47.020000 18.000000 0 0 0
1994 665 3 0 27.950000 46.400000 18.420000 0 0 0
1995 665 3 0 28.240000 47.640000 17.590000 0 0 0
1996 666 1 0 30.320000 47.990000 17.210000 0 0 0
1997 666 3 0 30.010000 47.380000 17.660000 0 0 0
1998 666 2 0 30.600000 48.550000 16.790000 0 0 0
1999 667 1 0 7.370000 22.290000 57.020000 0 0 0
2000 667 2 0 7.560000 22.980000 57.250000 0 0 0
2001 667 3 0 7.170000 21.550000 56.770000 0 0 0
2002 668 4 0 5.910000 23.690000 0.250000 0 0 1
2003 668 3 0 5.800000 24.410000 0.530000 0 0 1
2004 668 3 0 6.020000 22.970000 57.507600 0 0 0
2005 669 4 0 4.340000 25.290000 0.160000 0 0 1
2006 669 3 0 5.070000 25.140000 0.050000 0 0 1
2007 669 3 0 3.610000 25.430000 0.280000 0 0 1
2008 670 4 0 2.980000 26.970000 0.690000 0 0 1
2009 670 3 0 2.770000 26.420000 1.140000 0 0 1
2010 670 3 0 3.190000 27.520000 0.240000 0 0 1
2011 671 4 0 1.750000 28.790000 1.090000 0 0 1
2012 671 3 0 1.610000 28.170000 1.510000 0 0 1
2013 671 3 0 1.890000 29.410000 0.680000 0 0 1
2014 672 1 0 0.760000 30.650000 1.660000 0 0 1
2015 672 3 0 0.450000 30.040000 2.110000 0 0 1
2016 672 2 0 1.040000 31.210000 1.240000 0 0 1
2017 673 1 0 8.340000 43.510000 27.640000 0 0 0
2018 673 2 0 8.530000 44.200000 27.870000 0 0 0
2019 673 3 0 8.140000 42.770000 27.390000 0 0 0
2020 674 4 0 7.250000 42.390000 29.370000 0 0 0
2021 674 3 0 7.140000 43.110000 29.650000 0 0 0
2022 674 3 0 7.360000 41.670000 29.090000 0 0 0
2023 675 4 0 7.180000 40.910000 31.490000 0 0 0
2024 675 3 0 7.910000 40.770000 31.380000 0 0 0
2025 675 3 0 6.450000 41.060000 31.600000 0 0 0
2026 676 4 0 8.400000 40.850000 33.420000 0 0 0
2027 676 3 0 8.190000 40.290000 33.870000 0 0 0
2028 676 3 0 8.610000 41.410000 32.970000 0 0 0
2029 677 4 0 9.720000 40.610000 35.250000 0 0 0
2030 677 3 0 9.580000 39.990000 35.670000 0 0 0
2031 677 3 0 9.860000 41.230000 34.840000 0 0 0
2032 678 1 0 11.310000 40.020000 36.870000 0 0 0
2033 678 3 0 11.000000 39.410000 37.320000 0 0 0
2034 678 2 0 11.590000 40.580000 36.450000 0 0 0
2035 679 1 0 1.060000 9.160000 29.370000 0 0 0
2036 679 2 0 1.250000 9.850000 29.600000 0 0 0
2037 679 3 0 0.860000 8.420000 29.120000 0 0 0
2038 680 4 0 0.790000 9.740000 31.510000 0 0 0
2039 680 3 0 0.680000 10.460000 31.790000 0 0 0
2040 680 3 0 0.900000 9.020000 31.220000 0 0 0
2041 681 4 0 1.120000 11.770000 32.530000 0 0 0
2042 681 3 0 1.850000 11.630000 32.420000 0 0 0
2043 681 3 0 0.390000 11.920000 32.640000 0 0 0
2044 682 4 0 0.690000 13.380000 34.350000 0 0 0
2045 682 3 0 0.480000 12.830000 34.800000 0 0 0
2046 682 3 0 0.900000 13.930000 33.900000 0 0 0
2047 683 4 0 56.690000 14.800000 35.280000 -1 0 0
2048 683 3 0 56.540000 14.180000 35.700000 -1 0 0
2049 683 3 0 56.830000 15.420000 34.870000 -1 0 0
2050 684 1 0 55.380000 16.460000 36.680000 -1 0 0
2051 684 3 0 55.070000 15.850000 37.130000 -1 0 0
2052 684 2 0 55.660000 17.020000 36.260000 -1 0 0
2053 685 1 0 38.120000 30.260000 39.010000 0 0 0
2054 685 2 0 38.310000 30.950000 39.240000 0 0 0
2055 685 3 0 37.920000 29.520000 38.760000 0 0 0
2056 686 4 0 39.470000 29.210000 40.690000 0 0 0
2057 686 3 0 39.360000 29.930000 40.980000 0 0 0
2058 686 3 0 39.580000 28.490000 40.400000 0 0 0
2059 687 4 0 38.170000 27.430000 42.200000 0 0 0
2060 687 3 0 38.900000 27.280000 42.080000 0 0 0
2061 687 3 0 37.440000 27.570000 42.310000 0 0 0
2062 688 4 0 37.180000 25.890000 43.450000 0 0 0
2063 688 3 0 36.970000 25.340000 43.900000 0 0 0
2064 688 3 0 37.390000 26.440000 43.000000 0 0 0
2065 689 4 0 35.980000 23.750000 42.620000 0 0 0
2066 689 3 0 35.830000 23.130000 43.030000 0 0 0
2067 689 3 0 36.120000 24.370000 42.200000 0 0 0
2068 690 1 0 34.210000 23.000000 41.060000 0 0 0
2069 690 3 0 33.900000 22.390000 41.510000 0 0 0
2070 690 2 0 34.490000 23.560000 40.640000 0 0 0
2071 691 1 0 24.810000 18.910000 7.080000 0 0 0
2072 691 2 0 25.000000 19.600000 7.310000 0 0 0
2073 691 3 0 24.610000 18.170000 6.830000 0 0 0
2074 692 4 0 25.230000 21.120000 7.360000 0 0 0
2075 692 3 0 25.120000 21.840000 7.640000 0 0 0
2076 692 3 0 25.340000 20.400000 7.080000 0 0 0
2077 693 4 0 25.780000 23.390000 7.560000 0 0 0
2078 693 3 0 26.510000 23.250000 7.450000 0 0 0
2079 693 3 0 25.050000 23.530000 7.680000 0 0 0
2080 694 4 0 25.890000 24.930000 6.000000 0 0 0
2081 694 3 0 25.680000 24.380000 6.450000 0 0 0
2082 694 3 0 26.100000 25.480000 5.550000 0 0 0
2083 695 4 0 25.830000 26.430000 4.400000 0 0 0
2084 695 3 0 25.690000 25.810000 4.820000 0 0 0
2085 695 3 0 25.980000 27.050000 3.990000 0 0 0
2086 696 1 0 25.710000 27.540000 2.520000 0 0 0
2087 696 3 0 25.400000 26.930000 2.970000 0 0 0
2088 696 2 0 25.990000 28.100000 2.100000 0 0 0
2089 697 1 0 8.110000 42.950000 56.760000 0 0 0
2090 697 2 0 8.300000 43.640000 56.990000 0 0 0
2091 697 3 0 7.910000 42.210000 56.510000 0 0 0
2092 698 4 0 10.210000 43.660000 56.480000 0 0 0
2093 698 3 0 10.100000 44.380000 56.760000 0 0 0
2094 698 3 0 10.320000 42.940000 56.190000 0 0 0
2095 699 4 0 12.180000 42.330000 57.260000 0 0 0
2096 699 3 0 12.910000 42.180000 57.150000 0 0 0
2097 699 3 0 11.450000 42.470000 57.370000 0 0 0
2098 700 4 0 13.420000 40.650000 1.150000 0 0 1
2099 700 3 0 13.210000 40.100000 1.600000 0 0 1
2100 700 3 0 13.630000 41.210000 0.700000 0 0 1
2101 701 4 0 14.440000 39.030000 2.780000 0 0 1
2102 701 3 0 14.290000 38.410000 3.200000 0 0 1
2103 701 3 0 14.580000 39.650000 2.370000 0 0 1
2104 702 1 0 15.120000 36.770000 3.720000 0 0 1
2105 702 3 0 14.810000 36.160000 4.170000 0 0 1
2106 702 2 0 15.400000 37.330000 3.300000 0 0 1
2107 703 1 0 26.480000 19.170000 49.210000 0 0 0
2108 703 2 0 26.670000 19.860000 49.440000 0 0 0
2109 703 3 0 26.280000 18.430000 48.960000 0 0 0
2110 704 4 0 26.740000 17.180000 50.310000 0 0 0
2111 704 3 0 26.630000 17.900000 50.590000 0 0 0
2112 704 3 0 26.850000 16.460000 50.020000 0 0 0
2113 705 4 0 26.670000 15.140000 51.370000 0 0 0
2114 705 3 0 27.400000 14.990000 51.250000 0 0 0
2115 705 3 0 25.940000 15.280000 51.480000 0 0 0
2116 706 4 0 26.090000 12.980000 51.660000 0 0 0
2117 706 3 0 25.880000 12.430000 52.110000 0 0 0
2118 706 3 0 26.300000 13.530000 51.210000 0 0 0
2119 707 4 0 26.880000 11.380000 53.130000 0 0 0
2120 707 3 0 26.740000 10.760000 53.540000 0 0 0
2121 707 3 0 27.030000 12.000000 52.710000 0 0 0
2122 708 1 0 27.840000 10.510000 55.310000 0 0 0
2123 708 3 0 27.530000 9.900000 55.760000 0 0 0
2124 708 2 0 28.120000 11.070000 54.890000 0 0 0
2125 709 1 0 19.710000 11.030000 46.990000 0 0 0
2126 709 2 0 19.900000 11.720000 47.220000 0 0 0
2127 709 3 0 19.510000 10.290000 46.740000 0 0 0
2128 710 4 0 17.780000 9.790000 46.660000 0 0 0
2129 710 3 0 17.670000 10.510000 46.950000 0 0 0
2130 710 3 0 17.890000 9.070000 46.380000 0 0 0
2131 711 4 0 15.740000 8.330000 46.740000 0 0 0
2132 711 3 0 16.470000 8.180000 46.630000 0 0 0
2133 711 3 0 15.010000 8.470000 46.860000 0 0 0
2134 712 4 0 13.590000 7.380000 45.830000 0 0 0
2135 712 3 0 13.380000 6.820000 46.280000 0 0 0
2136 712 3 0 13.800000 7.930000 45.380000 0 0 0
2137 713 4 0 11.460000 6.770000 44.620000 0 0 0
2138 713 3 0 11.310000 6.150000 45.030000 0 0 0
2139 713 3 0 11.600000 7.390000 44.200000 0 0 0
2140 714 1 0 9.480000 7.380000 43.500000 0 0 0
2141 714 3 0 9.170000 6.770000 43.950000 0 0 0
2142 714 2 0 9.760000 7.940000 43.080000 0 0 0
2143 715 1 0 16.450000 29.330000 19.290000 0 0 0
2144 715 2 0 16.640000 30.020000 19.520000 0 0 0
2145 715 3 0 16.250000 28.590000 19.040000 0 0 0
2146 716 4 0 16.370000 27.450000 17.570000 0 0 0
2147 716 3 0 16.260000 28.170000 17.850000 0 0 0
2148 716 3 0 16.480000 26.730000 17.280000 0 0 0
2149 717 4 0 16.770000 25.730000 15.890000 0 0 0
2150 717 3 0 17.500000 25.580000 15.780000 0 0 0
2151 717 3 0 16.040000 25.870000 16.010000 0 0 0
2152 718 4 0 15.660000 23.770000 14.810000 0 0 0
2153 718 3 0 15.450000 23.210000 15.260000 0 0 0
2154 718 3 0 15.870000 24.320000 14.360000 0 0 0
2155 719 4 0 14.550000 21.940000 13.630000 0 0 0
2156 719 3 0 14.410000 21.320000 14.050000 0 0 0
2157 719 3 0 14.700000 22.560000 13.220000 0 0 0
2158 720 1 0 14.380000 20.070000 11.800000 0 0 0
2159 720 3 0 14.070000 19.460000 12.250000 0 0 0
2160 720 2 0 14.660000 20.630000 11.380000 0 0 0
2161 721 1 0 36.060000 20.210000 20.790000 0 0 0
2162 721 2 0 36.250000 20.900000 21.020000 0 0 0
2163 721 3 0 35.860000 19.470000 20.540000 0 0 0
2164 722 4 0 37.290000 19.750000 18.940000 0 0 0
2165 722 3 0 37.180000 20.470000 19.220000 0 0 0
2166 722 3 0 37.400000 19.030000 18.650000 0 0 0
2167 723 4 0 37.550000 17.710000 18.020000 0 0 0
2168 723 3 0 38.280000 17.560000 17.910000 0 0 0
2169 723 3 0 36.820000 17.850000 18.140000 0 0 0
2170 724 4 0 37.960000 15.770000 16.730000 0 0 0
2171 724 3 0 37.750000 15.220000 17.180000 0 0 0
2172 724 3 0 38.170000 16.320000 16.280000 0 0 0
2173 725 4 0 36.200000 13.960000 16.240000 0 0 0
2174 725 3 0 36.060000 13.340000 16.660000 0 0 0
2175 725 3 0 36.350000 14.580000 15.830000 0 0 0
2176 726 1 0 36.640000 11.490000 16.120000 0 0 0
2177 726 3 0 36.330000 10.880000 16.570000 0 0 0
2178 726 2 0 36.920000 12.050000 15.700000 0 0 0
2179 727 1 0 46.550000 47.230000 26.240000 0 0 0
2180 727 2 0 46.740000 47.920000 26.470000 0 0 0
2181 727 3 0 46.350000 46.490000 25.990000 0 0 0
2182 728 4 0 47.850000 45.830000 27.850000 0 0 0
2183 728 3 0 47.740000 46.550000 28.140000 0 0 0
2184 728 3 0 47.960000 45.110000 27.560000 0 0 0
2185 729 4 0 48.940000 44.110000 29.160000 0 0 0
2186 729 3 0 49.670000 43.960000 29.050000 0 0 0
2187 729 3 0 48.210000 44.250000 29.280000 0 0 0
2188 730 4 0 49.240000 44.250000 31.550000 0 0 0
2189 730 3 0 49.030000 43.690000 32.000000 0 0 0
2190 730 3 0 49.450000 44.810000 31.100000 0 0 0
2191 731 4 0 48.900000 44.630000 34.070000 0 0 0
2192 731 3 0 48.750000 44.010000 34.490000 0 0 0
2193 731 3 0 49.040000 45.250000 33.650000 0 0 0
2194 732 1 0 48.310000 44.990000 36.380000 0 0 0
2195 732 3 0 48.000000 44.380000 36.830000 0 0 0
2196 732 2 0 48.590000 45.550000 35.960000 0 0 0
2197 733 1 0 29.330000 49.490000 37.780000 0 0 0
2198 733 2 0 29.520000 50.180000 38.010000 0 0 0
2199 733 3 0 29.130000 48.750000 37.530000 0 0 0
2200 734 4 0 30.480000 51.250000 39.150000 0 0 0
2201 734 3 0 30.370000 51.970000 39.440000 0 0 0
2202 734 3 0 30.590000 50.530000 38.860000 0 0 0
2203 735 4 0 29.840000 53.570000 39.010000 0 0 0
2204 735 3 0 30.570000 53.430000 38.890000 0 0 0
2205 735 3 0 29.110000 53.720000 39.120000 0 0 0
2206 736 4 0 30.060000 55.860000 39.610000 0 0 0
2207 736 3 0 29.850000 55.300000 40.060000 0 0 0
2208 736 3 0 30.270000 56.420000 39.160000 0 0 0
2209 737 4 0 30.070000 57.480000 41.310000 0 0 0
2210 737 3 0 29.930000 56.860000 41.730000 0 0 0
2211 737 3 0 30.220000 0.562400 40.900000 0 1 0
2212 738 1 0 30.890000 0.950000 43.220000 0 1 0
2213 738 3 0 30.580000 0.340000 43.670000 0 1 0
2214 738 2 0 31.170000 1.510000 42.800000 0 1 0
2215 739 1 0 35.680000 12.240000 34.190000 0 0 0
2216 739 2 0 35.870000 12.930000 34.420000 0 0 0
2217 739 3 0 35.480000 11.500000 33.940000 0 0 0
2218 740 4 0 33.980000 11.270000 33.150000 0 0 0
2219 740 3 0 33.870000 11.990000 33.430000 0 0 0
2220 740 3 0 34.090000 10.550000 32.870000 0 0 0
2221 741 4 0 32.270000 9.900000 33.680000 0 0 0
2222 741 3 0 33.000000 9.750000 33.570000 0 0 0
2223 741 3 0 31.540000 10.040000 33.800000 0 0 0
2224 742 4 0 30.590000 8.170000 32.930000 0 0 0
2225 742 3 0 30.380000 7.610000 33.380000 0 0 0
2226 742 3 0 30.800000 8.720000 32.480000 0 0 0
2227 743 4 0 29.030000 6.260000 33.260000 0 0 0
2228 743 3 0 28.890000 5.640000 33.680000 0 0 0
2229 743 3 0 29.170000 6.880000 32.850000 0 0 0
2230 744 1 0 27.520000 4.520000 33.890000 0 0 0
2231 744 3 0 27.210000 3.910000 34.340000 0 0 0
2232 744 2 0 27.800000 5.080000 33.470000 0 0 0
2233 745 1 0 47.980000 40.110000 29.870000 0 0 0
2234 745 2 0 48.170000 40.800000 30.100000 0 0 0
2235 745 3 0 47.780000 39.370000 29.620000 0 0 0
2236 746 4 0 47.050000 38.800000 28.280000 0 0 0
2237 746 3 0 46.940000 39.520000 28.560000 0 0 0
2238 746 3 0 47.160000 38.080000 28.000000 0 0 0
2239 747 4 0 45.720000 38.190000 26.330000 0 0 0
2240 747 3 0 46.450000 38.040000 26.220000 0 0 0
2241 747 3 0 44.990000 38.330000 26.440000 0 0 0
2242 748 4 0 46.640000 36.680000 24.590000 0 0 0
2243 748 3 0 46.430000 36.130000 25.040000 0 0 0
2244 748 3 0 46.850000 37.240000 24.140000 0 0 0
2245 749 4 0 48.490000 35.650000 23.270000 0 0 0
2246 749 3 0 48.350000 35.030000 23.690000 0 0 0
2247 749 3 0 48.640000 36.270000 22.850000 0 0 0
2248 750 1 0 50.120000 34.490000 22.050000 0 0 0
2249 750 3 0 49.810000 33.880000 22.500000 0 0 0
2250 750 2 0 50.400000 35.050000 21.630000 0 0 0
2251 751 1 0 5.820000 9.650000 5.270000 0 0 0
2252 751 2 0 6.010000 10.340000 5.500000 0 0 0
2253 751 3 0 5.620000 8.910000 5.020000 0 0 0
2254 752 4 0 7.710000 9.020000 4.120000 0 0 0
2255 752 3 0 7.600000 9.740000 4.400000 0 0 0
2256 752 3 0 7.820000 8.300000 3.840000 0 0 0
2257 753 4 0 9.830000 8.450000 2.960000 0 0 0
2258 753 3 0 10.560000 8.300000 2.850000 0 0 0
2259 753 3 0 9.100000 8.590000 3.080000 0 0 0
2260 754 4 0 10.130000 8.320000 0.440000 0 0 0
2261 754 3 0 9.920000 7.760000 0.890000 0 0 0
2262 754 3 0 10.340000 8.870000 57.527600 0 0 -1
2263 755 4 0 10.260000 8.200000 55.680000 0 0 -1
2264 755 3 0 10.120000 7.580000 56.090000 0 0 -1
2265 755 3 0 10.400000 8.820000 55.260000 0 0 -1
2266 756 1 0 9.590000 8.330000 53.550000 0 0 -1
2267 756 3 0 9.280000 7.720000 54.000000 0 0 -1
2268 756 2 0 9.870000 8.890000 53.130000 0 0 -1
2269 757 1 0 45.850000 5.290000 55.790000 0 0 0
2270 757 2 0 46.040000 5.980000 56.020000 0 0 0
2271 757 3 0 45.650000 4.550000 55.540000 0 0 0
2272 758 4 0 44.530000 6.290000 53.870000 0 0 0
2273 758 3 0 44.420000 7.010000 54.150000 0 0 0
2274 758 3 0 44.640000 5.570000 53.580000 0 0 0
2275 759 4 0 44.210000 8.220000 52.200000 0 0 0
2276 759 3 0 44.940000 8.070000 52.080000 0 0 0
2277 759 3 0 43.480000 8.360000 52.310000 0 0 0
2278 760 4 0 42.200000 9.490000 52.300000 0 0 0
2279 760 3 0 41.990000 8.930000 52.750000 0 0 0
2280 760 3 0 42.410000 10.040000 51.850000 0 0 0
2281 761 4 0 39.880000 10.380000 52.570000 0 0 0
2282 761 3 0 39.740000 9.760000 52.980000 0 0 0
2283 761 3 0 40.020000 11.000000 52.150000 0 0 0
2284 762 1 0 38.100000 12.070000 53.380000 0 0 0
2285 762 3 0 37.790000 11.460000 53.830000 0 0 0
2286 762 2 0 38.380000 12.630000 52.960000 0 0 0
2287 763 1 0 6.800000 6.120000 39.020000 0 0 0
2288 763 2 0 6.990000 6.810000 39.250000 0 0 0
2289 763 3 0 6.600000 5.380000 38.770000 0 0 0
2290 764 4 0 8.230000 7.510000 37.600000 0 0 0
2291 764 3 0 8.120000 8.230000 37.880000 0 0 0
2292 764 3 0 8.340000 6.790000 37.310000 0 0 0
2293 765 4 0 8.430000 8.200000 35.500000 0 0 0
2294 765 3 0 9.160000 8.050000 35.380000 0 0 0
2295 765 3 0 7.700000 8.340000 35.610000 0 0 0
2296 766 4 0 8.380000 7.700000 33.110000 0 0 0
2297 766 3 0 8.170000 7.150000 33.560000 0 0 0
2298 766 3 0 8.590000 8.260000 32.660000 0 0 0
2299 767 4 0 8.750000 6.950000 30.870000 0 0 0
2300 767 3 0 8.610000 6.330000 31.290000 0 0 0
2301 767 3 0 8.890000 7.570000 30.460000 0 0 0
2302 768 1 0 8.740000 6.100000 28.510000 0 0 0
2303 768 3 0 8.430000 5.490000 28.960000 0 0 0
2304 768 2 0 9.020000 6.660000 28.090000 0 0 0
2305 769 1 0 55.200000 33.550000 18.870000 0 0 0
2306 769 2 0 55.390000 34.240000 19.100000 0 0 0
2307 769 3 0 55.000000 32.810000 18.620000 0 0 0
2308 770 4 0 53.710000 35.520000 18.840000 0 0 0
2309 770 3 0 53.600000 36.240000 19.120000 0 0 0
2310 770 3 0 53.820000 34.800000 18.550000 0 0 0
2311 771 4 0 52.190000 36.860000 17.910000 0 0 0
2312 771 3 0 52.920000 36.710000 17.800000 0 0 0
2313 771 3 0 51.460000 37.000000 18.020000 0 0 0
2314 772 4 0 51.050000 38.810000 16.830000 0 0 0
2315 772 3 0 50.840000 38.250000 17.280000 0 0 0
2316 772 3 0 51.260000 39.360000 16.380000 0 0 0
2317 773 4 0 49.310000 39.730000 15.360000 0 0 0
2318 773 3 0 49.170000 39.110000 15.780000 0 0 0
2319 773 3 0 49.460000 40.350000 14.950000 0 0 0
2320 774 1 0 47.810000 40.480000 13.770000 0 0 0
2321 774 3 0 47.500000 39.870000 14.220000 0 0 0
2322 774 2 0 48.090000 41.040000 13.350000 0 0 0
2323 775 1 0 43.020000 45.880000 5.880000 0 0 0
2324 775 2 0 43.210000 46.570000 6.110000 0 0 0
2325 775 3 0 42.820000 45.140000 5.630000 0 0 0
2326 776 4 0 42.130000 44.410000 4.060000 0 0 0
2327 776 3 0 42.020000 45.130000 4.340000 0 0 0
2328 776 3 0 42.240000 43.690000 3.780000 0 0 0
2329 777 4 0 41.480000 42.980000 2.090000 0 0 0
2330 777 3 0 42.210000 42.840000 1.980000 0 0 0
2331 777 3 0 40.750000 43.120000 2.210000 0 0 0
2332 778 4 0 40.510000 41.510000 0.360000 0 0 0
2333 778 3 0 40.300000 40.950000 0.810000 0 0 0
2334 778 3 0 40.720000 42.070000 57.447600 0 0 -1
2335 779 4 0 38.710000 40.650000 56.800000 0 0 -1
2336 779 3 0 38.570000 40.030000 57.210000 0 0 -1
2337 779 3 0 38.850000 41.270000 56.380000 0 0 -1
2338 780 1 0 36.900000 39.460000 55.480000 0 0 -1
2339 780 3 0 36.590000 38.850000 55.930000 0 0 -1
2340 780 2 0 37.180000 40.020000 55.060000 0 0 -1
2341 781 1 0 30.030000 22.570000 37.810000 0 0 0
2342 781 2 0 30.220000 23.260000 38.040000 0 0 0
2343 781 3 0 29.830000 21.830000 37.560000 0 0 0
2344 782 4 0 32.120000 21.170000 37.620000 0 0 0
2345 782 3 0 32.010000 21.890000 37.900000 0 0 0
2346 782 3 0 32.230000 20.450000 37.340000 0 0 0
2347 783 4 0 34.260000 19.840000 37.610000 0 0 0
2348 783 3 0 34.990000 19.700000 37.500000 0 0 0
2349 783 3 0 33.530000 19.980000 37.720000 0 0 0
2350 784 4 0 36.300000 18.730000 37.500000 0 0 0
2351 784 3 0 36.090000 18.170000 37.950000 0 0 0
2352 784 3 0 36.510000 19.290000 37.050000 0 0 0
2353 785 4 0 37.030000 17.540000 35.420000 0 0 0
2354 785 3 0 36.880000 16.920000 35.830000 0 0 0
2355 785 3 0 37.170000 18.160000 35.000000 0 0 0
2356 786 1 0 38.250000 17.010000 33.670000 0 0 0
2357 786 3 0 37.940000 16.400000 34.120000 0 0 0
2358 786 2 0 38.530000 17.570000 33.250000 0 0 0
2359 787 1 0 51.990000 12.810000 13.400000 0 0 0
2360 787 2 0 52.180000 13.500000 13.630000 0 0 0
2361 787 3 0 51.790000 12.070000 13.150000 0 0 0
2362 788 4 0 52.390000 13.520000 11.020000 0 0 0
2363 788 3 0 52.280000 14.240000 11.310000 0 0 0
2364 788 3 0 52.500000 12.800000 10.740000 0 0 0
2365 789 4 0 52.570000 15.890000 10.140000 0 0 0
2366 789 3 0 53.300000 15.750000 10.030000 0 0 0
2367 789 3 0 51.840000 16.030000 10.260000 0 0 0
2368 790 4 0 53.380000 17.750000 9.010000 0 0 0
2369 790 3 0 53.170000 17.200000 9.460000 0 0 0
2370 790 3 0 53.590000 18.300000 8.560000 0 0 0
2371 791 4 0 55.660000 18.000000 7.970000 0 0 0
2372 791 3 0 55.510000 17.380000 8.390000 0 0 0
2373 791 3 0 55.800000 18.620000 7.560000 0 0 0
2374 792 1 0 0.120000 19.080000 8.010000 1 0 0
2375 792 3 0 57.347600 18.470000 8.460000 0 0 0
2376 792 2 0 0.400000 19.640000 7.590000 1 0 0
2377 793 1 0 28.150000 44.770000 43.850000 0 0 0
2378 793 2 0 28.340000 45.460000 44.080000 0 0 0
2379 793 3 0 27.950000 44.030000 43.600000 0 0 0
2380 794 4 0 27.390000 45.610000 41.800000 0 0 0
2381 794 3 0 27.280000 46.330000 42.080000 0 0 0
2382 794 3 0 27.500000 44.890000 41.510000 0 0 0
2383 795 4 0 26.810000 47.540000 40.410000 0 0 0
2384 795 3 0 27.540000 47.390000 40.300000 0 0 0
2385 795 3 0 26.080000 47.680000 40.530000 0 0 0
2386 796 4 0 25.270000 49.460000 39.440000 0 0 0
2387 796 3 0 25.060000 48.900000 39.890000 0 0 0
2388 796 3 0 25.480000 50.020000 38.990000 0 0 0
2389 797 4 0 24.180000 51.290000 38.950000 0 0 0
2390 797 3 0 24.040000 50.670000 39.370000 0 0 0
2391 797 3 0 24.330000 51.910000 38.540000 0 0 0
2392 798 1 0 23.140000 52.940000 37.750000 0 0 0
2393 798 3 0 22.830000 52.330000 38.200000 0 0 0
2394 798 2 0 23.420000 53.500000 37.330000 0 0 0
2395 799 1 0 12.030000 25.230000 19.990000 0 0 0
2396 799 2 0 12.220000 25.920000 20.220000 0 0 0
2397 799 3 0 11.830000 24.490000 19.740000 0 0 0
2398 800 4 0 11.850000 25.440000 22.090000 0 0 0
2399 800 3 0 11.740000 26.160000 22.370000 0 0 0
2400 800 3 0 11.960000 24.720000 21.810000 0 0 0
2401 801 4 0 12.060000 23.430000 23.550000 0 0 0
2402 801 3 0 12.790000 23.290000 23.440000 0 0 0
2403 801 3 0 11.330000 23.570000 23.670000 0 0 0
2404 802 4 0 13.910000 22.380000 24.260000 0 0 0
2405 802 3 0 13.700000 21.830000 24.710000 0 0 0
2406 802 3 0 14.120000 22.930000 23.810000 0 0 0
2407 803 4 0 15.590000 20.890000 23.150000 0 0 0
2408 803 3 0 15.440000 20.270000 23.570000 0 0 0
2409 803 3 0 15.730000 21.510000 22.740000 0 0 0
2410 804 1 0 17.490000 19.520000 22.170000 0 0 0
2411 804 3 0 17.180000 18.910000 22.620000 0 0 0
2412 804 2 0 17.770000 20.080000 21.750000 0 0 0
2413 805 1 0 7.380000 3.380000 34.720000 0 0 0
2414 805 2 0 7.570000 4.070000 34.950000 0 0 0
2415 805 3 0 7.180000 2.640000 34.470000 0 0 0
2416 806 4 0 7.070000 1.460000 35.860000 0 0 0
2417 806 3 0 6.960000 2.180000 36.140000 0 0 0
2418 806 3 0 7.180000 0.740000 35.580000 0 0 0
2419 807 4 0 5.950000 0.190000 37.390000 0 0 0
2420 807 3 0 6.680000 0.040000 37.280000 0 0 0
2421 807 3 0 5.220000 0.330000 37.500000 0 0 0
2422 808 4 0 6.930000 57.070000 39.380000 0 -1 0
2423 808 3 0 6.720000 56.510000 39.830000 0 -1 0
2424 808 3 0 7.140000 0.092400 38.930000 0 0 0
2425 809 4 0 8.670000 1.020000 40.640000 0 0 0
2426 809 3 0 8.530000 0.400000 41.060000 0 0 0
2427 809 3 0 8.810000 1.640000 40.220000 0 0 0
2428 810 1 0 8.280000 2.860000 42.030000 0 0 0
2429 810 3 0 7.970000 2.250000 42.480000 0 0 0
2430 810 2 0 8.560000 3.420000 41.610000 0 0 0
2431 811 1 0 55.310000 18.110000 19.240000 0 0 0
2432 811 2 0 55.500000 18.800000 19.470000 0 0 0
2433 811 3 0 55.110000 17.370000 18.990000 0 0 0
2434 812 4 0 53.790000 17.420000 20.680000 0 0 0
2435 812 3 0 53.680000 18.140000 20.960000 0 0 0
2436 812 3 0 53.900000 16.700000 20.400000 0 0 0
2437 813 4 0 52.010000 16.490000 21.670000 0 0 0
2438 813 3 0 52.740000 16.350000 21.550000 0 0 0
2439 813 3 0 51.280000 16.630000 21.780000 0 0 0
2440 814 4 0 50.550000 15.570000 23.120000 0 0 0
2441 814 3 0 50.340000 15.020000 23.570000 0 0 0
2442 814 3 0 50.760000 16.120000 22.670000 0 0 0
2443 815 4 0 48.390000 14.890000 23.770000 0 0 0
2444 815 3 0 48.250000 14.270000 24.180000 0 0 0
2445 815 3 0 48.540000 15.510000 23.350000 0 0 0
2446 816 1 0 48.150000 12.390000 23.520000 0 0 0
2447 816 3 0 47.840000 11.780000 23.970000 0 0 0
2448 816 2 0 48.430000 12.950000 23.100000 0 0 0
2449 817 1 0 45.500000 38.890000 55.880000 0 0 0
2450 817 2 0 45.690000 39.580000 56.110000 0 0 0
2451 817 3 0 45.300000 38.150000 55.630000 0 0 0
2452 818 4 0 45.750000 36.680000 57.000000 0 0 0
2453 818 3 0 45.640000 37.400000 57.290000 0 0 0
2454 818 3 0 45.860000 35.960000 56.710000 0 0 0
2455 819 4 0 45.760000 35.250000 1.570000 0 0 1
2456 819 3 0 46.490000 35.100000 1.460000 0 0 1
2457 819 3 0 45.030000 35.390000 1.690000 0 0 1
2458 820 4 0 47.480000 35.450000 2.940000 0 0 1
2459 820 3 0 47.270000 34.900000 3.390000 0 0 1
2460 820 3 0 47.690000 36.000000 2.490000 0 0 1
2461 821 4 0 49.490000 35.640000 4.200000 0 0 1
2462 821 3 0 49.340000 35.020000 4.620000 0 0 1
2463 821 3 0 49.630000 36.260000 3.790000 0 0 1
2464 822 1 0 52.010000 35.510000 4.290000 0 0 1
2465 822 3 0 51.700000 34.900000 4.740000 0 0 1
2466 822 2 0 52.290000 36.070000 3.870000 0 0 1
2467 823 1 0 25.850000 51.080000 43.750000 0 0 0
2468 823 2 0 26.040000 51.770000 43.980000 0 0 0
2469 823 3 0 25.650000 50.340000 43.500000 0 0 0
2470 824 4 0 25.370000 49.380000 45.280000 0 0 0
2471 824 3 0 25.260000 50.100000 45.560000 0 0 0
2472 824 3 0 25.480000 48.660000 44.990000 0 0 0
2473 825 4 0 25.710000 47.170000 46.480000 0 0 0
2474 825 3 0 26.440000 47.020000 46.360000 0 0 0
2475 825 3 0 24.980000 47.310000 46.590000 0 0 0
2476 826 4 0 25.020000 44.850000 47.170000 0 0 0
2477 826 3 0 24.810000 44.290000 47.620000 0 0 0
2478 826 3 0 25.230000 45.410000 46.720000 0 0 0
2479 827 4 0 24.070000 42.710000 48.060000 0 0 0
2480 827 3 0 23.930000 42.090000 48.480000 0 0 0
2481 827 3 0 24.210000 43.330000 47.640000 0 0 0
2482 828 1 0 23.220000 41.000000 49.190000 0 0 0
2483 828 3 0 22.910000 40.390000 49.640000 0 0 0
2484 828 2 0 23.500000 41.560000 48.770000 0 0 0
2485 829 1 0 43.830000 34.580000 28.250000 0 0 0
2486 829 2 0 44.020000 35.270000 28.480000 0 0 0
2487 829 3 0 43.630000 33.840000 28.000000 0 0 0
2488 830 4 0 41.750000 35.910000 28.260000 0 0 0
2489 830 3 0 41.640000 36.630000 28.540000 0 0 0
2490 830 3 0 41.860000 35.190000 27.980000 0 0 0
2491 831 4 0 40.810000 38.160000 28.570000 0 0 0
2492 831 3 0 41.540000 38.010000 28.460000 0 0 0
2493 831 3 0 40.080000 38.300000 28.690000 0 0 0
2494 832 4 0 40.270000 40.300000 28.820000 0 0 0
2495 832 3 0 40.060000 39.750000 29.270000 0 0 0
2496 832 3 0 40.480000 40.860000 28.370000 0 0 0
2497 833 4 0 41.710000 41.910000 27.670000 0 0 0
2498 833 3 0 41.570000 41.290000 28.080000 0 0 0
2499 833 3 0 41.860000 42.530000 27.260000 0 0 0
2500 834 1 0 44.100000 42.160000 28.330000 0 0 0
2501 834 3 0 43.790000 41.550000 28.780000 0 0 0
2502 834 2 0 44.380000 42.720000 27.910000 0 0 0
2503 835 1 0 31.340000 52.600000 16.820000 0 0 0
2504 835 2 0 31.530000 53.290000 17.050000 0 0 0
2505 835 3 0 31.140000 51.860000 16.570000 0 0 0
2506 836 4 0 32.750000 52.870000 14.750000 0 0 0
2507 836 3 0 32.640000 53.590000 15.040000 0 0 0
2508 836 3 0 32.860000 52.150000 14.470000 0 0 0
2509 837 4 0 33.670000 52.400000 12.670000 0 0 0
2510 837 3 0 34.400000 52.260000 12.560000 0 0 0
2511 837 3 0 32.940000 52.550000 12.780000 0 0 0
2512 838 4 0 33.870000 52.510000 10.420000 0 0 0
2513 838 3 0 33.660000 51.960000 10.870000 0 0 0
2514 838 3 0 34.080000 53.070000 9.970000 0 0 0
2515 839 4 0 33.420000 51.640000 8.420000 0 0 0
2516 839 3 0 33.280000 51.020000 8.840000 0 0 0
2517 839 3 0 33.570000 52.260000 8.010000 0 0 0
2518 840 1 0 32.540000 50.540000 6.720000 0 0 0
2519 840 3 0 32.230000 49.930000 7.170000 0 0 0
2520 840 2 0 32.820000 51.100000 6.300000 0 0 0
2521 841 1 0 12.490000 7.060000 17.400000 0 0 0
2522 841 2 0 12.680000 7.750000 17.630000 0 0 0
2523 841 3 0 12.290000 6.320000 17.150000 0 0 0
2524 842 4 0 10.560000 8.630000 16.820000 0 0 0
2525 842 3 0 10.450000 9.350000 17.100000 0 0 0
2526 842 3 0 10.670000 7.910000 16.530000 0 0 0
2527 843 4 0 8.870000 9.680000 15.250000 0 0 0
2528 843 3 0 9.600000 9.530000 15.140000 0 0 0
2529 843 3 0 8.140000 9.820000 15.360000 0 0 0
2530 844 4 0 9.490000 11.600000 13.890000 0 0 0
2531 844 3 0 9.280000 11.040000 14.340000 0 0 0
2532 844 3 0 9.700000 12.160000 13.440000 0 0 0
2533 845 4 0 10.420000 13.630000 12.890000 0 0 0
2534 845 3 0 10.280000 13.010000 13.310000 0 0 0
2535 845 3 0 10.560000 14.250000 12.480000 0 0 0
2536 846 1 0 10.510000 15.580000 11.620000 0 0 0
2537 846 3 0 10.200000 14.970000 12.070000 0 0 0
2538 846 2 0 10.790000 16.140000 11.200000 0 0 0
2539 847 1 0 2.710000 26.310000 21.290000 0 0 0
2540 847 2 0 2.900000 27.000000 21.520000 0 0 0
2541 847 3 0 2.510000 25.570000 21.040000 0 0 0
2542 848 4 0 1.540000 24.200000 20.780000 0 0 0
2543 848 3 0 1.430000 24.920000 21.060000 0 0 0
2544 848 3 0 1.650000 23.480000 20.500000 0 0 0
2545 849 4 0 57.370000 22.380000 20.490000 -1 0 0
2546 849 3 0 0.562400 22.240000 20.380000 0 0 0
2547 849 3 0 56.640000 22.520000 20.610000 -1 0 0
2548 850 4 0 54.870000 22.490000 20.640000 -1 0 0
2549 850 3 0 54.660000 21.940000 21.090000 -1 0 0
2550 850 3 0 55.080000 23.040000 20.190000 -1 0 0
2551 851 4 0 52.800000 22.050000 20.130000 -1 0 0
2552 851 3 0 52.660000 21.430000 20.540000 -1 0 0
2553 851 3 0 52.950000 22.670000 19.720000 -1 0 0
2554 852 1 0 50.440000 21.390000 19.360000 -1 0 0
2555 852 3 0 50.130000 20.780000 19.810000 -1 0 0
2556 852 2 0 50.720000 21.950000 18.940000 -1 0 0
2557 853 1 0 16.900000 47.580000 26.930000 0 0 0
2558 853 2 0 17.090000 48.270000 27.160000 0 0 0
2559 853 3 0 16.700000 46.840000 26.680000 0 0 0
2560 854 4 0 18.080000 45.970000 25.310000 0 0 0
2561 854 3 0 17.970000 46.690000 25.590000 0 0 0
2562 854 3 0 18.190000 45.250000 25.030000 0 0 0
2563 855 4 0 20.640000 46.080000 25.100000 0 0 0
2564 855 3 0 21.370000 45.930000 24.980000 0 0 0
2565 855 3 0 19.910000 46.220000 25.210000 0 0 0
2566 856 4 0 23.090000 46.220000 25.260000 0 0 0
2567 856 3 0 22.880000 45.660000 25.710000 0 0 0
2568 856 3 0 23.300000 46.780000 24.810000 0 0 0
2569 857 4 0 25.620000 46.470000 25.380000 0 0 0
2570 857 3 0 25.470000 45.850000 25.790000 0 0 0
2571 857 3 0 25.760000 47.090000 24.970000 0 0 0
2572 858 1 0 27.770000 45.770000 25.330000 0 0 0
2573 858 3 0 27.460000 45.160000 25.780000 0 0 0
2574 858 2 0 28.050000 46.330000 24.910000 0 0 0
2575 859 1 0 40.060000 40.390000 45.330000 0 0 0
2576 859 2 0 40.250000 41.080000 45.560000 0 0 0
2577 859 3 0 39.860000 39.650000 45.080000 0 0 0
2578 860 4 0 41.420000 40.050000 47.120000 0 0 0
2579 860 3 0 41.310000 40.770000 47.400000 0 0 0
2580 860 3 0 41.530000 39.330000 46.830000 0 0 0
2581 861 4 0 43.140000 39.530000 48.940000 0 0 0
2582 861 3 0 43.870000 39.380000 48.830000 0 0 0
2583 861 3 0 42.410000 39.670000 49.050000 0 0 0
2584 862 4 0 44.780000 39.240000 50.950000 0 0 0
2585 862 3 0 44.570000 38.690000 51.400000 0 0 0
2586 862 3 0 44.990000 39.790000 50.500000 0 0 0
2587 863 4 0 46.520000 38.070000 51.720000 0 0 0
2588 863 3 0 46.380000 37.450000 52.130000 0 0 0
2589 863 3 0 46.670000 38.690000 51.300000 0 0 0
2590 864 1 0 48.590000 36.910000 52.640000 0 0 0
2591 864 3 0 48.280000 36.300000 53.090000 0 0 0
2592 864 2 0 48.870000 37.470000 52.220000 0 0 0
2593 865 1 0 19.860000 15.760000 50.740000 0 0 0
2594 865 2 0 20.050000 16.450000 50.970000 0 0 0
2595 865 3 0 19.660000 15.020000 50.490000 0 0 0
2596 866 4 0 18.060000 14.080000 50.220000 0 0 0
2597 866 3 0 17.950000 14.800000 50.510000 0 0 0
2598 866 3 0 18.170000 13.360000 49.940000 0 0 0
2599 867 4 0 16.240000 13.420000 48.960000 0 0 0
2600 867 3 0 16.970000 13.280000 48.850000 0 0 0
2601 867 3 0 15.510000 13.570000 49.070000 0 0 0
2602 868 4 0 13.750000 13.050000 48.470000 0 0 0
2603 868 3 0 13.540000 12.490000 48.920000 0 0 0
2604 868 3 0 13.960000 13.610000 48.020000 0 0 0
2605 869 4 0 11.660000 11.750000 48.180000 0 0 0
2606 869 3 0 11.510000 11.130000 48.590000 0 0 0
2607 869 3 0 11.800000 12.370000 47.760000 0 0 0
2608 870 1 0 10.090000 9.930000 48.530000 0 0 0
2609 870 3 0 9.780000 9.320000 48.980000 0 0 0
2610 870 2 0 10.370000 10.490000 48.110000 0 0 0
2611 871 1 0 42.990000 9.590000 36.670000 0 0 0
2612 871 2 0 43.180000 10.280000 36.900000 0 0 0
2613 871 3 0 42.790000 8.850000 36.420000 0 0 0
2614 872 4 0 42.780000 8.860000 34.580000 0 0 0
2615 872 3 0 42.670000 9.580000 34.870000 0 0 0
2616 872 3 0 42.890000 8.140000 34.290000 0 0 0
2617 873 4 0 42.770000 8.470000 32.080000 0 0 0
2618 873 3 0 43.500000 8.320000 31.970000 0 0 0
2619 873 3 0 42.040000 8.610000 32.200000 0 0 0
2620 874 4 0 42.730000 8.340000 29.790000 0 0 0
2621 874 3 0 42.520000 7.780000 30.240000 0 0 0
2622 874 3 0 42.940000 8.890000 29.340000 0 0 0
2623 875 4 0 42.520000 7.120000 27.530000 0 0 0
2624 875 3 0 42.370000 6.500000 27.950000 0 0 0
2625 875 3 0 42.660000 7.740000 27.120000 0 0 0
2626 876 1 0 43.480000 5.780000 25.500000 0 0 0
2627 876 3 0 43.170000 5.170000 25.950000 0 0 0
2628 876 2 0 43.760000 6.340000 25.080000 0 0 0
2629 877 1 0 19.790000 18.920000 9.620000 0 0 0
2630 877 2 0 19.980000 19.610000 9.850000 0 0 0
2631 877 3 0 19.590000 18.180000 9.370000 0 0 0
2632 878 4 0 19.440000 17.290000 11.580000 0 0 0
2633 878 3 0 19.330000 18.010000 11.860000 0 0 0
2634 878 3 0 19.550000 16.570000 11.290000 0 0 0
2635 879 4 0 18.690000 16.010000 13.310000 0 0 0
2636 879 3 0 19.420000 15.870000 13.200000 0 0 0
2637 879 3 0 17.960000 16.150000 13.430000 0 0 0
2638 880 4 0 17.210000 16.650000 14.950000 0 0 0
2639 880 3 0 17.000000 16.100000 15.400000 0 0 0
2640 880 3 0 17.420000 17.200000 14.500000 0 0 0
2641 881 4 0 15.620000 18.010000 15.950000 0 0 0
2642 881 3 0 15.480000 17.390000 16.370000 0 0 0
2643 881 3 0 15.770000 18.630000 15.540000 0 0 0
2644 882 1 0 13.260000 18.690000 16.760000 0 0 0
2645 882 3 0 12.950000 18.080000 17.210000 0 0 0
2646 882 2 0 13.540000 19.250000 16.340000 0 0 0
2647 883 1 0 14.720000 1.700000 2.290000 0 0 0
2648 883 2 0 14.910000 2.390000 2.520000 0 0 0
2649 883 3 0 14.520000 0.960000 2.040000 0 0 0
2650 884 4 0 14.470000 57.390000 1.170000 0 -1 0
2651 884 3 0 14.360000 0.572400 1.450000 0 0 0
2652 884 3 0 14.580000 56.670000 0.890000 0 -1 0
2653 885 4 0 14.010000 55.200000 0.870000 0 -1 0
2654 885 3 0 14.740000 55.050000 0.760000 0 -1 0
2655 885 3 0 13.280000 55.340000 0.990000 0 -1 0
2656 886 4 0 13.130000 52.710000 0.940000 0 -1 0
2657 886 3 0 12.920000 52.150000 1.390000 0 -1 0
2658 886 3 0 13.340000 53.270000 0.490000 0 -1 0
2659 887 4 0 11.680000 50.690000 1.040000 0 -1 0
2660 887 3 0 11.530000 50.070000 1.460000 0 -1 0
2661 887 3 0 11.820000 51.310000 0.630000 0 -1 0
2662 888 1 0 9.790000 49.420000 1.520000 0 -1 0
2663 888 3 0 9.480000 48.810000 1.970000 0 -1 0
2664 888 2 0 10.070000 49.980000 1.100000 0 -1 0
2665 889 1 0 26.650000 7.050000 38.120000 0 0 0
2666 889 2 0 26.840000 7.740000 38.350000 0 0 0
2667 889 3 0 26.450000 6.310000 37.870000 0 0 0
2668 890 4 0 24.920000 5.630000 38.330000 0 0 0
2669 890 3 0 24.810000 6.350000 38.620000 0 0 0
2670 890 3 0 25.030000 4.910000 38.040000 0 0 0
2671 891 4 0 22.630000 4.990000 39.400000 0 0 0
2672 891 3 0 23.360000 4.840000 39.290000 0 0 0
2673 891 3 0 21.900000 5.130000 39.520000 0 0 0
2674 892 4 0 22.100000 2.700000 40.080000 0 0 0
2675 892 3 0 21.890000 2.150000 40.530000 0 0 0
2676 892 3 0 22.310000 3.260000 39.630000 0 0 0
2677 893 4 0 21.500000 0.340000 40.510000 0 0 0
2678 893 3 0 21.350000 57.257600 40.930000 0 -1 0
2679 893 3 0 21.640000 0.960000 40.100000 0 0 0
2680 894 1 0 20.630000 55.480000 40.630000 0 -1 0
2681 894 3 0 20.320000 54.870000 41.080000 0 -1 0
2682 894 2 0 20.910000 56.040000 40.210000 0 -1 0
2683 895 1 0 49.310000 15.670000 53.730000 0 0 0
2684 895 2 0 49.500000 16.360000 53.960000 0 0 0
2685 895 3 0 49.110000 14.930000 53.480000 0 0 0
2686 896 4 0 47.740000 17.110000 52.360000 0 0 0
2687 896 3 0 47.630000 17.830000 52.640000 0 0 0
2688 896 3 0 47.850000 16.390000 52.070000 0 0 0
2689 897 4 0 46.340000 18.810000 53.620000 0 0 0
2690 897 3 0 47.070000 18.660000 53.510000 0 0 0
2691 897 3 0 45.610000 18.950000 53.730000 0 0 0
2692 898 4 0 45.980000 19.960000 55.370000 0 0 0
2693 898 3 0 45.770000 19.410000 55.820000 0 0 0
2694 898 3 0 46.190000 20.510000 54.920000 0 0 0
2695 899 4 0 45.170000 21.280000 57.340000 0 0 0
2696 899 3 0 45.030000 20.660000 0.222400 0 0 1
2697 899 3 0 45.320000 21.900000 56.920000 0 0 0
2698 900 1 0 43.510000 22.240000 1.120000 0 0 1
2699 900 3 0 43.200000 21.630000 1.570000 0 0 1
2700 900 2 0 43.790000 22.800000 0.700000 0 0 1
2701 901 1 0 22.580000 57.400000 3.700000 0 0 0
2702 901 2 0 22.770000 0.552400 3.930000 0 1 0
2703 901 3 0 22.380000 56.660000 3.450000 0 0 0
2704 902 4 0 24.640000 0.930000 2.740000 0 1 0
2705 902 3 0 24.530000 1.650000 3.020000 0 1 0
2706 902 3 0 24.750000 0.210000 2.460000 0 1 0
2707 903 4 0 25.200000 1.620000 0.440000 0 1 0
2708 903 3 0 25.930000 1.470000 0.330000 0 1 0
2709 903 3 0 24.470000 1.760000 0.560000 0 1 0
2710 904 4 0 25.260000 4.090000 57.490000 0 1 -1
2711 904 3 0 25.050000 3.530000 0.402400 0 1 0
2712 904 3 0 25.470000 4.640000 57.040000 0 1 -1
2713 905 4 0 25.050000 5.920000 56.180000 0 1 -1
2714 905 3 0 24.900000 5.300000 56.600000 0 1 -1
2715 905 3 0 25.190000 6.540000 55.770000 0 1 -1
2716 906 1 0 23.610000 7.590000 54.850000 0 1 -1
2717 906 3 0 23.300000 6.980000 55.300000 0 1 -1
2718 906 2 0 23.890000 8.150000 54.430000 0 1 -1
2719 907 1 0 39.680000 8.250000 6.320000 0 0 0
2720 907 2 0 39.870000 8.940000 6.550000 0 0 0
2721 907 3 0 39.480000 7.510000 6.070000 0 0 0
2722 908 4 0 39.360000 9.080000 4.220000 0 0 0
2723 908 3 0 39.250000 9.800000 4.500000 0 0 0
2724 908 3 0 39.470000 8.360000 3.940000 0 0 0
2725 909 4 0 37.930000 9.770000 2.360000 0 0 0
2726 909 3 0 38.660000 9.620000 2.250000 0 0 0
2727 909 3 0 37.200000 9.910000 2.480000 0 0 0
2728 910 4 0 36.260000 9.330000 0.640000 0 0 0
2729 910 3 0 36.050000 8.780000 1.090000 0 0 0
2730 910 3 0 36.470000 9.890000 0.190000 0 0 0
2731 911 4 0 35.640000 9.490000 55.770000 0 0 -1
2732 911 3 0 35.500000 8.870000 56.190000 0 0 -1
2733 911 3 0 35.790000 10.110000 55.350000 0 0 -1
2734 912 1 0 33.420000 8.560000 54.810000 0 0 -1
2735 912 3 0 33.110000 7.950000 55.260000 0 0 -1
2736 912 2 0 33.700000 9.120000 54.390000 0 0 -1
2737 913 1 0 27.220000 5.210000 5.130000 0 0 0
2738 913 2 0 27.410000 5.900000 5.360000 0 0 0
2739 913 3 0 27.020000 4.470000 4.880000 0 0 0
2740 914 4 0 24.730000 4.910000 5.590000 0 0 0
2741 914 3 0 24.620000 5.630000 5.880000 0 0 0
2742 914 3 0 24.840000 4.190000 5.310000 0 0 0
2743 915 4 0 22.620000 4.620000 6.910000 0 0 0
2744 915 3 0 23.350000 4.470000 6.800000 0 0 0
2745 915 3 0 21.890000 4.760000 7.030000 0 0 0
2746 916 4 0 20.850000 4.110000 8.250000 0 0 0
2747 916 3 0 20.640000 3.550000 8.700000 0 0 0
2748 916 3 0 21.060000 4.660000 7.800000 0 0 0
2749 917 4 0 18.510000 3.390000 8.850000 0 0 0
2750 917 3 0 18.370000 2.770000 9.270000 0 0 0
2751 917 3 0 18.650000 4.010000 8.440000 0 0 0
2752 918 1 0 17.180000 1.800000 7.440000 0 0 0
2753 918 3 0 16.870000 1.190000 7.890000 0 0 0
2754 918 2 0 17.460000 2.360000 7.020000 0 0 0
2755 919 1 0 13.580000 15.290000 9.380000 0 0 0
2756 919 2 0 13.770000 15.980000 9.610000 0 0 0
2757 919 3 0 13.380000 14.550000 9.130000 0 0 0
2758 920 4 0 15.470000 16.210000 8.030000 0 0 0
2759 920 3 0 15.360000 16.930000 8.320000 0 0 0
2760 920 3 0 15.580000 15.490000 7.750000 0 0 0
2761 921 4 0 17.390000 16.980000 6.720000 0 0 0
2762 921 3 0 18.120000 16.830000 6.610000 0 0 0
2763 921 3 0 16.660000 17.120000 6.840000 0 0 0
2764 922 4 0 19.470000 17.600000 5.370000 0 0 0
2765 922 3 0 19.260000 17.040000 5.820000 0 0 0
2766 922 3 0 19.680000 18.160000 4.920000 0 0 0
2767 923 4 0 19.820000 15.870000 3.660000 0 0 0
2768 923 3 0 19.680000 15.250000 4.080000 0 0 0
2769 923 3 0 19.960000 16.490000 3.250000 0 0 0
2770 924 1 0 20.040000 14.080000 2.330000 0 0 0
2771 924 3 0 19.730000 13.470000 2.780000 0 0 0
2772 924 2 0 20.320000 14.640000 1.910000 0 0 0
2773 925 1 0 43.410000 39.810000 32.690000 0 0 0
2774 925 2 0 43.600000 40.500000 32.920000 0 0 0
2775 925 3 0 43.210000 39.070000 32.440000 0 0 0
2776 926 4 0 44.740000 41.740000 32.170000 0 0 0
2777 926 3 0 44.630000 42.460000 32.450000 0 0 0
2778 926 3 0 44.850000 41.020000 31.890000 0 0 0
2779 927 4 0 44.640000 43.240000 34.230000 0 0 0
2780 927 3 0 45.370000 43.090000 34.120000 0 0 0
2781 927 3 0 43.910000 43.380000 34.340000 0 0 0
2782 928 4 0 44.270000 44.520000 36.350000 0 0 0
2783 928 3 0 44.060000 43.960000 36.800000 0 0 0
2784 928 3 0 44.480000 45.080000 35.900000 0 0 0
2785 929 4 0 42.520000 44.490000 37.780000 0 0 0
2786 929 3 0 42.370000 43.870000 38.200000 0 0 0
2787 929 3 0 42.660000 45.110000 37.370000 0 0 0
2788 930 1 0 40.560000 44.360000 39.170000 0 0 0
2789 930 3 0 40.250000 43.750000 39.620000 0 0 0
2790 930 2 0 40.840000 44.920000 38.750000 0 0 0
2791 931 1 0 12.000000 4.430000 50.170000 0 0 0
2792 931 2 0 12.190000 5.120000 50.400000 0 0 0
2793 931 3 0 11.800000 3.690000 49.920000 0 0 0
2794 932 4 0 10.040000 4.830000 49.100000 0 0 0
2795 932 3 0 9.930000 5.550000 49.390000 0 0 0
2796 932 3 0 10.150000 4.110000 48.810000 0 0 0
2797 933 4 0 8.230000 4.750000 47.910000 0 0 0
2798 933 3 0 8.960000 4.600000 47.800000 0 0 0
2799 933 3 0 7.500000 4.890000 48.030000 0 0 0
2800 934 4 0 6.230000 4.860000 46.420000 0 0 0
2801 934 3 0 6.020000 4.300000 46.870000 0 0 0
2802 934 3 0 6.440000 5.410000 45.970000 0 0 0
2803 935 4 0 4.130000 5.170000 45.050000 0 0 0
2804 935 3 0 3.990000 4.550000 45.460000 0 0 0
2805 935 3 0 4.270000 5.790000 44.630000 0 0 0
2806 936 1 0 1.880000 6.130000 44.370000 0 0 0
2807 936 3 0 1.570000 5.520000 44.820000 0 0 0
2808 936 2 0 2.160000 6.690000 43.950000 0 0 0
2809 937 1 0 1.810000 6.170000 49.600000 0 0 0
2810 937 2 0 2.000000 6.860000 49.830000 0 0 0
2811 937 3 0 1.610000 5.430000 49.350000 0 0 0
2812 938 4 0 57.210000 5.610000 50.230000 -1 0 0
2813 938 3 0 57.100000 6.330000 50.510000 -1 0 0
2814 938 3 0 57.320000 4.890000 49.940000 -1 0 0
2815 939 4 0 54.770000 4.940000 50.760000 -1 0 0
2816 939 3 0 55.500000 4.790000 50.640000 -1 0 0
2817 939 3 0 54.040000 5.080000 50.870000 -1 0 0
2818 940 4 0 52.380000 5.590000 51.240000 -1 0 0
2819 940 3 0 52.170000 5.040000 51.690000 -1 0 0
2820 940 3 0 52.590000 6.150000 50.790000 -1 0 0
2821 941 4 0 50.100000 5.190000 52.080000 -1 0 0
2822 941 3 0 49.950000 4.570000 52.500000 -1 0 0
2823 941 3 0 50.240000 5.810000 51.670000 -1 0 0
2824 942 1 0 48.850000 3.060000 51.620000 -1 0 0
2825 942 3 0 48.540000 2.450000 52.070000 -1 0 0
2826 942 2 0 49.130000 3.620000 51.200000 -1 0 0
2827 943 1 0 18.770000 45.350000 21.050000 0 0 0
2828 943 2 0 18.960000 46.040000 21.280000 0 0 0
2829 943 3 0 18.570000 44.610000 20.800000 0 0 0
2830 944 4 0 19.780000 46.310000 19.450000 0 0 0
2831 944 3 0 19.670000 47.030000 19.740000 0 0 0
2832 944 3 0 19.890000 45.590000 19.170000 0 0 0
2833 945 4 0 20.600000 47.490000 17.420000 0 0 0
2834 945 3 0 21.330000 47.340000 17.310000 0 0 0
2835 945 3 0 19.870000 47.630000 17.540000 0 0 0
2836 946 4 0 20.960000 48.120000 14.980000 0 0 0
2837 946 3 0 20.750000 47.560000 15.430000 0 0 0
2838 946 3 0 21.170000 48.680000 14.530000 0 0 0
2839 947 4 0 20.620000 47.510000 12.830000 0 0 0
2840 947 3 0 20.470000 46.890000 13.250000 0 0 0
2841 947 3 0 20.760000 48.130000 12.420000 0 0 0
2842 948 1 0 19.900000 45.740000 11.220000 0 0 0
2843 948 3 0 19.590000 45.130000 11.670000 0 0 0
2844 948 2 0 20.180000 46.300000 10.800000 0 0 0
2845 949 1 0 28.120000 44.770000 2.240000 0 0 0
2846 949 2 0 28.310000 45.460000 2.470000 0 0 0
2847 949 3 0 27.920000 44.030000 1.990000 0 0 0
2848 950 4 0 30.640000 45.020000 2.150000 0 0 0
2849 950 3 0 30.530000 45.740000 2.430000 0 0 0
2850 950 3 0 30.750000 44.300000 1.870000 0 0 0
2851 951 4 0 31.870000 46.860000 2.180000 0 0 0
2852 951 3 0 32.600000 46.710000 2.070000 0 0 0
2853 951 3 0 31.140000 47.000000 2.300000 0 0 0
2854 952 4 0 33.030000 49.030000 1.920000 0 0 0
2855 952 3 0 32.820000 48.470000 2.370000 0 0 0
2856 952 3 0 33.240000 49.580000 1.470000 0 0 0
2857 953 4 0 33.580000 51.060000 0.390000 0 0 0
2858 953 3 0 33.440000 50.440000 0.810000 0 0 0
2859 953 3 0 33.730000 51.680000 57.517600 0 0 -1
2860 954 1 0 35.650000 51.930000 56.840000 0 0 -1
2861 954 3 0 35.340000 51.320000 57.290000 0 0 -1
2862 954 2 0 35.930000 52.490000 56.420000 0 0 -1
2863 955 1 0 18.620000 1.560000 51.810000 0 0 0
2864 955 2 0 18.810000 2.250000 52.040000 0 0 0
2865 955 3 0 18.420000 0.820000 51.560000 0 0 0
2866 956 4 0 18.760000 56.980000 50.580000 0 -1 0
2867 956 3 0 18.650000 0.162400 50.870000 0 0 0
2868 956 3 0 18.870000 56.260000 50.290000 0 -1 0
2869 957 4 0 18.710000 55.050000 49.350000 0 -1 0
2870 957 3 0 19.440000 54.900000 49.230000 0 -1 0
2871 957 3 0 17.980000 55.190000 49.460000 0 -1 0
2872 958 4 0 17.410000 53.280000 48.230000 0 -1 0
2873 958 3 0 17.200000 52.720000 48.680000 0 -1 0
2874 958 3 0 17.620000 53.840000 47.780000 0 -1 0
2875 959 4 0 16.850000 53.250000 46.030000 0 -1 0
2876 959 3 0 16.710000 52.630000 46.440000 0 -1 0
2877 959 3 0 17.000000 53.870000 45.610000 0 -1 0
2878 960 1 0 17.130000 52.760000 43.790000 0 -1 0
2879 960 3 0 16.820000 52.150000 44.240000 0 -1 0
2880 960 2 0 17.410000 53.320000 43.370000 0 -1 0
2881 961 1 0 22.650000 15.830000 15.430000 0 0 0
2882 961 2 0 22.840000 16.520000 15.660000 0 0 0
2883 961 3 0 22.450000 15.090000 15.180000 0 0 0
2884 962 4 0 23.590000 15.970000 13.400000 0 0 0
2885 962 3 0 23.480000 16.690000 13.690000 0 0 0
2886 962 3 0 23.700000 15.250000 13.120000 0 0 0
2887 963 4 0 23.390000 15.050000 11.350000 0 0 0
2888 963 3 0 24.120000 14.900000 11.240000 0 0 0
2889 963 3 0 22.660000 15.190000 11.470000 0 0 0
2890 964 4 0 22.720000 14.810000 8.940000 0 0 0
2891 964 3 0 22.510000 14.250000 9.390000 0 0 0
2892 964 3 0 22.930000 15.370000 8.490000 0 0 0
2893 965 4 0 23.100000 14.330000 6.530000 0 0 0
2894 965 3 0 22.960000 13.710000 6.950000 0 0 0
2895 965 3 0 23.250000 14.950000 6.120000 0 0 0
2896 966 1 0 23.570000 13.630000 4.140000 0 0 0
2897 966 3 0 23.260000 13.020000 4.590000 0 0 0
2898 966 2 0 23.850000 14.190000 3.720000 0 0 0
2899 967 1 0 53.300000 17.850000 44.290000 0 0 0
2900 967 2 0 53.490000 18.540000 44.520000 0 0 0
2901 967 3 0 53.100000 17.110000 44.040000 0 0 0
2902 968 4 0 54.250000 15.940000 43.030000 0 0 0
2903 968 3 0 54.140000 16.660000 43.320000 0 0 0
2904 968 3 0 54.360000 15.220000 42.740000 0 0 0
2905 969 4 0 55.540000 14.360000 42.010000 0 0 0
2906 969 3 0 56.270000 14.210000 41.890000 0 0 0
2907 969 3 0 54.810000 14.500000 42.120000 0 0 0
2908 970 4 0 55.900000 13.290000 39.990000 0 0 0
2909 970 3 0 55.690000 12.730000 40.440000 0 0 0
2910 970 3 0 56.110000 13.850000 39.540000 0 0 0
2911 971 4 0 55.400000 12.200000 38.140000 0 0 0
2912 971 3 0 55.260000 11.580000 38.560000 0 0 0
2913 971 3 0 55.540000 12.820000 37.720000 0 0 0
2914 972 1 0 53.990000 10.060000 38.300000 0 0 0
2915 972 3 0 53.680000 9.450000 38.750000 0 0 0
2916 972 2 0 54.270000 10.620000 37.880000 0 0 0
2917 973 1 0 22.840000 17.390000 33.220000 0 0 0
2918 973 2 0 23.030000 18.080000 33.450000 0 0 0
2919 973 3 0 22.640000 16.650000 32.970000 0 0 0
2920 974 4 0 21.420000 17.180000 34.820000 0 0 0
2921 974 3 0 21.310000 17.900000 35.110000 0 0 0
2922 974 3 0 21.530000 16.460000 34.540000 0 0 0
2923 975 4 0 19.900000 17.120000 36.840000 0 0 0
2924 975 3 0 20.630000 16.970000 36.730000 0 0 0
2925 975 3 0 19.170000 17.260000 36.960000 0 0 0
2926 976 4 0 18.310000 17.310000 38.790000 0 0 0
2927 976 3 0 18.100000 16.750000 39.240000 0 0 0
2928 976 3 0 18.520000 17.870000 38.340000 0 0 0
2929 977 4 0 16.620000 17.460000 40.460000 0 0 0
2930 977 3 0 16.470000 16.840000 40.880000 0 0 0
2931 977 3 0 16.760000 18.080000 40.050000 0 0 0
2932 978 1 0 14.950000 16.570000 41.730000 0 0 0
2933 978 3 0 14.640000 15.960000 42.180000 0 0 0
2934 978 2 0 15.230000 17.130000 41.310000 0 0 0
2935 979 1 0 19.840000 46.590000 54.310000 0 0 0
2936 979 2 0 20.030000 47.280000 54.540000 0 0 0
2937 979 3 0 19.640000 45.850000 54.060000 0 0 0
2938 980 4 0 21.410000 47.950000 55.030000 0 0 0
2939 980 3 0 21.300000 48.670000 55.320000 0 0 0
2940 980 3 0 21.520000 47.230000 54.740000 0 0 0
2941 981 4 0 22.890000 49.880000 54.970000 0 0 0
2942 981 3 0 23.620000 49.740000 54.860000 0 0 0
2943 981 3 0 22.160000 50.030000 55.080000 0 0 0
2944 982 4 0 25.140000 49.640000 54.910000 0 0 0
2945 982 3 0 24.930000 49.090000 55.360000 0 0 0
2946 982 3 0 25.350000 50.200000 54.460000 0 0 0
2947 983 4 0 26.860000 48.230000 55.460000 0 0 0
2948 983 3 0 26.710000 47.610000 55.880000 0 0 0
2949 983 3 0 27.000000 48.850000 55.050000 0 0 0
2950 984 1 0 25.820000 46.110000 56.210000 0 0 0
2951 984 3 0 25.510000 45.500000 56.660000 0 0 0
2952 984 2 0 26.100000 46.670000 55.790000 0 0 0
2953 985 1 0 29.730000 55.400000 9.320000 0 0 0
2954 985 2 0 29.920000 56.090000 9.550000 0 0 0
2955 985 3 0 29.530000 54.660000 9.070000 0 0 0
2956 986 4 0 30.210000 57.230000 11.130000 0 0 0
2957 986 3 0 30.100000 0.412400 11.410000 0 1 0
2958 986 3 0 30.320000 56.510000 10.850000 0 0 0
2959 987 4 0 30.940000 2.080000 11.100000 0 1 0
2960 987 3 0 31.670000 1.930000 10.990000 0 1 0
2961 987 3 0 30.210000 2.220000 11.220000 0 1 0
2962 988 4 0 32.510000 3.960000 11.910000 0 1 0
2963 988 3 0 32.300000 3.410000 12.360000 0 1 0
2964 988 3 0 32.720000 4.520000 11.460000 0 1 0
2965 989 4 0 34.510000 4.410000 11.060000 0 1 0
2966 989 3 0 34.370000 3.790000 11.480000 0 1 0
2967 989 3 0 34.660000 5.030000 10.650000 0 1 0
2968 990 1 0 36.700000 4.560000 9.900000 0 1 0
2969 990 3 0 36.390000 3.950000 10.350000 0 1 0
2970 990 2 0 36.980000 5.120000 9.480000 0 1 0
2971 991 1 0 39.530000 54.320000 45.500000 0 0 0
2972 991 2 0 39.720000 55.010000 45.730000 0 0 0
2973 991 3 0 39.330000 53.580000 45.250000 0 0 0
2974 992 4 0 37.470000 52.870000 45.860000 0 0 0
2975 992 3 0 37.360000 53.590000 46.150000 0 0 0
2976 992 3 0 37.580000 52.150000 45.580000 0 0 0
2977 993 4 0 35.440000 51.370000 45.800000 0 0 0
2978 993 3 0 36.170000 51.220000 45.690000 0 0 0
2979 993 3 0 34.710000 51.510000 45.910000 0 0 0
2980 994 4 0 33.470000 49.830000 45.510000 0 0 0
2981 994 3 0 33.260000 49.270000 45.960000 0 0 0
2982 994 3 0 33.680000 50.380000 45.060000 0 0 0
2983 995 4 0 32.540000 48.040000 44.360000 0 0 0
2984 995 3 0 32.400000 47.420000 44.780000 0 0 0
2985 995 3 0 32.680000 48.660000 43.940000 0 0 0
2986 996 1 0 31.730000 47.890000 41.990000 0 0 0
2987 996 3 0 31.420000 47.280000 42.440000 0 0 0
2988 996 2 0 32.010000 48.450000 41.570000 0 0 0
2989 997 1 0 2.900000 24.510000 9.300000 0 0 0
2990 997 2 0 3.090000 25.200000 9.530000 0 0 0
2991 997 3 0 2.700000 23.770000 9.050000 0 0 0
2992 998 4 0 5.330000 23.730000 9.700000 0 0 0
2993 998 3 0 5.220000 24.450000 9.980000 0 0 0
2994 998 3 0 5.440000 23.010000 9.420000 0 0 0
2995 999 4 0 7.130000 24.510000 11.370000 0 0 0
2996 999 3 0 7.860000 24.370000 11.260000 0 0 0
2997 999 3 0 6.400000 24.660000 11.490000 0 0 0
2998 1000 4 0 8.360000 25.840000 12.810000 0 0 0
2999 1000 3 0 8.150000 25.290000 13.260000 0 0 0
3000 1000 3 0 8.570000 26.390000 12.360000 0 0 0
3001 1001 4 0 9.860000 25.170000 14.370000 0 0 0
3002 1001 3 0 9.720000 24.550000 14.790000 0 0 0
3003 1001 3 0 10.000000 25.790000 13.960000 0 0 0
3004 1002 1 0 11.450000 26.510000 15.070000 0 0 0
3005 1002 3 0 11.140000 25.900000 15.520000 0 0 0
3006 1002 2 0 11.730000 27.070000 14.650000 0 0 0
3007 1003 1 0 24.550000 31.330000 43.610000 0 0 0
3008 1003 2 0 24.740000 32.020000 43.840000 0 0 0
3009 1003 3 0 24.350000 30.590000 43.360000 0 0 0
3010 1004 4 0 25.510000 31.920000 45.790000 0 0 0
3011 1004 3 0 25.400000 32.640000 46.070000 0 0 0
3012 1004 3 0 25.620000 31.200000 45.500000 0 0 0
3013 1005 4 0 25.680000 33.170000 47.750000 0 0 0
3014 1005 3 0 26.410000 33.030000 47.640000 0 0 0
3015 1005 3 0 24.950000 33.320000 47.870000 0 0 0
3016 1006 4 0 25.950000 33.280000 49.980000 0 0 0
3017 1006 3 0 25.740000 32.720000 50.430000 0 0 0
3018 1006 3 0 26.160000 33.830000 49.530000 0 0 0
3019 1007 4 0 26.030000 35.360000 51.360000 0 0 0
3020 1007 3 0 25.890000 34.740000 51.780000 0 0 0
3021 1007 3 0 26.180000 35.980000 50.950000 0 0 0
3022 1008 1 0 25.280000 37.700000 51.400000 0 0 0
3023 1008 3 0 24.970000 37.090000 51.850000 0 0 0
3024 1008 2 0 25.560000 38.260000 50.980000 0 0 0
3025 1009 1 0 41.640000 44.810000 24.250000 0 0 0
3026 1009 2 0 41.830000 45.500000 24.480000 0 0 0
3027 1009 3 0 41.440000 44.070000 24.000000 0 0 0
3028 1010 4 0 39.600000 43.900000 23.900000 0 0 0
3029 1010 3 0 39.490000 44.620000 24.180000 0 0 0
3030 1010 3 0 39.710000 43.180000 23.620000 0 0 0
3031 1011 4 0 37.830000 43.520000 25.680000 0 0 0
3032 1011 3 0 38.560000 43.380000 25.570000 0 0 0
3033 1011 3 0 37.100000 43.670000 25.800000 0 0 0
3034 1012 4 0 36.380000 43.970000 27.320000 0 0 0
3035 1012 3 0 36.170000 43.410000 27.770000 0 0 0
3036 1012 3 0 36.590000 44.530000 26.870000 0 0 0
3037 1013 4 0 34.220000 43.310000 27.800000 0 0 0
3038 1013 3 0 34.080000 42.690000 28.210000 0 0 0
3039 1013 3 0 34.370000 43.930000 27.390000 0 0 0
3040 1014 1 0 32.950000 42.230000 26.270000 0 0 0
3041 1014 3 0 32.640000 41.620000 26.720000 0 0 0
3042 1014 2 0 33.230000 42.790000 25.850000 0 0 0
3043 1015 1 0 14.510000 50.170000 39.740000 0 0 0
3044 1015 2 0 14.700000 50.860000 39.970000 0 0 0
3045 1015 3 0 14.310000 49.430000 39.490000 0 0 0
3046 1016 4 0 15.070000 48.440000 38.430000 0 0 0
3047 1016 3 0 14.960000 49.160000 38.720000 0 0 0
3048 1016 3 0 15.180000 47.720000 38.140000 0 0 0
3049 1017 4 0 14.340000 46.220000 37.220000 0 0 0
3050 1017 3 0 15.070000 46.070000 37.110000 0 0 0
3051 1017 3 0 13.610000 46.360000 37.340000 0 0 0
3052 1018 4 0 14.080000 43.900000 38.310000 0 0 0
3053 1018 3 0 13.870000 43.340000 38.760000 0 0 0
3054 1018 3 0 14.290000 44.460000 37.860000 0 0 0
3055 1019 4 0 13.310000 42.640000 40.380000 0 0 0
3056 1019 3 0 13.170000 42.020000 40.800000 0 0 0
3057 1019 3 0 13.450000 43.260000 39.970000 0 0 0
3058 1020 1 0 12.980000 42.400000 43.000000 0 0 0
3059 1020 3 0 12.670000 41.790000 43.450000 0 0 0
3060 1020 2 0 13.260000 42.960000 42.580000 0 0 0
3061 1021 1 0 45.940000 32.440000 18.110000 0 0 0
3062 1021 2 0 46.130000 33.130000 18.340000 0 0 0
3063 1021 3 0 45.740000 31.700000 17.860000 0 0 0
3064 1022 4 0 46.240000 35.070000 18.170000 0 0 0
3065 1022 3 0 46.130000 35.790000 18.450000 0 0 0
3066 1022 3 0 46.350000 34.350000 17.880000 0 0 0
3067 1023 4 0 47.500000 36.150000 16.230000 0 0 0
3068 1023 3 0 48.230000 36.010000 16.120000 0 0 0
3069 1023 3 0 46.770000 36.300000 16.350000 0 0 0
3070 1024 4 0 49.230000 34.970000 14.900000 0 0 0
3071 1024 3 0 49.020000 34.420000 15.350000 0 0 0
3072 1024 3 0 49.440000 35.520000 14.450000 0 0 0
3073 1025 4 0 50.980000 33.320000 14.430000 0 0 0
3074 1025 3 0 50.830000 32.700000 14.850000 0 0 0
3075 1025 3 0 51.120000 33.940000 14.020000 0 0 0
3076 1026 1 0 52.440000 32.520000 12.470000 0 0 0
3077 1026 3 0 52.130000 31.910000 12.920000 0 0 0
3078 1026 2 0 52.720000 33.080000 12.050000 0 0 0
3079 1027 1 0 7.080000 33.450000 47.870000 0 0 0
3080 1027 2 0 7.270000 34.140000 48.100000 0 0 0
3081 1027 3 0 6.880000 32.710000 47.620000 0 0 0
3082 1028 4 0 8.210000 33.680000 49.840000 0 0 0
3083 1028 3 0 8.100000 34.400000 50.130000 0 0 0
3084 1028 3 0 8.320000 32.960000 49.550000 0 0 0
3085 1029 4 0 7.630000 32.450000 51.980000 0 0 0
3086 1029 3 0 8.360000 32.310000 51.870000 0 0 0
3087 1029 3 0 6.900000 32.600000 52.100000 0 0 0
3088 1030 4 0 7.400000 31.030000 53.990000 0 0 0
3089 1030 3 0 7.190000 30.480000 54.440000 0 0 0
3090 1030 3 0 7.610000 31.590000 53.540000 0 0 0
3091 1031 4 0 6.240000 29.950000 55.740000 0 0 0
3092 1031 3 0 6.100000 29.330000 56.150000 0 0 0
3093 1031 3 0 6.380000 30.570000 55.320000 0 0 0
3094 1032 1 0 6.200000 30.860000 0.320000 0 0 1
3095 1032 3 0 5.890000 30.250000 0.770000 0 0 1
3096 1032 2 0 6.480000 31.420000 57.437600 0 0 0
3097 1033 1 0 52.210000 22.270000 28.370000 0 0 0
3098 1033 2 0 52.400000 22.960000 28.600000 0 0 0
3099 1033 3 0 52.010000 21.530000 28.120000 0 0 0
3100 1034 4 0 53.510000 23.860000 29.170000 0 0 0
3101 1034 3 0 53.400000 24.580000 29.460000 0 0 0
3102 1034 3 0 53.620000 23.140000 28.880000 0 0 0
3103 1035 4 0 54.120000 26.350000 29.360000 0 0 0
3104 1035 3 0 54.850000 26.200000 29.250000 0 0 0
3105 1035 3 0 53.390000 26.490000 29.470000 0 0 0
3106 1036 4 0 53.900000 28.150000 30.670000 0 0 0
3107 1036 3 0 53.690000 27.600000 31.120000 0 0 0
3108 1036 3 0 54.110000 28.700000 30.220000 0 0 0
3109 1037 4 0 51.710000 28.580000 31.900000 0 0 0
3110 1037 3 0 51.570000 27.960000 32.320000 0 0 0
3111 1037 3 0 51.860000 29.200000 31.490000 0 0 0
3112 1038 1 0 49.550000 28.710000 32.440000 0 0 0
3113 1038 3 0 49.240000 28.100000 32.890000 0 0 0
3114 1038 2 0 49.830000 29.270000 32.020000 0 0 0
3115 1039 1 0 23.000000 7.410000 20.730000 0 0 0
3116 1039 2 0 23.190000 8.100000 20.960000 0 0 0
3117 1039 3 0 22.800000 6.670000 20.480000 0 0 0
3118 1040 4 0 25.280000 6.520000 19.980000 0 0 0
3119 1040 3 0 25.170000 7.240000 20.260000 0 0 0
3120 1040 3 0 25.390000 5.800000 19.700000 0 0 0
3121 1041 4 0 27.450000 6.580000 21.290000 0 0 0
3122 1041 3 0 28.180000 6.430000 21.180000 0 0 0
3123 1041 3 0 26.720000 6.720000 21.410000 0 0 0
3124 1042 4 0 27.520000 6.240000 23.840000 0 0 0
3125 1042 3 0 27.310000 5.690000 24.290000 0 0 0
3126 1042 3 0 27.730000 6.790000 23.390000 0 0 0
3127 1043 4 0 27.840000 5.910000 26.050000 0 0 0
3128 1043 3 0 27.690000 5.290000 26.470000 0 0 0
3129 1043 3 0 27.980000 6.530000 25.640000 0 0 0
3130 1044 1 0 29.590000 5.590000 27.760000 0 0 0
3131 1044 3 0 29.280000 4.980000 28.210000 0 0 0
3132 1044 2 0 29.870000 6.150000 27.340000 0 0 0
3133 1045 1 0 25.250000 57.510000 7.740000 0 0 0
3134 1045 2 0 25.440000 0.662400 7.970000 0 1 0
3135 1045 3 0 25.050000 56.770000 7.490000 0 0 0
3136 1046 4 0 26.200000 1.970000 8.910000 0 1 0
3137 1046 3 0 26.090000 2.690000 9.190000 0 1 0
3138 1046 3 0 26.310000 1.250000 8.630000 0 1 0
3139 1047 4 0 25.590000 4.000000 9.830000 0 1 0
3140 1047 3 0 26.320000 3.850000 9.720000 0 1 0
3141 1047 3 0 24.860000 4.140000 9.950000 0 1 0
3142 1048 4 0 24.590000 6.130000 10.470000 0 1 0
3143 1048 3 0 24.380000 5.570000 10.920000 0 1 0
3144 1048 3 0 24.800000 6.680000 10.020000 0 1 0
3145 1049 4 0 23.130000 7.290000 11.660000 0 1 0
3146 1049 3 0 22.990000 6.670000 12.080000 0 1 0
3147 1049 3 0 23.280000 7.910000 11.250000 0 1 0
3148 1050 1 0 22.280000 9.470000 10.640000 0 1 0
3149 1050 3 0 21.970000 8.860000 11.090000 0 1 0
3150 1050 2 0 22.560000 10.030000 10.220000 0 1 0
3151 1051 1 0 42.000000 33.850000 33.000000 0 0 0
3152 1051 2 0 42.190000 34.540000 33.230000 0 0 0
3153 1051 3 0 41.800000 33.110000 32.750000 0 0 0
3154 1052 4 0 43.880000 35.470000 33.640000 0 0 0
3155 1052 3 0 43.770000 36.190000 33.930000 0 0 0
3156 1052 3 0 43.990000 34.750000 33.350000 0 0 0
3157 1053 4 0 46.120000 35.880000 32.650000 0 0 0
3158 1053 3 0 46.850000 35.740000 32.540000 0 0 0
3159 1053 3 0 45.390000 36.030000 32.770000 0 0 0
3160 1054 4 0 48.620000 36.020000 31.940000 0 0 0
3161 1054 3 0 48.410000 35.460000 32.390000 0 0 0
3162 1054 3 0 48.830000 36.570000 31.490000 0 0 0
3163 1055 4 0 50.810000 35.780000 31.880000 0 0 0
3164 1055 3 0 50.670000 35.160000 32.300000 0 0 0
3165 1055 3 0 50.960000 36.400000 31.470000 0 0 0
3166 1056 1 0 52.970000 35.960000 32.390000 0 0 0
3167 1056 3 0 52.660000 35.350000 32.840000 0 0 0
3168 1056 2 0 53.250000 36.520000 31.970000 0 0 0
3169 1057 1 0 55.560000 44.050000 30.190000 0 0 0
3170 1057 2 0 55.750000 44.740000 30.420000 0 0 0
3171 1057 3 0 55.360000 43.310000 29.940000 0 0 0
3172 1058 4 0 54.010000 45.310000 28.650000 0 0 0
3173 1058 3 0 53.900000 46.030000 28.940000 0 0 0
3174 1058 3 0 54.120000 44.590000 28.370000 0 0 0
3175 1059 4 0 52.650000 46.090000 27.060000 0 0 0
3176 1059 3 0 53.380000 45.950000 26.950000 0 0 0
3177 1059 3 0 51.920000 46.230000 27.180000 0 0 0
3178 1060 4 0 52.120000 45.910000 24.630000 0 0 0
3179 1060 3 0 51.910000 45.350000 25.080000 0 0 0
3180 1060 3 0 52.330000 46.470000 24.180000 0 0 0
3181 1061 4 0 51.120000 47.410000 22.930000 0 0 0
3182 1061 3 0 50.980000 46.790000 23.350000 0 0 0
3183 1061 3 0 51.270000 48.030000 22.520000 0 0 0
3184 1062 1 0 49.860000 49.230000 21.780000 0 0 0
3185 1062 3 0 49.550000 48.620000 22.230000 0 0 0
3186 1062 2 0 50.140000 49.790000 21.360000 0 0 0
3187 1063 1 0 12.780000 30.840000 17.250000 0 0 0
3188 1063 2 0 12.970000 31.530000 17.480000 0 0 0
3189 1063 3 0 12.580000 30.100000 17.000000 0 0 0
3190 1064 4 0 11.410000 31.620000 15.230000 0 0 0
3191 1064 3 0 11.300000 32.340000 15.510000 0 0 0
3192 1064 3 0 11.520000 30.900000 14.940000 0 0 0
3193 1065 4 0 9.180000 30.930000 14.970000 0 0 0
3194 1065 3 0 9.910000 30.790000 14.860000 0 0 0
3195 1065 3 0 8.450000 31.070000 15.090000 0 0 0
3196 1066 4 0 7.240000 29.330000 15.640000 0 0 0
3197 1066 3 0 7.030000 28.770000 16.090000 0 0 0
3198 1066 3 0 7.450000 29.880000 15.190000 0 0 0
3199 1067 4 0 6.710000 27.490000 17.330000 0 0 0
3200 1067 3 0 6.570000 26.870000 17.750000 0 0 0
3201 1067 3 0 6.850000 28.110000 16.920000 0 0 0
3202 1068 1 0 6.880000 25.500000 18.250000 0 0 0
3203 1068 3 0 6.570000 24.890000 18.700000 0 0 0
3204 1068 2 0 7.160000 26.060000 17.830000 0 0 0
3205 1069 1 0 46.800000 23.220000 4.180000 0 0 0
3206 1069 2 0 46.990000 23.910000 4.410000 0 0 0
3207 1069 3 0 46.600000 22.480000 3.930000 0 0 0
3208 1070 4 0 44.640000 24.250000 4.590000 0 0 0
3209 1070 3 0 44.530000 24.970000 4.870000 0 0 0
3210 1070 3 0 44.750000 23.530000 4.310000 0 0 0
3211 1071 4 0 42.290000 25.300000 4.340000 0 0 0
3212 1071 3 0 43.020000 25.150000 4.230000 0 0 0
3213 1071 3 0 41.560000 25.440000 4.460000 0 0 0
3214 1072 4 0 40.150000 26.110000 4.970000 0 0 0
3215 1072 3 0 39.940000 25.560000 5.420000 0 0 0
3216 1072 3 0 40.360000 26.670000 4.520000 0 0 0
3217 1073 4 0 39.940000 26.000000 7.350000 0 0 0
3218 1073 3 0 39.800000 25.380000 7.770000 0 0 0
3219 1073 3 0 40.080000 26.620000 6.940000 0 0 0
3220 1074 1 0 39.670000 26.510000 9.900000 0 0 0
3221 1074 3 0 39.360000 25.900000 10.350000 0 0 0
3222 1074 2 0 39.950000 27.070000 9.480000 0 0 0
3223 1075 1 0 14.580000 18.550000 49.670000 0 0 0
3224 1075 2 0 14.770000 19.240000 49.900000 0 0 0
3225 1075 3 0 14.380000 17.810000 49.420000 0 0 0
3226 1076 4 0 12.670000 17.060000 50.290000 0 0 0
3227 1076 3 0 12.560000 17.780000 50.580000 0 0 0
3228 1076 3 0 12.780000 16.340000 50.000000 0 0 0
3229 1077 4 0 10.570000 15.890000 50.900000 0 0 0
3230 1077 3 0 11.300000 15.750000 50.790000 0 0 0
3231 1077 3 0 9.840000 16.030000 51.010000 0 0 0
3232 1078 4 0 8.770000 14.690000 51.310000 0 0 0
3233 1078 3 0 8.560000 14.130000 51.760000 0 0 0
3234 1078 3 0 8.980000 15.250000 50.860000 0 0 0
3235 1079 4 0 8.700000 13.050000 53.010000 0 0 0
3236 1079 3 0 8.560000 12.430000 53.430000 0 0 0
3237 1079 3 0 8.840000 13.670000 52.600000 0 0 0
3238 1080 1 0 8.250000 12.090000 55.020000 0 0 0
3239 1080 3 0 7.940000 11.480000 55.470000 0 0 0
3240 1080 2 0 8.530000 12.650000 54.600000 0 0 0
3241 1081 1 0 49.320000 36.830000 10.050000 0 0 0
3242 1081 2 0 49.510000 37.520000 10.280000 0 0 0
3243 1081 3 0 49.120000 36.090000 9.800000 0 0 0
3244 1082 4 0 47.440000 36.170000 11.350000 0 0 0
3245 1082 3 0 47.330000 36.890000 11.630000 0 0 0
3246 1082 3 0 47.550000 35.450000 11.070000 0 0 0
3247 1083 4 0 45.620000 35.490000 12.360000 0 0 0
3248 1083 3 0 46.350000 35.340000 12.250000 0 0 0
3249 1083 3 0 44.890000 35.630000 12.480000 0 0 0
3250 1084 4 0 44.040000 33.870000 13.410000 0 0 0
3251 1084 3 0 43.830000 33.320000 13.860000 0 0 0
3252 1084 3 0 44.250000 34.420000 12.960000 0 0 0
3253 1085 4 0 42.160000 32.550000 14.410000 0 0 0
3254 1085 3 0 42.020000 31.930000 14.830000 0 0 0
3255 1085 3 0 42.310000 33.170000 14.000000 0 0 0
3256 1086 1 0 41.740000 32.200000 16.880000 0 0 0
3257 1086 3 0 41.430000 31.590000 17.330000 0 0 0
3258 1086 2 0 42.020000 32.760000 16.460000 0 0 0
3259 1087 1 0 34.690000 42.900000 21.310000 0 0 0
3260 1087 2 0 34.880000 43.590000 21.540000 0 0 0
3261 1087 3 0 34.490000 42.160000 21.060000 0 0 0
3262 1088 4 0 36.470000 43.880000 20.360000 0 0 0
3263 1088 3 0 36.360000 44.600000 20.640000 0 0 0
3264 1088 3 0 36.580000 43.160000 20.080000 0 0 0
3265 1089 4 0 37.700000 45.680000 20.920000 0 0 0
3266 1089 3 0 38.430000 45.530000 20.810000 0 0 0
3267 1089 3 0 36.970000 45.820000 21.040000 0 0 0
3268 1090 4 0 38.550000 47.700000 22.010000 0 0 0
3269 1090 3 0 38.340000 47.140000 22.460000 0 0 0
3270 1090 3 0 38.760000 48.250000 21.560000 0 0 0
3271 1091 4 0 38.690000 48.820000 24.120000 0 0 0
3272 1091 3 0 38.550000 48.200000 24.540000 0 0 0
3273 1091 3 0 38.840000 49.440000 23.700000 0 0 0
3274 1092 1 0 38.300000 49.920000 26.230000 0 0 0
3275 1092 3 0 37.990000 49.310000 26.680000 0 0 0
3276 1092 2 0 38.580000 50.480000 25.810000 0 0 0
3277 1093 1 0 20.730000 33.970000 54.070000 0 0 0
3278 1093 2 0 20.920000 34.660000 54.300000 0 0 0
3279 1093 3 0 20.530000 33.230000 53.820000 0 0 0
3280 1094 4 0 19.260000 31.920000 54.410000 0 0 0
3281 1094 3 0 19.150000 32.640000 54.700000 0 0 0
3282 1094 3 0 19.370000 31.200000 54.120000 0 0 0
3283 1095 4 0 17.560000 30.250000 55.050000 0 0 0
3284 1095 3 0 18.290000 30.100000 54.940000 0 0 0
3285 1095 3 0 16.830000 30.390000 55.160000 0 0 0
3286 1096 4 0 15.300000 29.240000 54.690000 0 0 0
3287 1096 3 0 15.090000 28.690000 55.140000 0 0 0
3288 1096 3 0 15.510000 29.790000 54.240000 0 0 0
3289 1097 4 0 13.270000 29.720000 55.950000 0 0 0
3290 1097 3 0 13.120000 29.100000 56.360000 0 0 0
3291 1097 3 0 13.410000 30.340000 55.530000 0 0 0
3292 1098 1 0 10.960000 28.800000 55.720000 0 0 0
3293 1098 3 0 10.650000 28.190000 56.170000 0 0 0
3294 1098 2 0 11.240000 29.360000 55.300000 0 0 0
3295 1099 1 0 5.170000 34.530000 3.620000 0 0 0
3296 1099 2 0 5.360000 35.220000 3.850000 0 0 0
3297 1099 3 0 4.970000 33.790000 3.370000 0 0 0
3298 1100 4 0 5.890000 36.270000 4.720000 0 0 0
3299 1100 3 0 5.780000 36.990000 5.000000 0 0 0
3300 1100 3 0 6.000000 35.550000 4.440000 0 0 0
3301 1101 4 0 5.690000 38.360000 5.480000 0 0 0
3302 1101 3 0 6.420000 38.210000 5.370000 0 0 0
3303 1101 3 0 4.960000 38.500000 5.600000 0 0 0
3304 1102 4 0 4.010000 38.770000 7.020000 0 0 0
3305 1102 3 0 3.800000 38.210000 7.470000 0 0 0
3306 1102 3 0 4.220000 39.320000 6.570000 0 0 0
3307 1103 4 0 1.790000 38.380000 8.320000 0 0 0
3308 1103 3 0 1.650000 37.760000 8.740000 0 0 0
3309 1103 3 0 1.930000 39.000000 7.910000 0 0 0
3310 1104 1 0 0.350000 36.910000 8.980000 0 0 0
3311 1104 3 0 0.040000 36.300000 9.430000 0 0 0
3312 1104 2 0 0.630000 37.470000 8.560000 0 0 0
3313 1105 1 0 17.900000 40.680000 41.880000 0 0 0
3314 1105 2 0 18.090000 41.370000 42.110000 0 0 0
3315 1105 3 0 17.700000 39.940000 41.630000 0 0 0
3316 1106 4 0 20.300000 40.340000 41.340000 0 0 0
3317 1106 3 0 20.190000 41.060000 41.630000 0 0 0
3318 1106 3 0 20.410000 39.620000 41.060000 0 0 0
3319 1107 4 0 21.480000 39.020000 42.800000 0 0 0
3320 1107 3 0 22.210000 38.880000 42.690000 0 0 0
3321 1107 3 0 20.750000 39.170000 42.920000 0 0 0
3322 1108 4 0 22.660000 37.690000 44.560000 0 0 0
3323 1108 3 0 22.450000 37.140000 45.010000 0 0 0
3324 1108 3 0 22.870000 38.250000 44.110000 0 0 0
3325 1109 4 0 25.060000 37.980000 45.350000 0 0 0
3326 1109 3 0 24.910000 37.360000 45.770000 0 0 0
3327 1109 3 0 25.200000 38.600000 44.940000 0 0 0
3328 1110 1 0 26.930000 39.630000 45.790000 0 0 0
3329 1110 3 0 26.620000 39.020000 46.240000 0 0 0
3330 1110 2 0 27.210000 40.190000 45.370000 0 0 0
3331 1111 1 0 41.320000 56.080000 52.150000 0 0 0
3332 1111 2 0 41.510000 56.770000 52.380000 0 0 0
3333 1111 3 0 41.120000 55.340000 51.900000 0 0 0
3334 1112 4 0 40.840000 54.520000 50.620000 0 0 0
3335 1112 3 0 40.730000 55.240000 50.910000 0 0 0
3336 1112 3 0 40.950000 53.800000 50.340000 0 0 0
3337 1113 4 0 41.300000 52.540000 49.250000 0 0 0
3338 1113 3 0 42.030000 52.390000 49.130000 0 0 0
3339 1113 3 0 40.570000 52.680000 49.360000 0 0 0
3340 1114 4 0 41.630000 50.810000 47.900000 0 0 0
3341 1114 3 0 41.420000 50.260000 48.350000 0 0 0
3342 1114 3 0 41.840000 51.370000 47.450000 0 0 0
3343 1115 4 0 42.890000 48.900000 47.130000 0 0 0
3344 1115 3 0 42.740000 48.280000 47.550000 0 0 0
3345 1115 3 0 43.030000 49.520000 46.710000 0 0 0
3346 1116 1 0 43.640000 49.020000 44.720000 0 0 0
3347 1116 3 0 43.330000 48.410000 45.170000 0 0 0
3348 1116 2 0 43.920000 49.580000 44.300000 0 0 0
3349 1117 1 0 0.180000 20.920000 11.600000 0 0 0
3350 1117 2 0 0.370000 21.610000 11.830000 0 0 0
3351 1117 3 0 57.517600 20.180000 11.350000 -1 0 0
3352 1118 4 0 0.380000 22.600000 13.140000 0 0 0
3353 1118 3 0 0.270000 23.320000 13.430000 0 0 0
3354 1118 3 0 0.490000 21.880000 12.860000 0 0 0
3355 1119 4 0 56.290000 23.020000 14.970000 -1 0 0
3356 1119 3 0 57.020000 22.880000 14.860000 -1 0 0
3357 1119 3 0 55.560000 23.170000 15.090000 -1 0 0
3358 1120 4 0 54.480000 23.870000 15.890000 -1 0 0
3359 1120 3 0 54.270000 23.320000 16.340000 -1 0 0
3360 1120 3 0 54.690000 24.420000 15.440000 -1 0 0
3361 1121 4 0 52.480000 24.700000 16.200000 -1 0 0
3362 1121 3 0 52.340000 24.080000 16.620000 -1 0 0
3363 1121 3 0 52.630000 25.320000 15.790000 -1 0 0
3364 1122 1 0 50.240000 25.020000 16.410000 -1 0 0
3365 1122 3 0 49.930000 24.410000 16.860000 -1 0 0
3366 1122 2 0 50.520000 25.580000 15.990000 -1 0 0
3367 1123 1 0 21.980000 53.640000 43.810000 0 0 0
3368 1123 2 0 22.170000 54.330000 44.040000 0 0 0
3369 1123 3 0 21.780000 52.900000 43.560000 0 0 0
3370 1124 4 0 22.720000 53.980000 45.870000 0 0 0
3371 1124 3 0 22.610000 54.700000 46.150000 0 0 0
3372 1124 3 0 22.830000 53.260000 45.580000 0 0 0
3373 1125 4 0 23.480000 55.550000 47.550000 0 0 0
3374 1125 3 0 24.210000 55.400000 47.440000 0 0 0
3375 1125 3 0 22.750000 55.690000 47.660000 0 0 0
3376 1126 4 0 24.070000 0.010000 48.940000 0 1 0
3377 1126 3 0 23.860000 56.997600 49.390000 0 0 0
3378 1126 3 0 24.280000 0.560000 48.490000 0 1 0
3379 1127 4 0 24.210000 1.740000 50.350000 0 1 0
3380 1127 3 0 24.060000 1.120000 50.770000 0 1 0
3381 1127 3 0 24.350000 2.360000 49.940000 0 1 0
3382 1128 1 0 23.670000 3.390000 52.310000 0 1 0
3383 1128 3 0 23.360000 2.780000 52.760000 0 1 0
3384 1128 2 0 23.950000 3.950000 51.890000 0 1 0
3385 1129 1 0 34.660000 21.440000 46.220000 0 0 0
3386 1129 2 0 34.850000 22.130000 46.450000 0 0 0
3387 1129 3 0 34.460000 20.700000 45.970000 0 0 0
3388 1130 4 0 33.440000 19.950000 47.850000 0 0 0
3389 1130 3 0 33.330000 20.670000 48.140000 0 0 0
3390 1130 3 0 33.550000 19.230000 47.560000 0 0 0
3391 1131 4 0 31.870000 19.120000 49.640000 0 0 0
3392 1131 3 0 32.600000 18.970000 49.530000 0 0 0
3393 1131 3 0 31.140000 19.260000 49.760000 0 0 0
3394 1132 4 0 30.750000 18.200000 51.710000 0 0 0
3395 1132 3 0 30.540000 17.640000 52.160000 0 0 0
3396 1132 3 0 30.960000 18.760000 51.260000 0 0 0
3397 1133 4 0 30.210000 17.750000 54.020000 0 0 0
3398 1133 3 0 30.060000 17.130000 54.440000 0 0 0
3399 1133 3 0 30.350000 18.370000 53.610000 0 0 0
3400 1134 1 0 29.510000 17.360000 56.400000 0 0 0
3401 1134 3 0 29.200000 16.750000 56.850000 0 0 0
3402 1134 2 0 29.790000 17.920000 55.980000 0 0 0
3403 1135 1 0 31.480000 35.980000 5.620000 0 0 0
3404 1135 2 0 31.670000 36.670000 5.850000 0 0 0
3405 1135 3 0 31.280000 35.240000 5.370000 0 0 0
3406 1136 4 0 32.160000 37.960000 6.740000 0 0 0
3407 1136 3 0 32.050000 38.680000 7.030000 0 0 0
3408 1136 3 0 32.270000 37.240000 6.460000 0 0 0
3409 1137 4 0 32.640000 39.640000 8.030000 0 0 0
3410 1137 3 0 33.370000 39.500000 7.920000 0 0 0
3411 1137 3 0 31.910000 39.780000 8.150000 0 0 0
3412 1138 4 0 33.480000 41.700000 7.390000 0 0 0
3413 1138 3 0 33.270000 41.140000 7.840000 0 0 0
3414 1138 3 0 33.690000 42.260000 6.940000 0 0 0
3415 1139 4 0 33.910000 44.080000 7.240000 0 0 0
3416 1139 3 0 33.770000 43.460000 7.660000 0 0 0
3417 1139 3 0 34.050000 44.700000 6.830000 0 0 0
3418 1140 1 0 34.540000 46.370000 6.670000 0 0 0
3419 1140 3 0 34.230000 45.760000 7.120000 0 0 0
3420 1140 2 0 34.820000 46.930000 6.250000 0 0 0
3421 1141 1 0 26.700000 53.390000 28.910000 0 0 0
3422 1141 2 0 26.890000 54.080000 29.140000 0 0 0
3423 1141 3 0 26.500000 52.650000 28.660000 0 0 0
3424 1142 4 0 26.110000 54.000000 31.050000 0 0 0
3425 1142 3 0 26.000000 54.720000 31.330000 0 0 0
3426 1142 3 0 26.220000 53.280000 30.770000 0 0 0
3427 1143 4 0 25.200000 56.390000 31.280000 0 0 0
3428 1143 3 0 25.930000 56.250000 31.170000 0 0 0
3429 1143 3 0 24.470000 56.540000 31.390000 0 0 0
3430 1144 4 0 24.500000 57.350000 33.490000 0 0 0
3431 1144 3 0 24.290000 56.790000 33.940000 0 0 0
3432 1144 3 0 24.710000 0.372400 33.040000 0 1 0
3433 1145 4 0 24.100000 0.040000 35.970000 0 1 0
3434 1145 3 0 23.960000 56.957600 36.390000 0 0 0
3435 1145 3 0 24.250000 0.660000 35.560000 0 1 0
3436 1146 1 0 25.620000 57.270000 37.970000 0 0 0
3437 1146 3 0 25.310000 56.660000 38.420000 0 0 0
3438 1146 2 0 25.900000 0.292400 37.550000 0 1 0
3439 1147 1 0 6.970000 4.830000 56.310000 0 0 0
3440 1147 2 0 7.160000 5.520000 56.540000 0 0 0
3441 1147 3 0 6.770000 4.090000 56.060000 0 0 0
3442 1148 4 0 6.290000 2.940000 57.250000 0 0 0
3443 1148 3 0 6.180000 3.660000 57.530000 0 0 0
3444 1148 3 0 6.400000 2.220000 56.960000 0 0 0
3445 1149 4 0 5.590000 1.140000 0.960000 0 0 1
3446 1149 3 0 6.320000 0.990000 0.850000 0 0 1
3447 1149 3 0 4.860000 1.280000 1.080000 0 0 1
3448 1150 4 0 5.720000 56.990000 2.430000 0 -1 1
3449 1150 3 0 5.510000 56.430000 2.880000 0 -1 1
3450 1150 3 0 5.930000 0.012400 1.980000 0 0 1
3451 1151 4 0 6.320000 55.080000 3.710000 0 -1 1
3452 1151 3 0 6.180000 54.460000 4.130000 0 -1 1
3453 1151 3 0 6.460000 55.700000 3.300000 0 -1 1
3454 1152 1 0 7.110000 52.730000 4.150000 0 -1 1
3455 1152 3 0 6.800000 52.120000 4.600000 0 -1 1
3456 1152 2 0 7.390000 53.290000 3.730000 0 -1 1
3457 1153 1 0 31.610000 37.260000 32.350000 0 0 0
3458 1153 2 0 31.800000 37.950000 32.580000 0 0 0
3459 1153 3 0 31.410000 36.520000 32.100000 0 0 0
3460 1154 4 0 33.170000 35.720000 31.070000 0 0 0
3461 1154 3 0 33.060000 36.440000 31.360000 0 0 0
3462 1154 3 0 33.280000 35.000000 30.790000 0 0 0
3463 1155 4 0 33.770000 34.590000 29.260000 0 0 0
3464 1155 3 0 34.500000 34.450000 29.150000 0 0 0
3465 1155 3 0 33.040000 34.740000 29.380000 0 0 0
3466 1156 4 0 32.680000 35.370000 27.150000 0 0 0
3467 1156 3 0 32.470000 34.820000 27.600000 0 0 0
3468 1156 3 0 32.890000 35.920000 26.700000 0 0 0
3469 1157 4 0 31.460000 37.240000 26.220000 0 0 0
3470 1157 3 0 31.310000 36.620000 26.630000 0 0 0
3471 1157 3 0 31.600000 37.860000 25.800000 0 0 0
3472 1158 1 0 30.170000 38.930000 25.360000 0 0 0
3473 1158 3 0 29.860000 38.320000 25.810000 0 0 0
3474 1158 2 0 30.450000 39.490000 24.940000 0 0 0
3475 1159 1 0 44.540000 2.430000 28.200000 0 0 0
3476 1159 2 0 44.730000 3.120000 28.430000 0 0 0
3477 1159 3 0 44.340000 1.690000 27.950000 0 0 0
3478 1160 4 0 46.270000 1.450000 27.270000 0 0 0
3479 1160 3 0 46.160000 2.170000 27.550000 0 0 0
3480 1160 3 0 46.380000 0.730000 26.990000 0 0 0
3481 1161 4 0 48.260000 0.060000 26.300000 0 0 0
3482 1161 3 0 48.990000 57.447600 26.190000 0 -1 0
3483 1161 3 0 47.530000 0.200000 26.410000 0 0 0
3484 1162 4 0 50.520000 57.440000 25.610000 0 -1 0
3485 1162 3 0 50.310000 56.880000 26.060000 0 -1 0
3486 1162 3 0 50.730000 0.462400 25.160000 0 0 0
3487 1163 4 0 53.090000 57.360000 25.270000 0 -1 0
3488 1163 3 0 52.950000 56.740000 25.690000 0 -1 0
3489 1163 3 0 53.240000 0.442400 24.860000 0 0 0
3490 1164 1 0 55.510000 56.650000 25.680000 0 -1 0
3491 1164 3 0 55.200000 56.040000 26.130000 0 -1 0
3492 1164 2 0 55.790000 57.210000 25.260000 0 -1 0
3493 1165 1 0 2.550000 26.970000 6.260000 0 0 0
3494 1165 2 0 2.740000 27.660000 6.490000 0 0 0
3495 1165 3 0 2.350000 26.230000 6.010000 0 0 0
3496 1166 4 0 5.020000 27.220000 6.150000 0 0 0
3497 1166 3 0 4.910000 27.940000 6.430000 0 0 0
3498 1166 3 0 5.130000 26.500000 5.870000 0 0 0
3499 1167 4 0 7.050000 26.750000 6.790000 0 0 0
3500 1167 3 0 7.780000 26.600000 6.680000 0 0 0
3501 1167 3 0 6.320000 26.890000 6.910000 0 0 0
3502 1168 4 0 9.290000 26.050000 7.670000 0 0 0
3503 1168 3 0 9.080000 25.500000 8.120000 0 0 0
3504 1168 3 0 9.500000 26.600000 7.220000 0 0 0
3505 1169 4 0 11.510000 25.120000 8.420000 0 0 0
3506 1169 3 0 11.370000 24.500000 8.840000 0 0 0
3507 1169 3 0 11.650000 25.740000 8.010000 0 0 0
3508 1170 1 0 12.640000 24.430000 10.310000 0 0 0
3509 1170 3 0 12.330000 23.820000 10.760000 0 0 0
3510 1170 2 0 12.920000 24.990000 9.890000 0 0 0
3511 1171 1 0 2.730000 5.370000 3.180000 0 0 0
3512 1171 2 0 2.920000 6.060000 3.410000 0 0 0
3513 1171 3 0 2.530000 4.630000 2.930000 0 0 0
3514 1172 4 0 1.930000 7.450000 3.070000 0 0 0
3515 1172 3 0 1.820000 8.170000 3.350000 0 0 0
3516 1172 3 0 2.040000 6.730000 2.790000 0 0 0
3517 1173 4 0 1.080000 9.460000 2.710000 0 0 0
3518 1173 3 0 1.810000 9.310000 2.600000 0 0 0
3519 1173 3 0 0.350000 9.600000 2.830000 0 0 0
3520 1174 4 0 2.170000 10.870000 0.870000 0 0 0
3521 1174 3 0 1.960000 10.310000 1.320000 0 0 0
3522 1174 3 0 2.380000 11.430000 0.420000 0 0 0
3523 1175 4 0 3.880000 9.810000 57.450000 0 0 -1
3524 1175 3 0 3.740000 9.190000 0.332400 0 0 0
3525 1175 3 0 4.020000 10.430000 57.040000 0 0 -1
3526 1176 1 0 5.380000 8.180000 57.300000 0 0 -1
3527 1176 3 0 5.070000 7.570000 0.212400 0 0 0
3528 1176 2 0 5.660000 8.740000 56.880000 0 0 -1
3529 1177 1 0 15.580000 5.050000 21.510000 0 0 0
3530 1177 2 0 15.770000 5.740000 21.740000 0 0 0
3531 1177 3 0 15.380000 4.310000 21.260000 0 0 0
3532 1178 4 0 16.200000 5.680000 19.370000 0 0 0
3533 1178 3 0 16.090000 6.400000 19.660000 0 0 0
3534 1178 3 0 16.310000 4.960000 19.090000 0 0 0
3535 1179 4 0 16.980000 6.520000 17.320000 0 0 0
3536 1179 3 0 17.710000 6.370000 17.210000 0 0 0
3537 1179 3 0 16.250000 6.660000 17.440000 0 0 0
3538 1180 4 0 17.710000 7.280000 14.990000 0 0 0
3539 1180 3 0 17.500000 6.720000 15.440000 0 0 0
3540 1180 3 0 17.920000 7.830000 14.540000 0 0 0
3541 1181 4 0 18.090000 7.540000 12.730000 0 0 0
3542 1181 3 0 17.940000 6.920000 13.150000 0 0 0
3543 1181 3 0 18.230000 8.160000 12.320000 0 0 0
3544 1182 1 0 17.890000 7.840000 10.250000 0 0 0
3545 1182 3 0 17.580000 7.230000 10.700000 0 0 0
3546 1182 2 0 18.170000 8.400000 9.830000 0 0 0
3547 1183 1 0 5.700000 38.210000 41.320000 0 0 0
3548 1183 2 0 5.890000 38.900000 41.550000 0 0 0
3549 1183 3 0 5.500000 37.470000 41.070000 0 0 0
3550 1184 4 0 6.620000 37.910000 39.080000 0 0 0
3551 1184 3 0 6.510000 38.630000 39.360000 0 0 0
3552 1184 3 0 6.730000 37.190000 38.800000 0 0 0
3553 1185 4 0 5.600000 36.380000 37.360000 0 0 0
3554 1185 3 0 6.330000 36.230000 37.250000 0 0 0
3555 1185 3 0 4.870000 36.520000 37.480000 0 0 0
3556 1186 4 0 4.840000 34.650000 36.100000 0 0 0
3557 1186 3 0 4.630000 34.090000 36.550000 0 0 0
3558 1186 3 0 5.050000 35.200000 35.650000 0 0 0
3559 1187 4 0 5.100000 32.640000 35.240000 0 0 0
3560 1187 3 0 4.960000 32.020000 35.660000 0 0 0
3561 1187 3 0 5.240000 33.260000 34.820000 0 0 0
3562 1188 1 0 5.660000 30.710000 36.530000 0 0 0
3563 1188 3 0 5.350000 30.100000 36.980000 0 0 0
3564 1188 2 0 5.940000 31.270000 36.110000 0 0 0
3565 1189 1 0 7.990000 18.910000 53.210000 0 0 0
3566 1189 2 0 8.180000 19.600000 53.440000 0 0 0
3567 1189 3 0 7.790000 18.170000 52.960000 0 0 0
3568 1190 4 0 9.970000 19.930000 54.470000 0 0 0
3569 1190 3 0 9.860000 20.650000 54.760000 0 0 0
3570 1190 3 0 10.080000 19.210000 54.180000 0 0 0
3571 1191 4 0 12.290000 20.240000 55.380000 0 0 0
3572 1191 3 0 13.020000 20.100000 55.270000 0 0 0
3573 1191 3 0 11.560000 20.380000 55.500000 0 0 0
3574 1192 4 0 12.730000 19.940000 0.050000 0 0 1
3575 1192 3 0 12.520000 19.380000 0.500000 0 0 1
3576 1192 3 0 12.940000 20.500000 57.137600 0 0 0
3577 1193 4 0 12.170000 19.570000 2.190000 0 0 1
3578 1193 3 0 12.030000 18.950000 2.610000 0 0 1
3579 1193 3 0 12.320000 20.190000 1.780000 0 0 1
3580 1194 1 0 11.630000 19.490000 4.410000 0 0 1
3581 1194 3 0 11.320000 18.880000 4.860000 0 0 1
3582 1194 2 0 11.910000 20.050000 3.990000 0 0 1
3583 1195 1 0 14.870000 15.660000 35.780000 0 0 0
3584 1195 2 0 15.060000 16.350000 36.010000 0 0 0
3585 1195 3 0 14.670000 14.920000 35.530000 0 0 0
3586 1196 4 0 16.320000 14.040000 34.620000 0 0 0
3587 1196 3 0 16.210000 14.760000 34.900000 0 0 0
3588 1196 3 0 16.430000 13.320000 34.340000 0 0 0
3589 1197 4 0 18.160000 12.670000 35.890000 0 0 0
3590 1197 3 0 18.890000 12.520000 35.780000 0 0 0
3591 1197 3 0 17.430000 12.810000 36.010000 0 0 0
3592 1198 4 0 18.730000 12.050000 38.200000 0 0 0
3593 1198 3 0 18.520000 11.500000 38.650000 0 0 0
3594 1198 3 0 18.940000 12.600000 37.750000 0 0 0
3595 1199 4 0 20.130000 12.160000 40.170000 0 0 0
3596 1199 3 0 19.980000 11.540000 40.590000 0 0 0
3597 1199 3 0 20.270000 12.780000 39.760000 0 0 0
3598 1200 1 0 21.120000 12.170000 42.160000 0 0 0
3599 1200 3 0 20.810000 11.560000 42.610000 0 0 0
3600 1200 2 0 21.400000 12.730000 41.740000 0 0 0
3601 1201 1 0 49.850000 4.710000 42.600000 0 0 0
3602 1201 2 0 50.040000 5.400000 42.830000 0 0 0
3603 1201 3 0 49.650000 3.970000 42.350000 0 0 0
3604 1202 4 0 51.070000 6.130000 43.830000 0 0 0
3605 1202 3 0 50.960000 6.850000 44.120000 0 0 0
3606 1202 3 0 51.180000 5.410000 43.540000 0 0 0
3607 1203 4 0 52.540000 6.520000 45.830000 0 0 0
3608 1203 3 0 53.270000 6.370000 45.720000 0 0 0
3609 1203 3 0 51.810000 6.660000 45.950000 0 0 0
3610 1204 4 0 51.580000 8.270000 47.310000 0 0 0
3611 1204 3 0 51.370000 7.710000 47.760000 0 0 0
3612 1204 3 0 51.790000 8.820000 46.860000 0 0 0
3613 1205 4 0 50.730000 8.920000 49.300000 0 0 0
3614 1205 3 0 50.590000 8.300000 49.710000 0 0 0
3615 1205 3 0 50.880000 9.540000 48.880000 0 0 0
3616 1206 1 0 50.780000 9.580000 51.710000 0 0 0
3617 1206 3 0 50.470000 8.970000 52.160000 0 0 0
3618 1206 2 0 51.060000 10.140000 51.290000 0 0 0
3619 1207 1 0 21.610000 35.060000 49.260000 0 0 0
3620 1207 2 0 21.800000 35.750000 49.490000 0 0 0
3621 1207 3 0 21.410000 34.320000 49.010000 0 0 0
3622 1208 4 0 19.210000 34.520000 49.190000 0 0 0
3623 1208 3 0 19.100000 35.240000 49.470000 0 0 0
3624 1208 3 0 19.320000 33.800000 48.900000 0 0 0
3625 1209 4 0 17.190000 34.290000 48.180000 0 0 0
3626 1209 3 0 17.920000 34.140000 48.060000 0 0 0
3627 1209 3 0 16.460000 34.430000 48.290000 0 0 0
3628 1210 4 0 15.150000 34.050000 47.010000 0 0 0
3629 1210 3 0 14.940000 33.490000 47.460000 0 0 0
3630 1210 3 0 15.360000 34.600000 46.560000 0 0 0
3631 1211 4 0 12.990000 34.790000 46.790000 0 0 0
3632 1211 3 0 12.840000 34.170000 47.210000 0 0 0
3633 1211 3 0 13.130000 35.410000 46.380000 0 0 0
3634 1212 1 0 11.520000 33.550000 47.950000 0 0 0
3635 1212 3 0 11.210000 32.940000 48.400000 0 0 0
3636 1212 2 0 11.800000 34.110000 47.530000 0 0 0
3637 1213 1 0 54.850000 13.030000 3.550000 0 0 0
3638 1213 2 0 55.040000 13.720000 3.780000 0 0 0
3639 1213 3 0 54.650000 12.290000 3.300000 0 0 0
3640 1214 4 0 53.340000 15.050000 3.730000 0 0 0
3641 1214 3 0 53.230000 15.770000 4.010000 0 0 0
3642 1214 3 0 53.450000 14.330000 3.450000 0 0 0
3643 1215 4 0 52.660000 17.040000 3.190000 0 0 0
3644 1215 3 0 53.390000 16.890000 3.080000 0 0 0
3645 1215 3 0 51.930000 17.180000 3.310000 0 0 0
3646 1216 4 0 51.690000 19.160000 2.300000 0 0 0
3647 1216 3 0 51.480000 18.610000 2.750000 0 0 0
3648 1216 3 0 51.900000 19.710000 1.850000 0 0 0
3649 1217 4 0 50.930000 21.380000 1.280000 0 0 0
3650 1217 3 0 50.790000 20.760000 1.700000 0 0 0
3651 1217 3 0 51.070000 22.000000 0.870000 0 0 0
3652 1218 1 0 50.030000 22.670000 57.170000 0 0 -1
3653 1218 3 0 49.720000 22.060000 0.082400 0 0 0
3654 1218 2 0 50.310000 23.230000 56.750000 0 0 -1
3655 1219 1 0 22.810000 51.750000 17.060000 0 0 0
3656 1219 2 0 23.000000 52.440000 17.290000 0 0 0
3657 1219 3 0 22.610000 51.010000 16.810000 0 0 0
3658 1220 4 0 20.660000 52.540000 17.400000 0 0 0
3659 1220 3 0 20.550000 53.260000 17.680000 0 0 0
3660 1220 3 0 20.770000 51.820000 17.120000 0 0 0
3661 1221 4 0 18.500000 53.080000 17.730000 0 0 0
3662 1221 3 0 19.230000 52.930000 17.620000 0 0 0
3663 1221 3 0 17.770000 53.220000 17.840000 0 0 0
3664 1222 4 0 16.430000 52.200000 17.640000 0 0 0
3665 1222 3 0 16.220000 51.640000 18.090000 0 0 0
3666 1222 3 0 16.640000 52.760000 17.190000 0 0 0
3667 1223 4 0 14.010000 51.370000 17.650000 0 0 0
3668 1223 3 0 13.870000 50.750000 18.060000 0 0 0
3669 1223 3 0 14.150000 51.990000 17.240000 0 0 0
3670 1224 1 0 12.130000 51.450000 16.210000 0 0 0
3671 1224 3 0 11.820000 50.840000 16.660000 0 0 0
3672 1224 2 0 12.410000 52.010000 15.790000 0 0 0
3673 1225 1 0 46.840000 15.670000 32.550000 0 0 0
3674 1225 2 0 47.030000 16.360000 32.780000 0 0 0
3675 1225 3 0 46.640000 14.930000 32.300000 0 0 0
3676 1226 4 0 45.960000 17.710000 32.110000 0 0 0
3677 1226 3 0 45.850000 18.430000 32.390000 0 0 0
3678 1226 3 0 46.070000 16.990000 31.830000 0 0 0
3679 1227 4 0 44.480000 18.760000 33.790000 0 0 0
3680 1227 3 0 45.210000 18.610000 33.680000 0 0 0
3681 1227 3 0 43.750000 18.900000 33.910000 0 0 0
3682 1228 4 0 43.130000 18.430000 35.640000 0 0 0
3683 1228 3 0 42.920000 17.880000 36.090000 0 0 0
3684 1228 3 0 43.340000 18.980000 35.190000 0 0 0
3685 1229 4 0 40.960000 19.730000 36.230000 0 0 0
3686 1229 3 0 40.820000 19.110000 36.650000 0 0 0
3687 1229 3 0 41.110000 20.350000 35.820000 0 0 0
3688 1230 1 0 40.630000 22.080000 35.520000 0 0 0
3689 1230 3 0 40.320000 21.470000 35.970000 0 0 0
3690 1230 2 0 40.910000 22.640000 35.100000 0 0 0
3691 1231 1 0 51.180000 36.280000 26.770000 0 0 0
3692 1231 2 0 51.370000 36.970000 27.000000 0 0 0
3693 1231 3 0 50.980000 35.540000 26.520000 0 0 0
3694 1232 4 0 49.760000 34.650000 27.410000 0 0 0
3695 1232 3 0 49.650000 35.370000 27.690000 0 0 0
3696 1232 3 0 49.870000 33.930000 27.130000 0 0 0
3697 1233 4 0 48.490000 32.590000 28.000000 0 0 0
3698 1233 3 0 49.220000 32.440000 27.880000 0 0 0
3699 1233 3 0 47.760000 32.730000 28.110000 0 0 0
3700 1234 4 0 47.030000 31.140000 29.400000 0 0 0
3701 1234 3 0 46.820000 30.580000 29.850000 0 0 0
3702 1234 3 0 47.240000 31.690000 28.950000 0 0 0
3703 1235 4 0 45.350000 29.840000 30.760000 0 0 0
3704 1235 3 0 45.210000 29.220000 31.180000 0 0 0
3705 1235 3 0 45.500000 30.460000 30.350000 0 0 0
3706 1236 1 0 43.750000 29.960000 32.170000 0 0 0
3707 1236 3 0 43.440000 29.350000 32.620000 0 0 0
3708 1236 2 0 44.030000 30.520000 31.750000 0 0 0
3709 1237 1 0 34.390000 15.330000 51.520000 0 0 0
3710 1237 2 0 34.580000 16.020000 51.750000 0 0 0
3711 1237 3 0 34.190000 14.590000 51.270000 0 0 0
3712 1238 4 0 35.620000 15.980000 49.740000 0 0 0
3713 1238 3 0 35.510000 16.700000 50.030000 0 0 0
3714 1238 3 0 35.730000 15.260000 49.460000 0 0 0
3715 1239 4 0 36.860000 16.690000 47.660000 0 0 0
3716 1239 3 0 37.590000 16.550000 47.550000 0 0 0
3717 1239 3 0 36.130000 16.830000 47.770000 0 0 0
3718 1240 4 0 38.260000 18.140000 46.260000 0 0 0
3719 1240 3 0 38.050000 17.590000 46.710000 0 0 0
3720 1240 3 0 38.470000 18.690000 45.810000 0 0 0
3721 1241 4 0 39.700000 20.060000 45.940000 0 0 0
3722 1241 3 0 39.560000 19.440000 46.360000 0 0 0
3723 1241 3 0 39.850000 20.680000 45.530000 0 0 0
3724 1242 1 0 40.900000 21.880000 45.510000 0 0 0
3725 1242 3 0 40.590000 21.270000 45.960000 0 0 0
3726 1242 2 0 41.180000 22.440000 45.090000 0 0 0
3727 1243 1 0 30.690000 46.980000 28.390000 0 0 0
3728 1243 2 0 30.880000 47.670000 28.620000 0 0 0
3729 1243 3 0 30.490000 46.240000 28.140000 0 0 0
3730 1244 4 0 32.440000 48.480000 28.420000 0 0 0
3731 1244 3 0 32.330000 49.200000 28.700000 0 0 0
3732 1244 3 0 32.550000 47.760000 28.140000 0 0 0
3733 1245 4 0 34.420000 49.610000 29.320000 0 0 0
3734 1245 3 0 35.150000 49.470000 29.210000 0 0 0
3735 1245 3 0 33.690000 49.760000 29.440000 0 0 0
3736 1246 4 0 35.830000 51.430000 29.150000 0 0 0
3737 1246 3 0 35.620000 50.870000 29.600000 0 0 0
3738 1246 3 0 36.040000 51.990000 28.700000 0 0 0
3739 1247 4 0 37.100000 53.490000 28.610000 0 0 0
3740 1247 3 0 36.960000 52.870000 29.030000 0 0 0
3741 1247 3 0 37.240000 54.110000 28.200000 0 0 0
3742 1248 1 0 38.160000 55.300000 27.810000 0 0 0
3743 1248 3 0 37.850000 54.690000 28.260000 0 0 0
3744 1248 2 0 38.440000 55.860000 27.390000 0 0 0
3745 1249 1 0 16.040000 44.190000 12.060000 0 0 0
3746 1249 2 0 16.230000 44.880000 12.290000 0 0 0
3747 1249 3 0 15.840000 43.450000 11.810000 0 0 0
3748 1250 4 0 17.290000 43.520000 14.230000 0 0 0
3749 1250 3 0 17.180000 44.240000 14.520000 0 0 0
3750 1250 3 0 17.400000 42.800000 13.950000 0 0 0
3751 1251 4 0 16.090000 43.700000 16.420000 0 0 0
3752 1251 3 0 16.820000 43.560000 16.310000 0 0 0
3753 1251 3 0 15.360000 43.850000 16.530000 0 0 0
3754 1252 4 0 14.350000 44.140000 17.860000 0 0 0
3755 1252 3 0 14.140000 43.580000 18.310000 0 0 0
3756 1252 3 0 14.560000 44.700000 17.410000 0 0 0
3757 1253 4 0 12.410000 45.890000 17.420000 0 0 0
3758 1253 3 0 12.270000 45.270000 17.840000 0 0 0
3759 1253 3 0 12.560000 46.510000 17.010000 0 0 0
3760 1254 1 0 10.320000 47.220000 17.660000 0 0 0
3761 1254 3 0 10.010000 46.610000 18.110000 0 0 0
3762 1254 2 0 10.600000 47.780000 17.240000 0 0 0
3763 1255 1 0 11.900000 16.900000 31.480000 0 0 0
3764 1255 2 0 12.090000 17.590000 31.710000 0 0 0
3765 1255 3 0 11.700000 16.160000 31.230000 0 0 0
3766 1256 4 0 13.270000 15.030000 30.720000 0 0 0
3767 1256 3 0 13.160000 15.750000 31.010000 0 0 0
3768 1256 3 0 13.380000 14.310000 30.430000 0 0 0
3769 1257 4 0 14.510000 13.770000 29.410000 0 0 0
3770 1257 3 0 15.240000 13.620000 29.290000 0 0 0
3771 1257 3 0 13.780000 13.910000 29.520000 0 0 0
3772 1258 4 0 16.440000 12.340000 28.770000 0 0 0
3773 1258 3 0 16.230000 11.790000 29.220000 0 0 0
3774 1258 3 0 16.650000 12.890000 28.320000 0 0 0
3775 1259 4 0 18.450000 10.890000 28.230000 0 0 0
3776 1259 3 0 18.310000 10.270000 28.650000 0 0 0
3777 1259 3 0 18.590000 11.510000 27.820000 0 0 0
3778 1260 1 0 20.030000 10.570000 30.200000 0 0 0
3779 1260 3 0 19.720000 9.960000 30.650000 0 0 0
3780 1260 2 0 20.310000 11.130000 29.780000 0 0 0
3781 1261 1 0 1.580000 48.960000 26.570000 0 0 0
3782 1261 2 0 1.770000 49.650000 26.800000 0 0 0
3783 1261 3 0 1.380000 48.220000 26.320000 0 0 0
3784 1262 4 0 57.250000 50.170000 27.310000 -1 0 0
3785 1262 3 0 57.140000 50.890000 27.600000 -1 0 0
3786 1262 3 0 57.360000 49.450000 27.020000 -1 0 0
3787 1263 4 0 55.330000 51.670000 27.530000 -1 0 0
3788 1263 3 0 56.060000 51.520000 27.420000 -1 0 0
3789 1263 3 0 54.600000 51.810000 27.640000 -1 0 0
3790 1264 4 0 53.600000 53.490000 27.930000 -1 0 0
3791 1264 3 0 53.390000 52.930000 28.380000 -1 0 0
3792 1264 3 0 53.810000 54.050000 27.480000 -1 0 0
3793 1265 4 0 52.290000 55.090000 29.360000 -1 0 0
3794 1265 3 0 52.150000 54.470000 29.780000 -1 0 0
3795 1265 3 0 52.440000 55.710000 28.940000 -1 0 0
3796 1266 1 0 49.970000 54.750000 29.990000 -1 0 0
3797 1266 3 0 49.660000 54.140000 30.440000 -1 0 0
3798 1266 2 0 50.250000 55.310000 29.570000 -1 0 0
3799 1267 1 0 40.450000 53.630000 55.520000 0 0 0
3800 1267 2 0 40.640000 54.320000 55.750000 0 0 0
3801 1267 3 0 40.250000 52.890000 55.270000 0 0 0
3802 1268 4 0 41.540000 51.710000 56.670000 0 0 0
3803 1268 3 0 41.430000 52.430000 56.960000 0 0 0
3804 1268 3 0 41.650000 50.990000 56.380000 0 0 0
3805 1269 4 0 42.860000 49.690000 0.070000 0 0 1
3806 1269 3 0 43.590000 49.550000 57.497600 0 0 0
3807 1269 3 0 42.130000 49.840000 0.190000 0 0 1
3808 1270 4 0 43.930000 47.460000 0.690000 0 0 1
3809 1270 3 0 43.720000 46.910000 1.140000 0 0 1
3810 1270 3 0 44.140000 48.020000 0.240000 0 0 1
3811 1271 4 0 44.330000 45.540000 57.080000 0 0 0
3812 1271 3 0 44.180000 44.920000 57.500000 0 0 0
3813 1271 3 0 44.470000 46.160000 56.670000 0 0 0
3814 1272 1 0 44.730000 43.520000 56.380000 0 0 0
3815 1272 3 0 44.420000 42.910000 56.830000 0 0 0
3816 1272 2 0 45.010000 44.080000 55.960000 0 0 0
3817 1273 1 0 42.720000 4.730000 1.490000 0 0 0
3818 1273 2 0 42.910000 5.420000 1.720000 0 0 0
3819 1273 3 0 42.520000 3.990000 1.240000 0 0 0
3820 1274 4 0 43.230000 4.440000 3.830000 0 0 0
3821 1274 3 0 43.120000 5.160000 4.110000 0 0 0
3822 1274 3 0 43.340000 3.720000 3.550000 0 0 0
3823 1275 4 0 43.220000 4.290000 6.090000 0 0 0
3824 1275 3 0 43.950000 4.140000 5.980000 0 0 0
3825 1275 3 0 42.490000 4.430000 6.210000 0 0 0
3826 1276 4 0 43.410000 6.300000 7.630000 0 0 0
3827 1276 3 0 43.200000 5.750000 8.080000 0 0 0
3828 1276 3 0 43.620000 6.850000 7.180000 0 0 0
3829 1277 4 0 43.610000 7.880000 9.160000 0 0 0
3830 1277 3 0 43.460000 7.260000 9.580000 0 0 0
3831 1277 3 0 43.750000 8.500000 8.750000 0 0 0
3832 1278 1 0 45.450000 8.460000 10.230000 0 0 0
3833 1278 3 0 45.140000 7.850000 10.680000 0 0 0
3834 1278 2 0 45.730000 9.020000 9.810000 0 0 0
3835 1279 1 0 31.910000 26.460000 27.940000 0 0 0
3836 1279 2 0 32.100000 27.150000 28.170000 0 0 0
3837 1279 3 0 31.710000 25.720000 27.690000 0 0 0
3838 1280 4 0 33.360000 28.110000 26.800000 0 0 0
3839 1280 3 0 33.250000 28.830000 27.080000 0 0 0
3840 1280 3 0 33.470000 27.390000 26.520000 0 0 0
3841 1281 4 0 34.740000 29.930000 26.030000 0 0 0
3842 1281 3 0 35.470000 29.780000 25.920000 0 0 0
3843 1281 3 0 34.010000 30.070000 26.150000 0 0 0
3844 1282 4 0 36.170000 31.610000 25.450000 0 0 0
3845 1282 3 0 35.960000 31.060000 25.900000 0 0 0
3846 1282 3 0 36.380000 32.160000 25.000000 0 0 0
3847 1283 4 0 37.620000 33.310000 25.060000 0 0 0
3848 1283 3 0 37.480000 32.690000 25.470000 0 0 0
3849 1283 3 0 37.760000 33.930000 24.650000 0 0 0
3850 1284 1 0 38.870000 35.170000 24.900000 0 0 0
3851 1284 3 0 38.560000 34.560000 25.350000 0 0 0
3852 1284 2 0 39.150000 35.730000 24.480000 0 0 0
3853 1285 1 0 40.150000 46.530000 28.810000 0 0 0
3854 1285 2 0 40.340000 47.220000 29.040000 0 0 0
3855 1285 3 0 39.950000 45.790000 28.560000 0 0 0
3856 1286 4 0 39.510000 45.460000 30.720000 0 0 0
3857 1286 3 0 39.400000 46.180000 31.010000 0 0 0
3858 1286 3 0 39.620000 44.740000 30.430000 0 0 0
3859 1287 4 0 38.180000 46.810000 32.110000 0 0 0
3860 1287 3 0 38.910000 46.670000 32.000000 0 0 0
3861 1287 3 0 37.450000 46.960000 32.230000 0 0 0
3862 1288 4 0 37.370000 49.110000 32.770000 0 0 0
3863 1288 3 0 37.160000 48.550000 33.220000 0 0 0
3864 1288 3 0 37.580000 49.660000 32.320000 0 0 0
3865 1289 4 0 36.180000 51.290000 33.260000 0 0 0
3866 1289 3 0 36.030000 50.670000 33.680000 0 0 0
3867 1289 3 0 36.320000 51.910000 32.850000 0 0 0
3868 1290 1 0 34.730000 53.310000 33.360000 0 0 0
3869 1290 3 0 34.420000 52.700000 33.810000 0 0 0
3870 1290 2 0 35.010000 53.870000 32.940000 0 0 0
3871 1291 1 0 0.210000 34.580000 4.950000 0 0 0
3872 1291 2 0 0.400000 35.270000 5.180000 0 0 0
3873 1291 3 0 0.010000 33.840000 4.700000 0 0 0
3874 1292 4 0 56.150000 35.310000 3.200000 -1 0 0
3875 1292 3 0 56.040000 36.030000 3.480000 -1 0 0
3876 1292 3 0 56.260000 34.590000 2.920000 -1 0 0
3877 1293 4 0 56.120000 34.920000 0.690000 -1 0 0
3878 1293 3 0 56.850000 34.780000 0.580000 -1 0 0
3879 1293 3 0 55.390000 35.060000 0.810000 -1 0 0
3880 1294 4 0 56.860000 34.490000 56.220000 -1 0 -1
3881 1294 3 0 56.650000 33.930000 56.670000 -1 0 -1
3882 1294 3 0 57.070000 35.040000 55.770000 -1 0 -1
3883 1295 4 0 56.850000 34.340000 53.730000 -1 0 -1
3884 1295 3 0 56.700000 33.720000 54.150000 -1 0 -1
3885 1295 3 0 56.990000 34.960000 53.320000 -1 0 -1
3886 1296 1 0 56.640000 35.190000 51.590000 -1 0 -1
3887 1296 3 0 56.330000 34.580000 52.040000 -1 0 -1
3888 1296 2 0 56.920000 35.750000 51.170000 -1 0 -1
3889 1297 1 0 53.130000 47.490000 33.800000 0 0 0
3890 1297 2 0 53.320000 48.180000 34.030000 0 0 0
3891 1297 3 0 52.930000 46.750000 33.550000 0 0 0
3892 1298 4 0 53.590000 45.260000 34.940000 0 0 0
3893 1298 3 0 53.480000 45.980000 35.220000 0 0 0
3894 1298 3 0 53.700000 44.540000 34.660000 0 0 0
3895 1299 4 0 54.860000 43.710000 36.310000 0 0 0
3896 1299 3 0 55.590000 43.570000 36.190000 0 0 0
3897 1299 3 0 54.130000 43.860000 36.430000 0 0 0
3898 1300 4 0 55.950000 42.040000 37.790000 0 0 0
3899 1300 3 0 55.740000 41.480000 38.240000 0 0 0
3900 1300 3 0 56.160000 42.600000 37.340000 0 0 0
3901 1301 4 0 57.150000 40.370000 39.170000 0 0 0
3902 1301 3 0 57.000000 39.750000 39.580000 0 0 0
3903 1301 3 0 57.290000 40.990000 38.750000 0 0 0
3904 1302 1 0 1.250000 39.750000 41.030000 1 0 0
3905 1302 3 0 0.940000 39.140000 41.480000 1 0 0
3906 1302 2 0 1.530000 40.310000 40.610000 1 0 0
3907 1303 1 0 47.890000 16.040000 47.610000 0 0 0
3908 1303 2 0 48.080000 16.730000 47.840000 0 0 0
3909 1303 3 0 47.690000 15.300000 47.360000 0 0 0
3910 1304 4 0 48.340000 15.870000 45.130000 0 0 0
3911 1304 3 0 48.230000 16.590000 45.420000 0 0 0
3912 1304 3 0 48.450000 15.150000 44.840000 0 0 0
3913 1305 4 0 49.220000 14.770000 43.000000 0 0 0
3914 1305 3 0 49.950000 14.620000 42.880000 0 0 0
3915 1305 3 0 48.490000 14.920000 43.110000 0 0 0
3916 1306 4 0 50.340000 13.620000 41.030000 0 0 0
3917 1306 3 0 50.130000 13.070000 41.480000 0 0 0
3918 1306 3 0 50.550000 14.170000 40.580000 0 0 0
3919 1307 4 0 50.760000 14.620000 38.780000 0 0 0
3920 1307 3 0 50.610000 14.000000 39.200000 0 0 0
3921 1307 3 0 50.900000 15.240000 38.370000 0 0 0
3922 1308 1 0 50.350000 14.720000 36.420000 0 0 0
3923 1308 3 0 50.040000 14.110000 36.870000 0 0 0
3924 1308 2 0 50.630000 15.280000 36.000000 0 0 0
3925 1309 1 0 41.450000 37.460000 1.500000 0 0 0
3926 1309 2 0 41.640000 38.150000 1.730000 0 0 0
3927 1309 3 0 41.250000 36.720000 1.250000 0 0 0
3928 1310 4 0 39.280000 36.770000 1.750000 0 0 0
3929 1310 3 0 39.170000 37.490000 2.030000 0 0 0
3930 1310 3 0 39.390000 36.050000 1.470000 0 0 0
3931 1311 4 0 36.780000 36.780000 1.470000 0 0 0
3932 1311 3 0 37.510000 36.630000 1.360000 0 0 0
3933 1311 3 0 36.050000 36.920000 1.590000 0 0 0
3934 1312 4 0 35.400000 35.550000 2.620000 0 0 0
3935 1312 3 0 35.190000 35.000000 3.070000 0 0 0
3936 1312 3 0 35.610000 36.110000 2.170000 0 0 0
3937 1313 4 0 33.850000 33.390000 2.950000 0 0 0
3938 1313 3 0 33.700000 32.770000 3.370000 0 0 0
3939 1313 3 0 33.990000 34.010000 2.540000 0 0 0
3940 1314 1 0 32.490000 31.580000 3.090000 0 0 0
3941 1314 3 0 32.180000 30.970000 3.540000 0 0 0
3942 1314 2 0 32.770000 32.140000 2.670000 0 0 0
3943 1315 1 0 50.810000 49.620000 28.540000 0 0 0
3944 1315 2 0 51.000000 50.310000 28.770000 0 0 0
3945 1315 3 0 50.610000 48.880000 28.290000 0 0 0
3946 1316 4 0 50.250000 49.550000 30.650000 0 0 0
3947 1316 3 0 50.140000 50.270000 30.930000 0 0 0
3948 1316 3 0 50.360000 48.830000 30.370000 0 0 0
3949 1317 4 0 50.800000 51.440000 32.320000 0 0 0
3950 1317 3 0 51.530000 51.300000 32.210000 0 0 0
3951 1317 3 0 50.070000 51.590000 32.440000 0 0 0
3952 1318 4 0 52.460000 52.540000 33.390000 0 0 0
3953 1318 3 0 52.250000 51.980000 33.840000 0 0 0
3954 1318 3 0 52.670000 53.090000 32.940000 0 0 0
3955 1319 4 0 52.960000 54.230000 34.720000 0 0 0
3956 1319 3 0 52.820000 53.610000 35.140000 0 0 0
3957 1319 3 0 53.110000 54.850000 34.310000 0 0 0
3958 1320 1 0 53.030000 56.600000 35.540000 0 0 0
3959 1320 3 0 52.720000 55.990000 35.990000 0 0 0
3960 1320 2 0 53.310000 57.160000 35.120000 0 0 0
3961 1321 1 0 40.500000 11.010000 27.800000 0 0 0
3962 1321 2 0 40.690000 11.700000 28.030000 0 0 0
3963 1321 3 0 40.300000 10.270000 27.550000 0 0 0
3964 1322 4 0 38.760000 10.220000 26.100000 0 0 0
3965 1322 3 0 38.650000 10.940000 26.380000 0 0 0
3966 1322 3 0 38.870000 9.500000 25.820000 0 0 0
3967 1323 4 0 37.080000 9.520000 24.850000 0 0 0
3968 1323 3 0 37.810000 9.370000 24.740000 0 0 0
3969 1323 3 0 36.350000 9.660000 24.970000 0 0 0
3970 1324 4 0 34.610000 9.010000 24.580000 0 0 0
3971 1324 3 0 34.400000 8.460000 25.030000 0 0 0
3972 1324 3 0 34.820000 9.570000 24.130000 0 0 0
3973 1325 4 0 32.100000 9.520000 24.140000 0 0 0
3974 1325 3 0 31.960000 8.900000 24.560000 0 0 0
3975 1325 3 0 32.240000 10.140000 23.730000 0 0 0
3976 1326 1 0 30.170000 10.480000 23.040000 0 0 0
3977 1326 3 0 29.860000 9.870000 23.490000 0 0 0
3978 1326 2 0 30.450000 11.040000 22.620000 0 0 0
3979 1327 1 0 38.190000 49.820000 6.620000 0 0 0
3980 1327 2 0 38.380000 50.510000 6.850000 0 0 0
3981 1327 3 0 37.990000 49.080000 6.370000 0 0 0
3982 1328 4 0 38.970000 48.400000 4.770000 0 0 0
3983 1328 3 0 38.860000 49.120000 5.050000 0 0 0
3984 1328 3 0 39.080000 47.680000 4.490000 0 0 0
3985 1329 4 0 39.240000 47.590000 2.420000 0 0 0
3986 1329 3 0 39.970000 47.450000 2.310000 0 0 0
3987 1329 3 0 38.510000 47.740000 2.540000 0 0 0
3988 1330 4 0 39.120000 46.920000 0.040000 0 0 0
3989 1330 3 0 38.910000 46.360000 0.490000 0 0 0
3990 1330 3 0 39.330000 47.480000 57.127600 0 0 -1
3991 1331 4 0 38.850000 46.400000 55.050000 0 0 -1
3992 1331 3 0 38.700000 45.780000 55.460000 0 0 -1
3993 1331 3 0 38.990000 47.020000 54.630000 0 0 -1
3994 1332 1 0 37.480000 47.010000 53.350000 0 0 -1
3995 1332 3 0 37.170000 46.400000 53.800000 0 0 -1
3996 1332 2 0 37.760000 47.570000 52.930000 0 0 -1
3997 1333 1 0 54.780000 49.170000 40.110000 0 0 0
3998 1333 2 0 54.970000 49.860000 40.340000 0 0 0
3999 1333 3 0 54.580000 48.430000 39.860000 0 0 0
4000 1334 4 0 56.510000 49.750000 38.290000 0 0 0
4001 1334 3 0 56.400000 50.470000 38.570000 0 0 0
4002 1334 3 0 56.620000 49.030000 38.010000 0 0 0
4003 1335 4 0 0.520000 49.990000 36.840000 1 0 0
4004 1335 3 0 1.250000 49.840000 36.730000 1 0 0
4005 1335 3 0 57.327600 50.130000 36.960000 0 0 0
4006 1336 4 0 2.340000 49.650000 35.180000 1 0 0
4007 1336 3 0 2.130000 49.090000 35.630000 1 0 0
4008 1336 3 0 2.550000 50.210000 34.730000 1 0 0
4009 1337 4 0 4.590000 49.330000 34.400000 1 0 0
4010 1337 3 0 4.450000 48.710000 34.820000 1 0 0
4011 1337 3 0 4.730000 49.950000 33.990000 1 0 0
4012 1338 1 0 6.470000 48.250000 35.700000 1 0 0
4013 1338 3 0 6.160000 47.640000 36.150000 1 0 0
4014 1338 2 0 6.750000 48.810000 35.280000 1 0 0
4015 1339 1 0 42.150000 53.630000 18.440000 0 0 0
4016 1339 2 0 42.340000 54.320000 18.670000 0 0 0
4017 1339 3 0 41.950000 52.890000 18.190000 0 0 0
4018 1340 4 0 44.240000 53.440000 19.220000 0 0 0
4019 1340 3 0 44.130000 54.160000 19.500000 0 0 0
4020 1340 3 0 44.350000 52.720000 18.930000 0 0 0
4021 1341 4 0 46.610000 53.600000 19.730000 0 0 0
4022 1341 3 0 47.340000 53.460000 19.620000 0 0 0
4023 1341 3 0 45.880000 53.750000 19.850000 0 0 0
4024 1342 4 0 48.680000 54.600000 18.590000 0 0 0
4025 1342 3 0 48.470000 54.040000 19.040000 0 0 0
4026 1342 3 0 48.890000 55.160000 18.140000 0 0 0
4027 1343 4 0 50.830000 55.950000 19.110000 0 0 0
4028 1343 3 0 50.690000 55.330000 19.530000 0 0 0
4029 1343 3 0 50.980000 56.570000 18.700000 0 0 0
4030 1344 1 0 53.080000 57.070000 19.510000 0 0 0
4031 1344 3 0 52.770000 56.460000 19.960000 0 0 0
4032 1344 2 0 53.360000 0.092400 19.090000 0 1 0
4033 1345 1 0 35.370000 12.520000 21.550000 0 0 0
4034 1345 2 0 35.560000 13.210000 21.780000 0 0 0
4035 1345 3 0 35.170000 11.780000 21.300000 0 0 0
4036 1346 4 0 34.480000 14.760000 20.960000 0 0 0
4037 1346 3 0 34.370000 15.480000 21.250000 0 0 0
4038 1346 3 0 34.590000 14.040000 20.670000 0 0 0
4039 1347 4 0 33.080000 16.930000 21.290000 0 0 0
4040 1347 3 0 33.810000 16.790000 21.180000 0 0 0
4041 1347 3 0 32.350000 17.080000 21.410000 0 0 0
4042 1348 4 0 31.950000 18.870000 21.700000 0 0 0
4043 1348 3 0 31.740000 18.320000 22.150000 0 0 0
4044 1348 3 0 32.160000 19.420000 21.250000 0 0 0
4045 1349 4 0 30.970000 21.030000 20.740000 0 0 0
4046 1349 3 0 30.830000 20.410000 21.150000 0 0 0
4047 1349 3 0 31.110000 21.650000 20.320000 0 0 0
4048 1350 1 0 30.650000 23.580000 20.820000 0 0 0
4049 1350 3 0 30.340000 22.970000 21.270000 0 0 0
4050 1350 2 0 30.930000 24.140000 20.400000 0 0 0
4051 1351 1 0 20.070000 45.940000 5.750000 0 0 0
4052 1351 2 0 20.260000 46.630000 5.980000 0 0 0
4053 1351 3 0 19.870000 45.200000 5.500000 0 0 0
4054 1352 4 0 18.190000 45.050000 6.660000 0 0 0
4055 1352 3 0 18.080000 45.770000 6.950000 0 0 0
4056 1352 3 0 18.300000 44.330000 6.380000 0 0 0
4057 1353 4 0 18.920000 42.970000 7.680000 0 0 0
4058 1353 3 0 19.650000 42.820000 7.570000 0 0 0
4059 1353 3 0 18.190000 43.110000 7.800000 0 0 0
4060 1354 4 0 17.620000 41.750000 8.880000 0 0 0
4061 1354 3 0 17.410000 41.190000 9.330000 0 0 0
4062 1354 3 0 17.830000 42.310000 8.430000 0 0 0
4063 1355 4 0 16.090000 40.120000 9.480000 0 0 0
4064 1355 3 0 15.950000 39.500000 9.900000 0 0 0
4065 1355 3 0 16.230000 40.740000 9.070000 0 0 0
4066 1356 1 0 13.630000 40.210000 9.290000 0 0 0
4067 1356 3 0 13.320000 39.600000 9.740000 0 0 0
4068 1356 2 0 13.910000 40.770000 8.870000 0 0 0
4069 1357 1 0 5.310000 29.260000 11.340000 0 0 0
4070 1357 2 0 5.500000 29.950000 11.570000 0 0 0
4071 1357 3 0 5.110000 28.520000 11.090000 0 0 0
4072 1358 4 0 3.280000 28.300000 11.610000 0 0 0
4073 1358 3 0 3.170000 29.020000 11.900000 0 0 0
4074 1358 3 0 3.390000 27.580000 11.330000 0 0 0
4075 1359 4 0 0.960000 27.400000 12.220000 0 0 0
4076 1359 3 0 1.690000 27.260000 12.110000 0 0 0
4077 1359 3 0 0.230000 27.550000 12.340000 0 0 0
4078 1360 4 0 56.040000 27.280000 11.890000 -1 0 0
4079 1360 3 0 55.830000 26.730000 12.340000 -1 0 0
4080 1360 3 0 56.250000 27.840000 11.440000 -1 0 0
4081 1361 4 0 53.670000 27.460000 11.630000 -1 0 0
4082 1361 3 0 53.530000 26.840000 12.050000 -1 0 0
4083 1361 3 0 53.810000 28.080000 11.220000 -1 0 0
4084 1362 1 0 51.350000 28.490000 11.550000 -1 0 0
4085 1362 3 0 51.040000 27.880000 12.000000 -1 0 0
4086 1362 2 0 51.630000 29.050000 11.130000 -1 0 0
4087 1363 1 0 38.660000 5.210000 23.860000 0 0 0
4088 1363 2 0 38.850000 5.900000 24.090000 0 0 0
4089 1363 3 0 38.460000 4.470000 23.610000 0 0 0
4090 1364 4 0 37.110000 4.050000 22.480000 0 0 0
4091 1364 3 0 37.000000 4.770000 22.770000 0 0 0
4092 1364 3 0 37.220000 3.330000 22.200000 0 0 0
4093 1365 4 0 36.160000 2.670000 20.580000 0 0 0
4094 1365 3 0 36.890000 2.520000 20.460000 0 0 0
4095 1365 3 0 35.430000 2.810000 20.690000 0 0 0
4096 1366 4 0 34.860000 1.300000 18.940000 0 0 0
4097 1366 3 0 34.650000 0.750000 19.390000 0 0 0
4098 1366 3 0 35.070000 1.850000 18.490000 0 0 0
4099 1367 4 0 33.400000 57.510000 17.680000 0 -1 0
4100 1367 3 0 33.250000 56.890000 18.100000 0 -1 0
4101 1367 3 0 33.540000 0.592400 17.270000 0 0 0
4102 1368 1 0 31.350000 56.780000 17.010000 0 -1 0
4103 1368 3 0 31.040000 56.170000 17.460000 0 -1 0
4104 1368 2 0 31.630000 57.340000 16.590000 0 -1 0
4105 1369 1 0 12.860000 39.170000 23.970000 0 0 0
4106 1369 2 0 13.050000 39.860000 24.200000 0 0 0
4107 1369 3 0 12.660000 38.430000 23.720000 0 0 0
4108 1370 4 0 12.190000 39.520000 26.080000 0 0 0
4109 1370 3 0 12.080000 40.240000 26.360000 0 0 0
4110 1370 3 0 12.300000 38.800000 25.800000 0 0 0
4111 1371 4 0 12.300000 39.540000 28.650000 0 0 0
4112 1371 3 0 13.030000 39.400000 28.540000 0 0 0
4113 1371 3 0 11.570000 39.690000 28.770000 0 0 0
4114 1372 4 0 12.100000 40.000000 31.190000 0 0 0
4115 1372 3 0 11.890000 39.450000 31.640000 0 0 0
4116 1372 3 0 12.310000 40.560000 30.740000 0 0 0
4117 1373 4 0 14.070000 41.070000 32.300000 0 0 0
4118 1373 3 0 13.930000 40.450000 32.720000 0 0 0
4119 1373 3 0 14.210000 41.690000 31.890000 0 0 0
4120 1374 1 0 15.970000 42.150000 32.910000 0 0 0
4121 1374 3 0 15.660000 41.540000 33.360000 0 0 0
4122 1374 2 0 16.250000 42.710000 32.490000 0 0 0
4123 1375 1 0 9.080000 16.240000 5.120000 0 0 0
4124 1375 2 0 9.270000 16.930000 5.350000 0 0 0
4125 1375 3 0 8.880000 15.500000 4.870000 0 0 0
4126 1376 4 0 9.260000 14.310000 6.290000 0 0 0
4127 1376 3 0 9.150000 15.030000 6.570000 0 0 0
4128 1376 3 0 9.370000 13.590000 6.010000 0 0 0
4129 1377 4 0 9.170000 12.830000 8.280000 0 0 0
4130 1377 3 0 9.900000 12.680000 8.170000 0 0 0
4131 1377 3 0 8.440000 12.970000 8.400000 0 0 0
4132 1378 4 0 8.820000 10.530000 9.210000 0 0 0
4133 1378 3 0 8.610000 9.970000 9.660000 0 0 0
4134 1378 3 0 9.030000 11.080000 8.760000 0 0 0
4135 1379 4 0 7.850000 8.610000 10.710000 0 0 0
4136 1379 3 0 7.710000 7.990000 11.130000 0 0 0
4137 1379 3 0 7.990000 9.230000 10.300000 0 0 0
4138 1380 1 0 5.890000 6.960000 10.570000 0 0 0
4139 1380 3 0 5.580000 6.350000 11.020000 0 0 0
4140 1380 2 0 6.170000 7.520000 10.150000 0 0 0
4141 1381 1 0 54.920000 12.150000 29.330000 0 0 0
4142 1381 2 0 55.110000 12.840000 29.560000 0 0 0
4143 1381 3 0 54.720000 11.410000 29.080000 0 0 0
4144 1382 4 0 54.140000 10.370000 28.430000 0 0 0
4145 1382 3 0 54.030000 11.090000 28.720000 0 0 0
4146 1382 3 0 54.250000 9.650000 28.140000 0 0 0
4147 1383 4 0 53.720000 8.660000 26.490000 0 0 0
4148 1383 3 0 54.450000 8.510000 26.380000 0 0 0
4149 1383 3 0 52.990000 8.800000 26.600000 0 0 0
4150 1384 4 0 53.410000 7.350000 24.630000 0 0 0
4151 1384 3 0 53.200000 6.790000 25.080000 0 0 0
4152 1384 3 0 53.620000 7.900000 24.180000 0 0 0
4153 1385 4 0 53.030000 5.440000 23.030000 0 0 0
4154 1385 3 0 52.880000 4.820000 23.450000 0 0 0
4155 1385 3 0 53.170000 6.060000 22.610000 0 0 0
4156 1386 1 0 53.540000 3.090000 22.290000 0 0 0
4157 1386 3 0 53.230000 2.480000 22.740000 0 0 0
4158 1386 2 0 53.820000 3.650000 21.870000 0 0 0
4159 1387 1 0 50.070000 10.690000 3.650000 0 0 0
4160 1387 2 0 50.260000 11.380000 3.880000 0 0 0
4161 1387 3 0 49.870000 9.950000 3.400000 0 0 0
4162 1388 4 0 48.110000 11.970000 4.630000 0 0 0
4163 1388 3 0 48.000000 12.690000 4.910000 0 0 0
4164 1388 3 0 48.220000 11.250000 4.350000 0 0 0
4165 1389 4 0 48.200000 14.340000 5.500000 0 0 0
4166 1389 3 0 48.930000 14.190000 5.390000 0 0 0
4167 1389 3 0 47.470000 14.480000 5.620000 0 0 0
4168 1390 4 0 49.260000 16.420000 6.480000 0 0 0
4169 1390 3 0 49.050000 15.870000 6.930000 0 0 0
4170 1390 3 0 49.470000 16.970000 6.030000 0 0 0
4171 1391 4 0 49.330000 18.910000 6.860000 0 0 0
4172 1391 3 0 49.180000 18.290000 7.280000 0 0 0
4173 1391 3 0 49.470000 19.530000 6.450000 0 0 0
4174 1392 1 0 49.670000 21.290000 6.290000 0 0 0
4175 1392 3 0 49.360000 20.680000 6.740000 0 0 0
4176 1392 2 0 49.950000 21.850000 5.870000 0 0 0
4177 1393 1 0 48.660000 45.860000 13.340000 0 0 0
4178 1393 2 0 48.850000 46.550000 13.570000 0 0 0
4179 1393 3 0 48.460000 45.120000 13.090000 0 0 0
4180 1394 4 0 48.580000 44.860000 15.570000 0 0 0
4181 1394 3 0 48.470000 45.580000 15.850000 0 0 0
4182 1394 3 0 48.690000 44.140000 15.280000 0 0 0
4183 1395 4 0 48.340000 43.970000 17.970000 0 0 0
4184 1395 3 0 49.070000 43.830000 17.860000 0 0 0
4185 1395 3 0 47.610000 44.120000 18.080000 0 0 0
4186 1396 4 0 50.040000 44.100000 19.440000 0 0 0
4187 1396 3 0 49.830000 43.540000 19.890000 0 0 0
4188 1396 3 0 50.250000 44.660000 18.990000 0 0 0
4189 1397 4 0 52.330000 44.040000 19.020000 0 0 0
4190 1397 3 0 52.180000 43.420000 19.440000 0 0 0
4191 1397 3 0 52.470000 44.660000 18.610000 0 0 0
4192 1398 1 0 54.170000 44.280000 20.720000 0 0 0
4193 1398 3 0 53.860000 43.670000 21.170000 0 0 0
4194 1398 2 0 54.450000 44.840000 20.300000 0 0 0
4195 1399 1 0 12.630000 18.930000 20.770000 0 0 0
4196 1399 2 0 12.820000 19.620000 21.000000 0 0 0
4197 1399 3 0 12.430000 18.190000 20.520000 0 0 0
4198 1400 4 0 10.520000 19.020000 22.120000 0 0 0
4199 1400 3 0 10.410000 19.740000 22.400000 0 0 0
4200 1400 3 0 10.630000 18.300000 21.840000 0 0 0
4201 1401 4 0 8.450000 18.000000 21.270000 0 0 0
4202 1401 3 0 9.180000 17.850000 21.150000 0 0 0
4203 1401 3 0 7.720000 18.150000 21.380000 0 0 0
4204 1402 4 0 7.030000 16.540000 22.360000 0 0 0
4205 1402 3 0 6.820000 15.990000 22.810000 0 0 0
4206 1402 3 0 7.240000 17.090000 21.910000 0 0 0
4207 1403 4 0 5.870000 15.050000 23.440000 0 0 0
4208 1403 3 0 5.730000 14.430000 23.850000 0 0 0
4209 1403 3 0 6.010000 15.670000 23.030000 0 0 0
4210 1404 1 0 5.230000 13.160000 24.850000 0 0 0
4211 1404 3 0 4.920000 12.550000 25.300000 0 0 0
4212 1404 2 0 5.510000 13.720000 24.430000 0 0 0
4213 1405 1 0 6.510000 8.170000 50.540000 0 0 0
4214 1405 2 0 6.700000 8.860000 50.770000 0 0 0
4215 1405 3 0 6.310000 7.430000 50.290000 0 0 0
4216 1406 4 0 5.100000 9.480000 52.090000 0 0 0
4217 1406 3 0 4.990000 10.200000 52.370000 0 0 0
4218 1406 3 0 5.210000 8.760000 51.800000 0 0 0
4219 1407 4 0 3.670000 10.940000 53.020000 0 0 0
4220 1407 3 0 4.400000 10.790000 52.900000 0 0 0
4221 1407 3 0 2.940000 11.090000 53.130000 0 0 0
4222 1408 4 0 2.000000 12.330000 54.000000 0 0 0
4223 1408 3 0 1.790000 11.780000 54.450000 0 0 0
4224 1408 3 0 2.210000 12.880000 53.550000 0 0 0
4225 1409 4 0 0.250000 13.600000 54.790000 0 0 0
4226 1409 3 0 0.110000 12.980000 55.210000 0 0 0
4227 1409 3 0 0.390000 14.220000 54.380000 0 0 0
4228 1410 1 0 56.460000 14.460000 56.780000 -1 0 0
4229 1410 3 0 56.150000 13.850000 57.230000 -1 0 0
4230 1410 2 0 56.740000 15.020000 56.360000 -1 0 0
4231 1411 1 0 18.130000 7.260000 5.800000 0 0 0
4232 1411 2 0 18.320000 7.950000 6.030000 0 0 0
4233 1411 3 0 17.930000 6.520000 5.550000 0 0 0
4234 1412 4 0 20.310000 8.270000 6.130000 0 0 0
4235 1412 3 0 20.200000 8.990000 6.410000 0 0 0
4236 1412 3 0 20.420000 7.550000 5.850000 0 0 0
4237 1413 4 0 22.470000 8.780000 6.320000 0 0 0
4238 1413 3 0 23.200000 8.630000 6.210000 0 0 0
4239 1413 3 0 21.740000 8.920000 6.440000 0 0 0
4240 1414 4 0 24.850000 9.330000 6.650000 0 0 0
4241 1414 3 0 24.640000 8.780000 7.100000 0 0 0
4242 1414 3 0 25.060000 9.890000 6.200000 0 0 0
4243 1415 4 0 25.910000 10.740000 8.420000 0 0 0
4244 1415 3 0 25.770000 10.120000 8.840000 0 0 0
4245 1415 3 0 26.060000 11.360000 8.010000 0 0 0
4246 1416 1 0 26.490000 11.530000 10.810000 0 0 0
4247 1416 3 0 26.180000 10.920000 11.260000 0 0 0
4248 1416 2 0 26.770000 12.090000 10.390000 0 0 0
4249 1417 1 0 52.840000 33.930000 42.530000 0 0 0
4250 1417 2 0 53.030000 34.620000 42.760000 0 0 0
4251 1417 3 0 52.640000 33.190000 42.280000 0 0 0
4252 1418 4 0 53.200000 31.690000 41.330000 0 0 0
4253 1418 3 0 53.090000 32.410000 41.620000 0 0 0
4254 1418 3 0 53.310000 30.970000 41.040000 0 0 0
4255 1419 4 0 53.800000 29.570000 40.410000 0 0 0
4256 1419 3 0 54.530000 29.420000 40.300000 0 0 0
4257 1419 3 0 53.070000 29.710000 40.530000 0 0 0
4258 1420 4 0 54.370000 27.280000 39.320000 0 0 0
4259 1420 3 0 54.160000 26.730000 39.770000 0 0 0
4260 1420 3 0 54.580000 27.840000 38.870000 0 0 0
4261 1421 4 0 54.060000 26.640000 36.820000 0 0 0
4262 1421 3 0 53.910000 26.020000 37.240000 0 0 0
4263 1421 3 0 54.200000 27.260000 36.410000 0 0 0
4264 1422 1 0 53.270000 25.550000 35.060000 0 0 0
4265 1422 3 0 52.960000 24.940000 35.510000 0 0 0
4266 1422 2 0 53.550000 26.110000 34.640000 0 0 0
4267 1423 1 0 45.340000 56.060000 50.930000 0 0 0
4268 1423 2 0 45.530000 56.750000 51.160000 0 0 0
4269 1423 3 0 45.140000 55.320000 50.680000 0 0 0
4270 1424 4 0 45.810000 56.110000 53.420000 0 0 0
4271 1424 3 0 45.700000 56.830000 53.700000 0 0 0
4272 1424 3 0 45.920000 55.390000 53.130000 0 0 0
4273 1425 4 0 45.000000 56.990000 55.640000 0 0 0
4274 1425 3 0 45.730000 56.840000 55.530000 0 0 0
4275 1425 3 0 44.270000 57.130000 55.750000 0 0 0
4276 1426 4 0 43.920000 0.190000 57.440000 0 1 0
4277 1426 3 0 43.710000 57.177600 0.352400 0 0 1
4278 1426 3 0 44.130000 0.740000 56.990000 0 1 0
4279 1427 4 0 41.940000 0.270000 1.320000 0 1 1
4280 1427 3 0 41.790000 57.187600 1.740000 0 0 1
4281 1427 3 0 42.080000 0.890000 0.910000 0 1 1
4282 1428 1 0 39.790000 1.410000 1.790000 0 1 1
4283 1428 3 0 39.480000 0.800000 2.240000 0 1 1
4284 1428 2 0 40.070000 1.970000 1.370000 0 1 1
4285 1429 1 0 39.540000 11.830000 32.250000 0 0 0
4286 1429 2 0 39.730000 12.520000 32.480000 0 0 0
4287 1429 3 0 39.340000 11.090000 32.000000 0 0 0
4288 1430 4 0 40.650000 13.560000 33.610000 0 0 0
4289 1430 3 0 40.540000 14.280000 33.890000 0 0 0
4290 1430 3 0 40.760000 12.840000 33.330000 0 0 0
4291 1431 4 0 42.350000 13.830000 35.010000 0 0 0
4292 1431 3 0 43.080000 13.690000 34.900000 0 0 0
4293 1431 3 0 41.620000 13.970000 35.130000 0 0 0
4294 1432 4 0 44.480000 13.990000 36.150000 0 0 0
4295 1432 3 0 44.270000 13.440000 36.600000 0 0 0
4296 1432 3 0 44.690000 14.540000 35.700000 0 0 0
4297 1433 4 0 45.730000 14.370000 38.240000 0 0 0
4298 1433 3 0 45.590000 13.750000 38.650000 0 0 0
4299 1433 3 0 45.880000 14.990000 37.820000 0 0 0
4300 1434 1 0 45.070000 14.970000 40.640000 0 0 0
4301 1434 3 0 44.760000 14.360000 41.090000 0 0 0
4302 1434 2 0 45.350000 15.530000 40.220000 0 0 0
4303 1435 1 0 41.320000 43.380000 8.580000 0 0 0
4304 1435 2 0 41.510000 44.070000 8.810000 0 0 0
4305 1435 3 0 41.120000 42.640000 8.330000 0 0 0
4306 1436 4 0 39.300000 43.700000 9.990000 0 0 0
4307 1436 3 0 39.190000 44.420000 10.270000 0 0 0
4308 1436 3 0 39.410000 42.980000 9.710000 0 0 0
4309 1437 4 0 37.070000 43.730000 11.140000 0 0 0
4310 1437 3 0 37.800000 43.590000 11.030000 0 0 0
4311 1437 3 0 36.340000 43.880000 11.260000 0 0 0
4312 1438 4 0 34.920000 43.350000 12.250000 0 0 0
4313 1438 3 0 34.710000 42.790000 12.700000 0 0 0
4314 1438 3 0 35.130000 43.910000 11.800000 0 0 0
4315 1439 4 0 32.470000 42.630000 12.510000 0 0 0
4316 1439 3 0 32.320000 42.010000 12.920000 0 0 0
4317 1439 3 0 32.610000 43.250000 12.100000 0 0 0
4318 1440 1 0 30.680000 40.880000 12.140000 0 0 0
4319 1440 3 0 30.370000 40.270000 12.590000 0 0 0
4320 1440 2 0 30.960000 41.440000 11.720000 0 0 0
4321 1441 1 0 12.840000 37.900000 40.940000 0 0 0
4322 1441 2 0 13.030000 38.590000 41.170000 0 0 0
4323 1441 3 0 12.640000 37.160000 40.690000 0 0 0
4324 1442 4 0 10.880000 37.280000 41.850000 0 0 0
4325 1442 3 0 10.770000 38.000000 42.130000 0 0 0
4326 1442 3 0 10.990000 36.560000 41.560000 0 0 0
4327 1443 4 0 9.990000 36.390000 44.040000 0 0 0
4328 1443 3 0 10.720000 36.240000 43.930000 0 0 0
4329 1443 3 0 9.260000 36.530000 44.150000 0 0 0
4330 1444 4 0 8.760000 36.490000 45.960000 0 0 0
4331 1444 3 0 8.550000 35.940000 46.410000 0 0 0
4332 1444 3 0 8.970000 37.040000 45.510000 0 0 0
4333 1445 4 0 6.480000 37.580000 45.900000 0 0 0
4334 1445 3 0 6.340000 36.960000 46.310000 0 0 0
4335 1445 3 0 6.620000 38.200000 45.480000 0 0 0
4336 1446 1 0 4.350000 38.920000 45.500000 0 0 0
4337 1446 3 0 4.040000 38.310000 45.950000 0 0 0
4338 1446 2 0 4.630000 39.480000 45.080000 0 0 0
4339 1447 1 0 17.030000 32.160000 36.020000 0 0 0
4340 1447 2 0 17.220000 32.850000 36.250000 0 0 0
4341 1447 3 0 16.830000 31.420000 35.770000 0 0 0
4342 1448 4 0 17.630000 33.890000 37.260000 0 0 0
4343 1448 3 0 17.520000 34.610000 37.550000 0 0 0
4344 1448 3 0 17.740000 33.170000 36.970000 0 0 0
4345 1449 4 0 19.520000 33.860000 38.770000 0 0 0
4346 1449 3 0 20.250000 33.720000 38.650000 0 0 0
4347 1449 3 0 18.790000 34.010000 38.880000 0 0 0
4348 1450 4 0 19.440000 34.620000 40.850000 0 0 0
4349 1450 3 0 19.230000 34.070000 41.300000 0 0 0
4350 1450 3 0 19.650000 35.180000 40.400000 0 0 0
4351 1451 4 0 19.710000 33.080000 42.870000 0 0 0
4352 1451 3 0 19.570000 32.460000 43.290000 0 0 0
4353 1451 3 0 19.860000 33.700000 42.450000 0 0 0
4354 1452 1 0 20.810000 33.620000 44.980000 0 0 0
4355 1452 3 0 20.500000 33.010000 45.430000 0 0 0
4356 1452 2 0 21.090000 34.180000 44.560000 0 0 0
4357 1453 1 0 48.690000 40.420000 35.010000 0 0 0
4358 1453 2 0 48.880000 41.110000 35.240000 0 0 0
4359 1453 3 0 48.490000 39.680000 34.760000 0 0 0
4360 1454 4 0 50.890000 40.710000 34.080000 0 0 0
4361 1454 3 0 50.780000 41.430000 34.360000 0 0 0
4362 1454 3 0 51.000000 39.990000 33.800000 0 0 0
4363 1455 4 0 53.070000 40.630000 33.110000 0 0 0
4364 1455 3 0 53.800000 40.480000 33.000000 0 0 0
4365 1455 3 0 52.340000 40.770000 33.220000 0 0 0
4366 1456 4 0 55.390000 39.790000 33.020000 0 0 0
4367 1456 3 0 55.180000 39.240000 33.470000 0 0 0
4368 1456 3 0 55.600000 40.350000 32.570000 0 0 0
4369 1457 4 0 56.190000 38.030000 34.250000 0 0 0
4370 1457 3 0 56.040000 37.410000 34.660000 0 0 0
4371 1457 3 0 56.330000 38.650000 33.830000 0 0 0
4372 1458 1 0 57.490000 38.240000 35.920000 0 0 0
4373 1458 3 0 57.180000 37.630000 36.370000 0 0 0
4374 1458 2 0 0.232400 38.800000 35.500000 1 0 0
4375 1459 1 0 57.020000 46.260000 57.470000 0 0 0
4376 1459 2 0 57.210000 46.950000 0.162400 0 0 1
4377 1459 3 0 56.820000 45.520000 57.220000 0 0 0
4378 1460 4 0 1.710000 45.530000 0.950000 1 0 1
4379 1460 3 0 1.600000 46.250000 1.230000 1 0 1
4380 1460 3 0 1.820000 44.810000 0.670000 1 0 1
4381 1461 4 0 3.700000 44.780000 2.280000 1 0 1
4382 1461 3 0 4.430000 44.630000 2.170000 1 0 1
4383 1461 3 0 2.970000 44.920000 2.400000 1 0 1
4384 1462 4 0 5.710000 44.340000 3.180000 1 0 1
4385 1462 3 0 5.500000 43.780000 3.630000 1 0 1
4386 1462 3 0 5.920000 44.900000 2.730000 1 0 1
4387 1463 4 0 8.150000 43.930000 3.690000 1 0 1
4388 1463 3 0 8.000000 43.310000 4.110000 1 0 1
4389 1463 3 0 8.290000 44.550000 3.280000 1 0 1
4390 1464 1 0 10.570000 43.120000 3.610000 1 0 1
4391 1464 3 0 10.260000 42.510000 4.060000 1 0 1
4392 1464 2 0 10.850000 43.680000 3.190000 1 0 1
4393 1465 1 0 3.980000 46.800000 12.380000 0 0 0
4394 1465 2 0 4.170000 47.490000 12.610000 0 0 0
4395 1465 3 0 3.780000 46.060000 12.130000 0 0 0
4396 1466 4 0 3.940000 45.860000 10.270000 0 0 0
4397 1466 3 0 3.830000 46.580000 10.550000 0 0 0
4398 1466 3 0 4.050000 45.140000 9.980000 0 0 0
4399 1467 4 0 3.740000 44.720000 8.000000 0 0 0
4400 1467 3 0 4.470000 44.580000 7.890000 0 0 0
4401 1467 3 0 3.010000 44.870000 8.120000 0 0 0
4402 1468 4 0 2.400000 43.430000 6.320000 0 0 0
4403 1468 3 0 2.190000 42.870000 6.770000 0 0 0
4404 1468 3 0 2.610000 43.990000 5.870000 0 0 0
4405 1469 4 0 1.350000 42.140000 4.680000 0 0 0
4406 1469 3 0 1.210000 41.520000 5.100000 0 0 0
4407 1469 3 0 1.490000 42.760000 4.270000 0 0 0
4408 1470 1 0 0.940000 40.380000 3.300000 0 0 0
4409 1470 3 0 0.630000 39.770000 3.750000 0 0 0
4410 1470 2 0 1.220000 40.940000 2.880000 0 0 0
4411 1471 1 0 30.870000 39.300000 2.880000 0 0 0
4412 1471 2 0 31.060000 39.990000 3.110000 0 0 0
4413 1471 3 0 30.670000 38.560000 2.630000 0 0 0
4414 1472 4 0 30.960000 40.950000 4.720000 0 0 0
4415 1472 3 0 30.850000 41.670000 5.000000 0 0 0
4416 1472 3 0 31.070000 40.230000 4.440000 0 0 0
4417 1473 4 0 29.150000 41.980000 5.680000 0 0 0
4418 1473 3 0 29.880000 41.840000 5.570000 0 0 0
4419 1473 3 0 28.420000 42.130000 5.800000 0 0 0
4420 1474 4 0 27.250000 43.100000 6.550000 0 0 0
4421 1474 3 0 27.040000 42.540000 7.000000 0 0 0
4422 1474 3 0 27.460000 43.650000 6.100000 0 0 0
4423 1475 4 0 25.100000 44.130000 7.450000 0 0 0
4424 1475 3 0 24.950000 43.510000 7.870000 0 0 0
4425 1475 3 0 25.240000 44.750000 7.040000 0 0 0
4426 1476 1 0 23.590000 44.470000 9.020000 0 0 0
4427 1476 3 0 23.280000 43.860000 9.470000 0 0 0
4428 1476 2 0 23.870000 45.030000 8.600000 0 0 0
4429 1477 1 0 40.070000 23.980000 23.780000 0 0 0
4430 1477 2 0 40.260000 24.670000 24.010000 0 0 0
4431 1477 3 0 39.870000 23.240000 23.530000 0 0 0
4432 1478 4 0 38.800000 22.460000 24.790000 0 0 0
4433 1478 3 0 38.690000 23.180000 25.080000 0 0 0
4434 1478 3 0 38.910000 21.740000 24.500000 0 0 0
4435 1479 4 0 38.080000 20.980000 26.520000 0 0 0
4436 1479 3 0 38.810000 20.830000 26.410000 0 0 0
4437 1479 3 0 37.350000 21.120000 26.630000 0 0 0
4438 1480 4 0 37.200000 19.790000 28.570000 0 0 0
4439 1480 3 0 36.990000 19.240000 29.020000 0 0 0
4440 1480 3 0 37.410000 20.340000 28.120000 0 0 0
4441 1481 4 0 36.820000 17.740000 29.620000 0 0 0
4442 1481 3 0 36.670000 17.120000 30.040000 0 0 0
4443 1481 3 0 36.960000 18.360000 29.210000 0 0 0
4444 1482 1 0 36.230000 15.700000 30.480000 0 0 0
4445 1482 3 0 35.920000 15.090000 30.930000 0 0 0
4446 1482 2 0 36.510000 16.260000 30.060000 0 0 0
4447 1483 1 0 35.860000 2.760000 48.390000 0 0 0
4448 1483 2 0 36.050000 3.450000 48.620000 0 0 0
4449 1483 3 0 35.660000 2.020000 48.140000 0 0 0
4450 1484 4 0 34.060000 1.500000 47.270000 0 0 0
4451 1484 3 0 33.950000 2.220000 47.560000 0 0 0
4452 1484 3 0 34.170000 0.780000 46.990000 0 0 0
4453 1485 4 0 34.380000 0.100000 45.480000 0 0 0
4454 1485 3 0 35.110000 57.487600 45.370000 0 -1 0
4455 1485 3 0 33.650000 0.240000 45.590000 0 0 0
4456 1486 4 0 36.330000 57.220000 44.220000 0 -1 0
4457 1486 3 0 36.120000 56.670000 44.670000 0 -1 0
4458 1486 3 0 36.540000 0.242400 43.770000 0 0 0
4459 1487 4 0 38.160000 0.390000 43.050000 0 0 0
4460 1487 3 0 38.010000 57.307600 43.460000 0 -1 0
4461 1487 3 0 38.300000 1.010000 42.630000 0 0 0
4462 1488 1 0 40.490000 1.150000 43.150000 0 0 0
4463 1488 3 0 40.180000 0.540000 43.600000 0 0 0
4464 1488 2 0 40.770000 1.710000 42.730000 0 0 0
4465 1489 1 0 35.480000 22.260000 1.590000 0 0 0
4466 1489 2 0 35.670000 22.950000 1.820000 0 0 0
4467 1489 3 0 35.280000 21.520000 1.340000 0 0 0
4468 1490 4 0 37.580000 22.700000 0.240000 0 0 0
4469 1490 3 0 37.470000 23.420000 0.520000 0 0 0
4470 1490 3 0 37.690000 21.980000 57.497600 0 0 -1
4471 1491 4 0 39.370000 22.230000 56.310000 0 0 -1
4472 1491 3 0 40.100000 22.080000 56.200000 0 0 -1
4473 1491 3 0 38.640000 22.370000 56.430000 0 0 -1
4474 1492 4 0 40.290000 21.490000 54.120000 0 0 -1
4475 1492 3 0 40.080000 20.940000 54.570000 0 0 -1
4476 1492 3 0 40.500000 22.040000 53.670000 0 0 -1
4477 1493 4 0 41.300000 20.950000 52.170000 0 0 -1
4478 1493 3 0 41.150000 20.330000 52.580000 0 0 -1
4479 1493 3 0 41.440000 21.570000 51.750000 0 0 -1
4480 1494 1 0 42.770000 21.080000 50.150000 0 0 -1
4481 1494 3 0 42.460000 20.470000 50.600000 0 0 -1
4482 1494 2 0 43.050000 21.640000 49.730000 0 0 -1
4483 1495 1 0 29.830000 0.310000 5.470000 0 0 0
4484 1495 2 0 30.020000 1.000000 5.700000 0 0 0
4485 1495 3 0 29.630000 57.107600 5.220000 0 -1 0
4486 1496 4 0 28.800000 57.370000 3.310000 0 -1 0
4487 1496 3 0 28.690000 0.552400 3.590000 0 0 0
4488 1496 3 0 28.910000 56.650000 3.030000 0 -1 0
4489 1497 4 0 29.240000 57.520000 0.800000 0 -1 0
4490 1497 3 0 29.970000 57.370000 0.690000 0 -1 0
4491 1497 3 0 28.510000 0.122400 0.920000 0 0 0
4492 1498 4 0 29.100000 0.780000 55.980000 0 0 -1
4493 1498 3 0 28.890000 0.230000 56.430000 0 0 -1
4494 1498 3 0 29.310000 1.340000 55.530000 0 0 -1
4495 1499 4 0 28.810000 1.740000 53.760000 0 0 -1
4496 1499 3 0 28.660000 1.120000 54.180000 0 0 -1
4497 1499 3 0 28.950000 2.360000 53.350000 0 0 -1
4498 1500 1 0 28.130000 1.430000 51.360000 0 0 -1
4499 1500 3 0 27.820000 0.820000 51.810000 0 0 -1
4500 1500 2 0 28.410000 1.990000 50.940000 0 0 -1
4501 1501 1 0 25.700000 47.140000 29.870000 0 0 0
4502 1501 2 0 25.890000 47.830000 30.100000 0 0 0
4503 1501 3 0 25.500000 46.400000 29.620000 0 0 0
4504 1502 4 0 26.550000 45.750000 31.750000 0 0 0
4505 1502 3 0 26.440000 46.470000 32.040000 0 0 0
4506 1502 3 0 26.660000 45.030000 31.460000 0 0 0
4507 1503 4 0 27.630000 44.350000 33.580000 0 0 0
4508 1503 3 0 28.360000 44.200000 33.470000 0 0 0
4509 1503 3 0 26.900000 44.490000 33.700000 0 0 0
4510 1504 4 0 30.080000 43.860000 33.400000 0 0 0
4511 1504 3 0 29.870000 43.300000 33.850000 0 0 0
4512 1504 3 0 30.290000 44.420000 32.950000 0 0 0
4513 1505 4 0 32.390000 43.670000 32.860000 0 0 0
4514 1505 3 0 32.240000 43.050000 33.280000 0 0 0
4515 1505 3 0 32.530000 44.290000 32.450000 0 0 0
4516 1506 1 0 34.800000 44.080000 33.150000 0 0 0
4517 1506 3 0 34.490000 43.470000 33.600000 0 0 0
4518 1506 2 0 35.080000 44.640000 32.730000 0 0 0
4519 1507 1 0 14.880000 34.970000 25.020000 0 0 0
4520 1507 2 0 15.070000 35.660000 25.250000 0 0 0
4521 1507 3 0 14.680000 34.230000 24.770000 0 0 0
4522 1508 4 0 15.710000 36.190000 26.940000 0 0 0
4523 1508 3 0 15.600000 36.910000 27.230000 0 0 0
4524 1508 3 0 15.820000 35.470000 26.650000 0 0 0
4525 1509 4 0 16.410000 37.090000 29.060000 0 0 0
4526 1509 3 0 17.140000 36.950000 28.950000 0 0 0
4527 1509 3 0 15.680000 37.240000 29.180000 0 0 0
4528 1510 4 0 15.340000 36.990000 31.050000 0 0 0
4529 1510 3 0 15.130000 36.430000 31.500000 0 0 0
4530 1510 3 0 15.550000 37.540000 30.600000 0 0 0
4531 1511 4 0 14.200000 36.700000 33.080000 0 0 0
4532 1511 3 0 14.050000 36.080000 33.490000 0 0 0
4533 1511 3 0 14.340000 37.320000 32.660000 0 0 0
4534 1512 1 0 14.140000 36.920000 35.520000 0 0 0
4535 1512 3 0 13.830000 36.310000 35.970000 0 0 0
4536 1512 2 0 14.420000 37.480000 35.100000 0 0 0
4537 1513 1 0 26.620000 2.450000 13.370000 0 0 0
4538 1513 2 0 26.810000 3.140000 13.600000 0 0 0
4539 1513 3 0 26.420000 1.710000 13.120000 0 0 0
4540 1514 4 0 26.870000 4.750000 14.540000 0 0 0
4541 1514 3 0 26.760000 5.470000 14.820000 0 0 0
4542 1514 3 0 26.980000 4.030000 14.250000 0 0 0
4543 1515 4 0 27.300000 6.880000 15.830000 0 0 0
4544 1515 3 0 28.030000 6.730000 15.720000 0 0 0
4545 1515 3 0 26.570000 7.020000 15.950000 0 0 0
4546 1516 4 0 28.140000 8.240000 17.440000 0 0 0
4547 1516 3 0 27.930000 7.680000 17.890000 0 0 0
4548 1516 3 0 28.350000 8.790000 16.990000 0 0 0
4549 1517 4 0 29.840000 9.780000 18.470000 0 0 0
4550 1517 3 0 29.700000 9.160000 18.890000 0 0 0
4551 1517 3 0 29.980000 10.400000 18.060000 0 0 0
4552 1518 1 0 31.800000 10.490000 19.460000 0 0 0
4553 1518 3 0 31.490000 9.880000 19.910000 0 0 0
4554 1518 2 0 32.080000 11.050000 19.040000 0 0 0
4555 1519 1 0 52.660000 32.090000 2.530000 0 0 0
4556 1519 2 0 52.850000 32.780000 2.760000 0 0 0
4557 1519 3 0 52.460000 31.350000 2.280000 0 0 0
4558 1520 4 0 53.080000 31.350000 0.170000 0 0 0
4559 1520 3 0 52.970000 32.070000 0.450000 0 0 0
4560 1520 3 0 53.190000 30.630000 57.427600 0 0 -1
4561 1521 4 0 53.660000 30.690000 55.380000 0 0 -1
4562 1521 3 0 54.390000 30.540000 55.270000 0 0 -1
4563 1521 3 0 52.930000 30.830000 55.500000 0 0 -1
4564 1522 4 0 55.750000 29.780000 54.230000 0 0 -1
4565 1522 3 0 55.540000 29.230000 54.680000 0 0 -1
4566 1522 3 0 55.960000 30.340000 53.780000 0 0 -1
4567 1523 4 0 0.400000 28.810000 53.980000 1 0 -1
4568 1523 3 0 0.260000 28.190000 54.390000 1 0 -1
4569 1523 3 0 0.540000 29.430000 53.560000 1 0 -1
4570 1524 1 0 2.420000 27.700000 53.090000 1 0 -1
4571 1524 3 0 2.110000 27.090000 53.540000 1 0 -1
4572 1524 2 0 2.700000 28.260000 52.670000 1 0 -1
4573 1525 1 0 49.650000 19.580000 25.020000 0 0 0
4574 1525 2 0 49.840000 20.270000 25.250000 0 0 0
4575 1525 3 0 49.450000 18.840000 24.770000 0 0 0
4576 1526 4 0 49.100000 21.680000 24.570000 0 0 0
4577 1526 3 0 48.990000 22.400000 24.860000 0 0 0
4578 1526 3 0 49.210000 20.960000 24.280000 0 0 0
4579 1527 4 0 48.530000 23.860000 23.920000 0 0 0
4580 1527 3 0 49.260000 23.720000 23.810000 0 0 0
4581 1527 3 0 47.800000 24.010000 24.040000 0 0 0
4582 1528 4 0 48.770000 25.690000 22.260000 0 0 0
4583 1528 3 0 48.560000 25.140000 22.710000 0 0 0
4584 1528 3 0 48.980000 26.240000 21.810000 0 0 0
4585 1529 4 0 47.370000 25.980000 20.150000 0 0 0
4586 1529 3 0 47.230000 25.360000 20.570000 0 0 0
4587 1529 3 0 47.520000 26.600000 19.740000 0 0 0
4588 1530 1 0 46.770000 28.020000 19.190000 0 0 0
4589 1530 3 0 46.460000 27.410000 19.640000 0 0 0
4590 1530 2 0 47.050000 28.580000 18.770000 0 0 0
4591 1531 1 0 52.300000 45.830000 39.760000 0 0 0
4592 1531 2 0 52.490000 46.520000 39.990000 0 0 0
4593 1531 3 0 52.100000 45.090000 39.510000 0 0 0
4594 1532 4 0 52.370000 43.470000 40.470000 0 0 0
4595 1532 3 0 52.260000 44.190000 40.750000 0 0 0
4596 1532 3 0 52.480000 42.750000 40.180000 0 0 0
4597 1533 4 0 52.600000 41.290000 40.830000 0 0 0
4598 1533 3 0 53.330000 41.140000 40.720000 0 0 0
4599 1533 3 0 51.870000 41.430000 40.950000 0 0 0
4600 1534 4 0 52.400000 39.560000 39.140000 0 0 0
4601 1534 3 0 52.190000 39.010000 39.590000 0 0 0
4602 1534 3 0 52.610000 40.110000 38.690000 0 0 0
4603 1535 4 0 53.150000 38.380000 37.300000 0 0 0
4604 1535 3 0 53.010000 37.760000 37.720000 0 0 0
4605 1535 3 0 53.300000 39.000000 36.890000 0 0 0
4606 1536 1 0 53.640000 35.820000 37.110000 0 0 0
4607 1536 3 0 53.330000 35.210000 37.560000 0 0 0
4608 1536 2 0 53.920000 36.380000 36.690000 0 0 0
4609 1537 1 0 54.700000 53.090000 19.880000 0 0 0
4610 1537 2 0 54.890000 53.780000 20.110000 0 0 0
4611 1537 3 0 54.500000 52.350000 19.630000 0 0 0
4612 1538 4 0 53.510000 52.920000 17.700000 0 0 0
4613 1538 3 0 53.400000 53.640000 17.980000 0 0 0
4614 1538 3 0 53.620000 52.200000 17.420000 0 0 0
4615 1539 4 0 52.580000 52.380000 15.650000 0 0 0
4616 1539 3 0 53.310000 52.240000 15.540000 0 0 0
4617 1539 3 0 51.850000 52.530000 15.770000 0 0 0
4618 1540 4 0 51.730000 52.430000 13.640000 0 0 0
4619 1540 3 0 51.520000 51.880000 14.090000 0 0 0
4620 1540 3 0 51.940000 52.990000 13.190000 0 0 0
4621 1541 4 0 51.070000 52.910000 11.660000 0 0 0
4622 1541 3 0 50.930000 52.290000 12.080000 0 0 0
4623 1541 3 0 51.220000 53.530000 11.250000 0 0 0
4624 1542 1 0 50.330000 53.710000 9.470000 0 0 0
4625 1542 3 0 50.020000 53.100000 9.920000 0 0 0
4626 1542 2 0 50.610000 54.270000 9.050000 0 0 0
4627 1543 1 0 29.990000 27.680000 4.840000 0 0 0
4628 1543 2 0 30.180000 28.370000 5.070000 0 0 0
4629 1543 3 0 29.790000 26.940000 4.590000 0 0 0
4630 1544 4 0 30.140000 27.500000 2.340000 0 0 0
4631 1544 3 0 30.030000 28.220000 2.620000 0 0 0
4632 1544 3 0 30.250000 26.780000 2.060000 0 0 0
4633 1545 4 0 29.300000 26.880000 0.290000 0 0 0
4634 1545 3 0 30.030000 26.740000 0.180000 0 0 0
4635 1545 3 0 28.570000 27.030000 0.410000 0 0 0
4636 1546 4 0 29.360000 28.360000 55.800000 0 0 -1
4637 1546 3 0 29.150000 27.800000 56.250000 0 0 -1
4638 1546 3 0 29.570000 28.910000 55.350000 0 0 -1
4639 1547 4 0 29.570000 29.490000 53.880000 0 0 -1
4640 1547 3 0 29.420000 28.870000 54.290000 0 0 -1
4641 1547 3 0 29.710000 30.110000 53.460000 0 0 -1
4642 1548 1 0 30.070000 29.600000 51.410000 0 0 -1
4643 1548 3 0 29.760000 28.990000 51.860000 0 0 -1
4644 1548 2 0 30.350000 30.160000 50.990000 0 0 -1
4645 1549 1 0 49.360000 45.820000 55.740000 0 0 0
4646 1549 2 0 49.550000 46.510000 55.970000 0 0 0
4647 1549 3 0 49.160000 45.080000 55.490000 0 0 0
4648 1550 4 0 48.880000 47.150000 0.280000 0 0 1
4649 1550 3 0 48.770000 47.870000 0.560000 0 0 1
4650 1550 3 0 48.990000 46.430000 0.000000 0 0 1
4651 1551 4 0 49.100000 48.790000 1.810000 0 0 1
4652 1551 3 0 49.830000 48.640000 1.700000 0 0 1
4653 1551 3 0 48.370000 48.930000 1.930000 0 0 1
4654 1552 4 0 49.100000 50.720000 3.460000 0 0 1
4655 1552 3 0 48.890000 50.160000 3.910000 0 0 1
4656 1552 3 0 49.310000 51.280000 3.010000 0 0 1
4657 1553 4 0 49.080000 52.340000 5.400000 0 0 1
4658 1553 3 0 48.940000 51.720000 5.820000 0 0 1
4659 1553 3 0 49.230000 52.960000 4.990000 0 0 1
4660 1554 1 0 49.830000 54.730000 5.160000 0 0 1
4661 1554 3 0 49.520000 54.120000 5.610000 0 0 1
4662 1554 2 0 50.110000 55.290000 4.740000 0 0 1
4663 1555 1 0 9.650000 22.390000 49.620000 0 0 0
4664 1555 2 0 9.840000 23.080000 49.850000 0 0 0
4665 1555 3 0 9.450000 21.650000 49.370000 0 0 0
4666 1556 4 0 9.610000 20.510000 47.930000 0 0 0
4667 1556 3 0 9.500000 21.230000 48.220000 0 0 0
4668 1556 3 0 9.720000 19.790000 47.640000 0 0 0
4669 1557 4 0 10.870000 20.170000 46.050000 0 0 0
4670 1557 3 0 11.600000 20.020000 45.940000 0 0 0
4671 1557 3 0 10.140000 20.310000 46.170000 0 0 0
4672 1558 4 0 12.020000 20.310000 43.810000 0 0 0
4673 1558 3 0 11.810000 19.760000 44.260000 0 0 0
4674 1558 3 0 12.230000 20.870000 43.360000 0 0 0
4675 1559 4 0 12.720000 20.920000 41.430000 0 0 0
4676 1559 3 0 12.580000 20.300000 41.840000 0 0 0
4677 1559 3 0 12.860000 21.540000 41.010000 0 0 0
4678 1560 1 0 12.100000 20.940000 39.180000 0 0 0
4679 1560 3 0 11.790000 20.330000 39.630000 0 0 0
4680 1560 2 0 12.380000 21.500000 38.760000 0 0 0
4681 1561 1 0 34.380000 13.600000 25.880000 0 0 0
4682 1561 2 0 34.570000 14.290000 26.110000 0 0 0
4683 1561 3 0 34.180000 12.860000 25.630000 0 0 0
4684 1562 4 0 36.690000 14.720000 25.710000 0 0 0
4685 1562 3 0 36.580000 15.440000 25.990000 0 0 0
4686 1562 3 0 36.800000 14.000000 25.430000 0 0 0
4687 1563 4 0 39.000000 15.020000 24.740000 0 0 0
4688 1563 3 0 39.730000 14.870000 24.630000 0 0 0
4689 1563 3 0 38.270000 15.160000 24.860000 0 0 0
4690 1564 4 0 39.650000 12.970000 23.510000 0 0 0
4691 1564 3 0 39.440000 12.410000 23.960000 0 0 0
4692 1564 3 0 39.860000 13.530000 23.060000 0 0 0
4693 1565 4 0 39.690000 12.760000 20.980000 0 0 0
4694 1565 3 0 39.540000 12.140000 21.390000 0 0 0
4695 1565 3 0 39.830000 13.380000 20.560000 0 0 0
4696 1566 1 0 40.430000 12.190000 18.970000 0 0 0
4697 1566 3 0 40.120000 11.580000 19.420000 0 0 0
4698 1566 2 0 40.710000 12.750000 18.550000 0 0 0
4699 1567 1 0 36.440000 44.770000 2.870000 0 0 0
4700 1567 2 0 36.630000 45.460000 3.100000 0 0 0
4701 1567 3 0 36.240000 44.030000 2.620000 0 0 0
4702 1568 4 0 36.480000 42.280000 3.260000 0 0 0
4703 1568 3 0 36.370000 43.000000 3.540000 0 0 0
4704 1568 3 0 36.590000 41.560000 2.980000 0 0 0
4705 1569 4 0 36.780000 40.370000 5.010000 0 0 0
4706 1569 3 0 37.510000 40.220000 4.900000 0 0 0
4707 1569 3 0 36.050000 40.510000 5.130000 0 0 0
4708 1570 4 0 38.870000 39.530000 5.870000 0 0 0
4709 1570 3 0 38.660000 38.970000 6.320000 0 0 0
4710 1570 3 0 39.080000 40.080000 5.420000 0 0 0
4711 1571 4 0 40.970000 39.280000 6.350000 0 0 0
4712 1571 3 0 40.830000 38.660000 6.770000 0 0 0
4713 1571 3 0 41.120000 39.900000 5.940000 0 0 0
4714 1572 1 0 42.920000 40.590000 5.370000 0 0 0
4715 1572 3 0 42.610000 39.980000 5.820000 0 0 0
4716 1572 2 0 43.200000 41.150000 4.950000 0 0 0
4717 1573 1 0 33.620000 31.290000 13.240000 0 0 0
4718 1573 2 0 33.810000 31.980000 13.470000 0 0 0
4719 1573 3 0 33.420000 30.550000 12.990000 0 0 0
4720 1574 4 0 31.500000 31.660000 12.200000 0 0 0
4721 1574 3 0 31.390000 32.380000 12.480000 0 0 0
4722 1574 3 0 31.610000 30.940000 11.920000 0 0 0
4723 1575 4 0 30.220000 32.120000 10.380000 0 0 0
4724 1575 3 0 30.950000 31.980000 10.270000 0 0 0
4725 1575 3 0 29.490000 32.270000 10.500000 0 0 0
4726 1576 4 0 29.940000 32.200000 7.880000 0 0 0
4727 1576 3 0 29.730000 31.650000 8.330000 0 0 0
4728 1576 3 0 30.150000 32.760000 7.430000 0 0 0
4729 1577 4 0 28.690000 32.120000 5.920000 0 0 0
4730 1577 3 0 28.550000 31.500000 6.340000 0 0 0
4731 1577 3 0 28.840000 32.740000 5.510000 0 0 0
4732 1578 1 0 26.190000 31.620000 6.060000 0 0 0
4733 1578 3 0 25.880000 31.010000 6.510000 0 0 0
4734 1578 2 0 26.470000 32.180000 5.640000 0 0 0
4735 1579 1 0 20.750000 21.420000 45.880000 0 0 0
4736 1579 2 0 20.940000 22.110000 46.110000 0 0 0
4737 1579 3 0 20.550000 20.680000 45.630000 0 0 0
4738 1580 4 0 22.570000 19.710000 45.830000 0 0 0
4739 1580 3 0 22.460000 20.430000 46.120000 0 0 0
4740 1580 3 0 22.680000 18.990000 45.540000 0 0 0
4741 1581 4 0 24.150000 18.130000 45.510000 0 0 0
4742 1581 3 0 24.880000 17.980000 45.400000 0 0 0
4743 1581 3 0 23.420000 18.270000 45.620000 0 0 0
4744 1582 4 0 26.120000 18.570000 44.420000 0 0 0
4745 1582 3 0 25.910000 18.010000 44.870000 0 0 0
4746 1582 3 0 26.330000 19.130000 43.970000 0 0 0
4747 1583 4 0 28.580000 18.850000 44.530000 0 0 0
4748 1583 3 0 28.440000 18.230000 44.950000 0 0 0
4749 1583 3 0 28.730000 19.470000 44.120000 0 0 0
4750 1584 1 0 30.780000 19.380000 44.210000 0 0 0
4751 1584 3 0 30.470000 18.770000 44.660000 0 0 0
4752 1584 2 0 31.060000 19.940000 43.790000 0 0 0
4753 1585 1 0 15.160000 42.420000 4.960000 0 0 0
4754 1585 2 0 15.350000 43.110000 5.190000 0 0 0
4755 1585 3 0 14.960000 41.680000 4.710000 0 0 0
4756 1586 4 0 16.590000 43.280000 3.400000 0 0 0
4757 1586 3 0 16.480000 44.000000 3.680000 0 0 0
4758 1586 3 0 16.700000 42.560000 3.120000 0 0 0
4759 1587 4 0 18.300000 44.430000 1.840000 0 0 0
4760 1587 3 0 19.030000 44.280000 1.730000 0 0 0
4761 1587 3 0 17.570000 44.570000 1.960000 0 0 0
4762 1588 4 0 19.960000 45.780000 1.320000 0 0 0
4763 1588 3 0 19.750000 45.220000 1.770000 0 0 0
4764 1588 3 0 20.170000 46.340000 0.870000 0 0 0
4765 1589 4 0 22.240000 46.920000 1.460000 0 0 0
4766 1589 3 0 22.100000 46.300000 1.880000 0 0 0
4767 1589 3 0 22.390000 47.540000 1.050000 0 0 0
4768 1590 1 0 23.890000 46.630000 3.420000 0 0 0
4769 1590 3 0 23.580000 46.020000 3.870000 0 0 0
4770 1590 2 0 24.170000 47.190000 3.000000 0 0 0
4771 1591 1 0 4.740000 0.130000 44.340000 0 0 0
4772 1591 2 0 4.930000 0.820000 44.570000 0 0 0
4773 1591 3 0 4.540000 56.927600 44.090000 0 -1 0
4774 1592 4 0 3.940000 1.550000 42.600000 0 0 0
4775 1592 3 0 3.830000 2.270000 42.880000 0 0 0
4776 1592 3 0 4.050000 0.830000 42.310000 0 0 0
4777 1593 4 0 3.250000 2.880000 40.540000 0 0 0
4778 1593 3 0 3.980000 2.730000 40.430000 0 0 0
4779 1593 3 0 2.520000 3.020000 40.660000 0 0 0
4780 1594 4 0 2.830000 3.770000 38.340000 0 0 0
4781 1594 3 0 2.620000 3.220000 38.790000 0 0 0
4782 1594 3 0 3.040000 4.320000 37.890000 0 0 0
4783 1595 4 0 3.320000 4.930000 36.190000 0 0 0
4784 1595 3 0 3.180000 4.310000 36.610000 0 0 0
4785 1595 3 0 3.460000 5.550000 35.780000 0 0 0
4786 1596 1 0 4.000000 6.360000 34.510000 0 0 0
4787 1596 3 0 3.690000 5.750000 34.960000 0 0 0
4788 1596 2 0 4.280000 6.920000 34.090000 0 0 0
4789 1597 1 0 6.850000 49.330000 27.240000 0 0 0
4790 1597 2 0 7.040000 50.020000 27.470000 0 0 0
4791 1597 3 0 6.650000 48.590000 26.990000 0 0 0
4792 1598 4 0 5.620000 48.580000 29.220000 0 0 0
4793 1598 3 0 5.510000 49.300000 29.500000 0 0 0
4794 1598 3 0 5.730000 47.860000 28.940000 0 0 0
4795 1599 4 0 6.550000 47.300000 31.190000 0 0 0
4796 1599 3 0 7.280000 47.160000 31.080000 0 0 0
4797 1599 3 0 5.820000 47.450000 31.310000 0 0 0
4798 1600 4 0 8.350000 45.680000 31.910000 0 0 0
4799 1600 3 0 8.140000 45.120000 32.360000 0 0 0
4800 1600 3 0 8.560000 46.230000 31.460000 0 0 0
4801 1601 4 0 10.510000 44.920000 32.940000 0 0 0
4802 1601 3 0 10.360000 44.300000 33.360000 0 0 0
4803 1601 3 0 10.650000 45.540000 32.530000 0 0 0
4804 1602 1 0 12.120000 44.410000 34.440000 0 0 0
4805 1602 3 0 11.810000 43.800000 34.890000 0 0 0
4806 1602 2 0 12.400000 44.970000 34.020000 0 0 0
4807 1603 1 0 32.280000 48.050000 13.140000 0 0 0
4808 1603 2 0 32.470000 48.740000 13.370000 0 0 0
4809 1603 3 0 32.080000 47.310000 12.890000 0 0 0
4810 1604 4 0 34.210000 47.670000 11.410000 0 0 0
4811 1604 3 0 34.100000 48.390000 11.690000 0 0 0
4812 1604 3 0 34.320000 46.950000 11.130000 0 0 0
4813 1605 4 0 36.520000 48.250000 10.540000 0 0 0
4814 1605 3 0 37.250000 48.110000 10.430000 0 0 0
4815 1605 3 0 35.790000 48.400000 10.660000 0 0 0
4816 1606 4 0 39.050000 48.100000 10.430000 0 0 0
4817 1606 3 0 38.840000 47.540000 10.880000 0 0 0
4818 1606 3 0 39.260000 48.650000 9.980000 0 0 0
4819 1607 4 0 41.600000 47.860000 10.380000 0 0 0
4820 1607 3 0 41.460000 47.240000 10.800000 0 0 0
4821 1607 3 0 41.750000 48.480000 9.970000 0 0 0
4822 1608 1 0 44.020000 48.110000 11.210000 0 0 0
4823 1608 3 0 43.710000 47.500000 11.660000 0 0 0
4824 1608 2 0 44.300000 48.670000 10.790000 0 0 0
4825 1609 1 0 15.650000 55.340000 40.200000 0 0 0
4826 1609 2 0 15.840000 56.030000 40.430000 0 0 0
4827 1609 3 0 15.450000 54.600000 39.950000 0 0 0
4828 1610 4 0 16.290000 0.060000 39.990000 0 1 0
4829 1610 3 0 16.180000 0.780000 40.270000 0 1 0
4830 1610 3 0 16.400000 56.877600 39.710000 0 0 0
4831 1611 4 0 15.680000 1.120000 38.150000 0 1 0
4832 1611 3 0 16.410000 0.970000 38.040000 0 1 0
4833 1611 3 0 14.950000 1.260000 38.270000 0 1 0
4834 1612 4 0 15.160000 2.790000 36.520000 0 1 0
4835 1612 3 0 14.950000 2.240000 36.970000 0 1 0
4836 1612 3 0 15.370000 3.350000 36.070000 0 1 0
4837 1613 4 0 14.580000 4.740000 34.990000 0 1 0
4838 1613 3 0 14.440000 4.120000 35.410000 0 1 0
4839 1613 3 0 14.720000 5.360000 34.580000 0 1 0
4840 1614 1 0 13.150000 6.320000 34.530000 0 1 0
4841 1614 3 0 12.840000 5.710000 34.980000 0 1 0
4842 1614 2 0 13.430000 6.880000 34.110000 0 1 0
4843 1615 1 0 52.140000 19.750000 35.860000 0 0 0
4844 1615 2 0 52.330000 20.440000 36.090000 0 0 0
4845 1615 3 0 51.940000 19.010000 35.610000 0 0 0
4846 1616 4 0 51.580000 21.700000 37.200000 0 0 0
4847 1616 3 0 51.470000 22.420000 37.480000 0 0 0
4848 1616 3 0 51.690000 20.980000 36.920000 0 0 0
4849 1617 4 0 50.200000 23.220000 38.760000 0 0 0
4850 1617 3 0 50.930000 23.080000 38.650000 0 0 0
4851 1617 3 0 49.470000 23.370000 38.880000 0 0 0
4852 1618 4 0 51.160000 23.860000 40.780000 0 0 0
4853 1618 3 0 50.950000 23.310000 41.230000 0 0 0
4854 1618 3 0 51.370000 24.420000 40.330000 0 0 0
4855 1619 4 0 52.220000 23.390000 43.030000 0 0 0
4856 1619 3 0 52.080000 22.770000 43.450000 0 0 0
4857 1619 3 0 52.370000 24.010000 42.610000 0 0 0
4858 1620 1 0 53.580000 24.400000 44.680000 0 0 0
4859 1620 3 0 53.270000 23.790000 45.130000 0 0 0
4860 1620 2 0 53.860000 24.960000 44.260000 0 0 0
4861 1621 1 0 11.280000 39.500000 48.800000 0 0 0
4862 1621 2 0 11.470000 40.190000 49.030000 0 0 0
4863 1621 3 0 11.080000 38.760000 48.550000 0 0 0
4864 1622 4 0 12.820000 39.320000 46.970000 0 0 0
4865 1622 3 0 12.710000 40.040000 47.260000 0 0 0
4866 1622 3 0 12.930000 38.600000 46.680000 0 0 0
4867 1623 4 0 14.790000 38.760000 45.450000 0 0 0
4868 1623 3 0 15.520000 38.610000 45.340000 0 0 0
4869 1623 3 0 14.060000 38.900000 45.560000 0 0 0
4870 1624 4 0 15.940000 37.400000 43.610000 0 0 0
4871 1624 3 0 15.730000 36.850000 44.060000 0 0 0
4872 1624 3 0 16.150000 37.960000 43.160000 0 0 0
4873 1625 4 0 15.350000 34.980000 42.900000 0 0 0
4874 1625 3 0 15.200000 34.360000 43.320000 0 0 0
4875 1625 3 0 15.490000 35.600000 42.480000 0 0 0
4876 1626 1 0 14.370000 32.880000 42.230000 0 0 0
4877 1626 3 0 14.060000 32.270000 42.680000 0 0 0
4878 1626 2 0 14.650000 33.440000 41.810000 0 0 0
4879 1627 1 0 53.400000 46.690000 10.620000 0 0 0
4880 1627 2 0 53.590000 47.380000 10.850000 0 0 0
4881 1627 3 0 53.200000 45.950000 10.370000 0 0 0
4882 1628 4 0 51.410000 48.070000 9.820000 0 0 0
4883 1628 3 0 51.300000 48.790000 10.100000 0 0 0
4884 1628 3 0 51.520000 47.350000 9.540000 0 0 0
4885 1629 4 0 49.530000 49.240000 10.110000 0 0 0
4886 1629 3 0 50.260000 49.100000 10.000000 0 0 0
4887 1629 3 0 48.800000 49.390000 10.220000 0 0 0
4888 1630 4 0 47.350000 48.910000 8.850000 0 0 0
4889 1630 3 0 47.140000 48.350000 9.300000 0 0 0
4890 1630 3 0 47.560000 49.470000 8.400000 0 0 0
4891 1631 4 0 46.020000 49.090000 6.690000 0 0 0
4892 1631 3 0 45.880000 48.470000 7.110000 0 0 0
4893 1631 3 0 46.170000 49.710000 6.280000 0 0 0
4894 1632 1 0 44.360000 49.200000 4.800000 0 0 0
4895 1632 3 0 44.050000 48.590000 5.250000 0 0 0
4896 1632 2 0 44.640000 49.760000 4.380000 0 0 0
4897 1633 1 0 31.510000 51.840000 25.870000 0 0 0
4898 1633 2 0 31.700000 52.530000 26.100000 0 0 0
4899 1633 3 0 31.310000 51.100000 25.620000 0 0 0
4900 1634 4 0 33.500000 51.460000 24.750000 0 0 0
4901 1634 3 0 33.390000 52.180000 25.030000 0 0 0
4902 1634 3 0 33.610000 50.740000 24.470000 0 0 0
4903 1635 4 0 34.820000 51.830000 23.000000 0 0 0
4904 1635 3 0 35.550000 51.680000 22.880000 0 0 0
4905 1635 3 0 34.090000 51.970000 23.110000 0 0 0
4906 1636 4 0 36.280000 52.450000 21.110000 0 0 0
4907 1636 3 0 36.070000 51.890000 21.560000 0 0 0
4908 1636 3 0 36.490000 53.010000 20.660000 0 0 0
4909 1637 4 0 37.290000 53.490000 19.230000 0 0 0
4910 1637 3 0 37.150000 52.870000 19.650000 0 0 0
4911 1637 3 0 37.440000 54.110000 18.820000 0 0 0
4912 1638 1 0 36.950000 54.800000 17.160000 0 0 0
4913 1638 3 0 36.640000 54.190000 17.610000 0 0 0
4914 1638 2 0 37.230000 55.360000 16.740000 0 0 0
4915 1639 1 0 44.820000 50.530000 23.190000 0 0 0
4916 1639 2 0 45.010000 51.220000 23.420000 0 0 0
4917 1639 3 0 44.620000 49.790000 22.940000 0 0 0
4918 1640 4 0 43.710000 49.120000 21.380000 0 0 0
4919 1640 3 0 43.600000 49.840000 21.670000 0 0 0
4920 1640 3 0 43.820000 48.400000 21.090000 0 0 0
4921 1641 4 0 42.960000 47.410000 20.080000 0 0 0
4922 1641 3 0 43.690000 47.260000 19.970000 0 0 0
4923 1641 3 0 42.230000 47.550000 20.190000 0 0 0
4924 1642 4 0 42.320000 45.320000 19.070000 0 0 0
4925 1642 3 0 42.110000 44.760000 19.520000 0 0 0
4926 1642 3 0 42.530000 45.880000 18.620000 0 0 0
4927 1643 4 0 41.280000 43.460000 18.150000 0 0 0
4928 1643 3 0 41.140000 42.840000 18.570000 0 0 0
4929 1643 3 0 41.430000 44.080000 17.740000 0 0 0
4930 1644 1 0 40.730000 41.670000 19.320000 0 0 0
4931 1644 3 0 40.420000 41.060000 19.770000 0 0 0
4932 1644 2 0 41.010000 42.230000 18.900000 0 0 0
4933 1645 1 0 40.880000 52.550000 8.910000 0 0 0
4934 1645 2 0 41.070000 53.240000 9.140000 0 0 0
4935 1645 3 0 40.680000 51.810000 8.660000 0 0 0
4936 1646 4 0 42.080000 52.280000 6.950000 0 0 0
4937 1646 3 0 41.970000 53.000000 7.230000 0 0 0
4938 1646 3 0 42.190000 51.560000 6.660000 0 0 0
4939 1647 4 0 42.650000 54.480000 6.060000 0 0 0
4940 1647 3 0 43.380000 54.340000 5.950000 0 0 0
4941 1647 3 0 41.920000 54.630000 6.180000 0 0 0
4942 1648 4 0 44.520000 54.710000 4.420000 0 0 0
4943 1648 3 0 44.310000 54.150000 4.870000 0 0 0
4944 1648 3 0 44.730000 55.270000 3.970000 0 0 0
4945 1649 4 0 45.290000 54.470000 2.280000 0 0 0
4946 1649 3 0 45.140000 53.850000 2.700000 0 0 0
4947 1649 3 0 45.430000 55.090000 1.870000 0 0 0
4948 1650 1 0 45.990000 52.540000 1.540000 0 0 0
4949 1650 3 0 45.680000 51.930000 1.990000 0 0 0
4950 1650 2 0 46.270000 53.100000 1.120000 0 0 0
4951 1651 1 0 37.890000 31.520000 51.870000 0 0 0
4952 1651 2 0 38.080000 32.210000 52.100000 0 0 0
4953 1651 3 0 37.690000 30.780000 51.620000 0 0 0
4954 1652 4 0 35.860000 32.970000 51.530000 0 0 0
4955 1652 3 0 35.750000 33.690000 51.810000 0 0 0
4956 1652 3 0 35.970000 32.250000 51.240000 0 0 0
4957 1653 4 0 34.410000 34.660000 51.360000 0 0 0
4958 1653 3 0 35.140000 34.520000 51.250000 0 0 0
4959 1653 3 0 33.680000 34.810000 51.470000 0 0 0
4960 1654 4 0 33.620000 35.710000 53.460000 0 0 0
4961 1654 3 0 33.410000 35.160000 53.910000 0 0 0
4962 1654 3 0 33.830000 36.270000 53.010000 0 0 0
4963 1655 4 0 33.320000 36.800000 55.870000 0 0 0
4964 1655 3 0 33.170000 36.180000 56.280000 0 0 0
4965 1655 3 0 33.460000 37.420000 55.450000 0 0 0
4966 1656 1 0 32.240000 35.930000 0.160000 0 0 1
4967 1656 3 0 31.930000 35.320000 0.610000 0 0 1
4968 1656 2 0 32.520000 36.490000 57.277600 0 0 0
4969 1657 1 0 48.620000 29.520000 5.000000 0 0 0
4970 1657 2 0 48.810000 30.210000 5.230000 0 0 0
4971 1657 3 0 48.420000 28.780000 4.750000 0 0 0
4972 1658 4 0 47.400000 30.760000 3.200000 0 0 0
4973 1658 3 0 47.290000 31.480000 3.480000 0 0 0
4974 1658 3 0 47.510000 30.040000 2.920000 0 0 0
4975 1659 4 0 45.360000 30.080000 1.770000 0 0 0
4976 1659 3 0 46.090000 29.940000 1.660000 0 0 0
4977 1659 3 0 44.630000 30.220000 1.890000 0 0 0
4978 1660 4 0 43.360000 29.200000 0.490000 0 0 0
4979 1660 3 0 43.150000 28.650000 0.940000 0 0 0
4980 1660 3 0 43.570000 29.750000 0.040000 0 0 0
4981 1661 4 0 43.090000 27.220000 56.420000 0 0 -1
4982 1661 3 0 42.950000 26.600000 56.840000 0 0 -1
4983 1661 3 0 43.240000 27.840000 56.010000 0 0 -1
4984 1662 1 0 43.080000 24.950000 55.540000 0 0 -1
4985 1662 3 0 42.770000 24.340000 55.990000 0 0 -1
4986 1662 2 0 43.360000 25.510000 55.120000 0 0 -1
4987 1663 1 0 15.530000 56.970000 28.250000 0 0 0
4988 1663 2 0 15.720000 0.122400 28.480000 0 1 0
4989 1663 3 0 15.330000 56.230000 28.000000 0 0 0
4990 1664 4 0 15.990000 1.840000 27.640000 0 1 0
4991 1664 3 0 15.880000 2.560000 27.920000 0 1 0
4992 1664 3 0 16.100000 1.120000 27.360000 0 1 0
4993 1665 4 0 15.970000 4.080000 27.080000 0 1 0
4994 1665 3 0 16.700000 3.930000 26.970000 0 1 0
4995 1665 3 0 15.240000 4.220000 27.200000 0 1 0
4996 1666 4 0 16.890000 5.900000 26.080000 0 1 0
4997 1666 3 0 16.680000 5.340000 26.530000 0 1 0
4998 1666 3 0 17.100000 6.450000 25.630000 0 1 0
4999 1667 4 0 17.230000 8.070000 25.040000 0 1 0
5000 1667 3 0 17.090000 7.450000 25.460000 0 1 0
5001 1667 3 0 17.380000 8.690000 24.630000 0 1 0
5002 1668 1 0 18.880000 9.310000 23.670000 0 1 0
5003 1668 3 0 18.570000 8.700000 24.120000 0 1 0
5004 1668 2 0 19.160000 9.870000 23.250000 0 1 0
5005 1669 1 0 15.720000 45.720000 46.450000 0 0 0
5006 1669 2 0 15.910000 46.410000 46.680000 0 0 0
5007 1669 3 0 15.520000 44.980000 46.200000 0 0 0
5008 1670 4 0 14.020000 44.380000 47.530000 0 0 0
5009 1670 3 0 13.910000 45.100000 47.820000 0 0 0
5010 1670 3 0 14.130000 43.660000 47.240000 0 0 0
5011 1671 4 0 11.620000 44.270000 46.990000 0 0 0
5012 1671 3 0 12.350000 44.120000 46.880000 0 0 0
5013 1671 3 0 10.890000 44.410000 47.100000 0 0 0
5014 1672 4 0 9.280000 44.060000 45.990000 0 0 0
5015 1672 3 0 9.070000 43.500000 46.440000 0 0 0
5016 1672 3 0 9.490000 44.620000 45.540000 0 0 0
5017 1673 4 0 7.500000 44.160000 44.210000 0 0 0
5018 1673 3 0 7.360000 43.540000 44.630000 0 0 0
5019 1673 3 0 7.640000 44.780000 43.800000 0 0 0
5020 1674 1 0 5.670000 43.880000 42.510000 0 0 0
5021 1674 3 0 5.360000 43.270000 42.960000 0 0 0
5022 1674 2 0 5.950000 44.440000 42.090000 0 0 0
5023 1675 1 0 21.870000 49.280000 8.610000 0 0 0
5024 1675 2 0 22.060000 49.970000 8.840000 0 0 0
5025 1675 3 0 21.670000 48.540000 8.360000 0 0 0
5026 1676 4 0 21.350000 50.090000 6.250000 0 0 0
5027 1676 3 0 21.240000 50.810000 6.530000 0 0 0
5028 1676 3 0 21.460000 49.370000 5.970000 0 0 0
5029 1677 4 0 19.910000 50.280000 4.330000 0 0 0
5030 1677 3 0 20.640000 50.130000 4.220000 0 0 0
5031 1677 3 0 19.180000 50.420000 4.450000 0 0 0
5032 1678 4 0 17.570000 50.290000 4.330000 0 0 0
5033 1678 3 0 17.360000 49.730000 4.780000 0 0 0
5034 1678 3 0 17.780000 50.850000 3.880000 0 0 0
5035 1679 4 0 15.510000 49.160000 4.230000 0 0 0
5036 1679 3 0 15.360000 48.540000 4.650000 0 0 0
5037 1679 3 0 15.650000 49.780000 3.820000 0 0 0
5038 1680 1 0 14.020000 47.280000 4.530000 0 0 0
5039 1680 3 0 13.710000 46.670000 4.980000 0 0 0
5040 1680 2 0 14.300000 47.840000 4.110000 0 0 0
5041 1681 1 0 5.670000 54.640000 13.310000 0 0 0
5042 1681 2 0 5.860000 55.330000 13.540000 0 0 0
5043 1681 3 0 5.470000 53.900000 13.060000 0 0 0
5044 1682 4 0 3.520000 54.520000 12.890000 0 0 0
5045 1682 3 0 3.410000 55.240000 13.170000 0 0 0
5046 1682 3 0 3.630000 53.800000 12.600000 0 0 0
5047 1683 4 0 2.440000 52.290000 12.890000 0 0 0
5048 1683 3 0 3.170000 52.150000 12.780000 0 0 0
5049 1683 3 0 1.710000 52.440000 13.000000 0 0 0
5050 1684 4 0 0.610000 50.680000 13.350000 0 0 0
5051 1684 3 0 0.400000 50.120000 13.800000 0 0 0
5052 1684 3 0 0.820000 51.230000 12.900000 0 0 0
5053 1685 4 0 57.330000 48.670000 12.980000 -1 0 0
5054 1685 3 0 57.180000 48.050000 13.400000 -1 0 0
5055 1685 3 0 57.470000 49.290000 12.570000 -1 0 0
5056 1686 1 0 57.170000 46.580000 11.970000 -1 0 0
5057 1686 3 0 56.860000 45.970000 12.420000 -1 0 0
5058 1686 2 0 57.450000 47.140000 11.550000 -1 0 0
5059 1687 1 0 4.670000 17.790000 45.810000 0 0 0
5060 1687 2 0 4.860000 18.480000 46.040000 0 0 0
5061 1687 3 0 4.470000 17.050000 45.560000 0 0 0
5062 1688 4 0 6.300000 19.030000 44.580000 0 0 0
5063 1688 3 0 6.190000 19.750000 44.870000 0 0 0
5064 1688 3 0 6.410000 18.310000 44.290000 0 0 0
5065 1689 4 0 7.110000 18.410000 42.610000 0 0 0
5066 1689 3 0 7.840000 18.260000 42.500000 0 0 0
5067 1689 3 0 6.380000 18.550000 42.720000 0 0 0
5068 1690 4 0 7.410000 18.540000 40.380000 0 0 0
5069 1690 3 0 7.200000 17.990000 40.830000 0 0 0
5070 1690 3 0 7.620000 19.090000 39.930000 0 0 0
5071 1691 4 0 5.330000 19.410000 39.400000 0 0 0
5072 1691 3 0 5.190000 18.790000 39.820000 0 0 0
5073 1691 3 0 5.470000 20.030000 38.990000 0 0 0
5074 1692 1 0 4.460000 20.900000 37.880000 0 0 0
5075 1692 3 0 4.150000 20.290000 38.330000 0 0 0
5076 1692 2 0 4.740000 21.460000 37.460000 0 0 0
5077 1693 1 0 54.790000 27.290000 47.960000 0 0 0
5078 1693 2 0 54.980000 27.980000 48.190000 0 0 0
5079 1693 3 0 54.590000 26.550000 47.710000 0 0 0
5080 1694 4 0 54.880000 26.400000 50.060000 0 0 0
5081 1694 3 0 54.770000 27.120000 50.350000 0 0 0
5082 1694 3 0 54.990000 25.680000 49.780000 0 0 0
5083 1695 4 0 56.230000 24.620000 50.520000 0 0 0
5084 1695 3 0 56.960000 24.480000 50.400000 0 0 0
5085 1695 3 0 55.500000 24.770000 50.630000 0 0 0
5086 1696 4 0 0.940000 23.360000 50.560000 1 0 0
5087 1696 3 0 0.730000 22.800000 51.010000 1 0 0
5088 1696 3 0 1.150000 23.910000 50.110000 1 0 0
5089 1697 4 0 2.800000 22.280000 50.370000 1 0 0
5090 1697 3 0 2.660000 21.660000 50.790000 1 0 0
5091 1697 3 0 2.940000 22.900000 49.950000 1 0 0
5092 1698 1 0 4.710000 21.300000 50.090000 1 0 0
5093 1698 3 0 4.400000 20.690000 50.540000 1 0 0
5094 1698 2 0 4.990000 21.860000 49.670000 1 0 0
5095 1699 1 0 26.450000 38.880000 6.650000 0 0 0
5096 1699 2 0 26.640000 39.570000 6.880000 0 0 0
5097 1699 3 0 26.250000 38.140000 6.400000 0 0 0
5098 1700 4 0 27.340000 37.290000 5.220000 0 0 0
5099 1700 3 0 27.230000 38.010000 5.500000 0 0 0
5100 1700 3 0 27.450000 36.570000 4.940000 0 0 0
5101 1701 4 0 27.360000 36.270000 2.980000 0 0 0
5102 1701 3 0 28.090000 36.120000 2.870000 0 0 0
5103 1701 3 0 26.630000 36.410000 3.100000 0 0 0
5104 1702 4 0 27.580000 34.680000 1.050000 0 0 0
5105 1702 3 0 27.370000 34.130000 1.500000 0 0 0
5106 1702 3 0 27.790000 35.230000 0.600000 0 0 0
5107 1703 4 0 28.170000 33.390000 56.780000 0 0 -1
5108 1703 3 0 28.030000 32.770000 57.200000 0 0 -1
5109 1703 3 0 28.320000 34.010000 56.360000 0 0 -1
5110 1704 1 0 29.440000 34.250000 54.860000 0 0 -1
5111 1704 3 0 29.130000 33.640000 55.310000 0 0 -1
5112 1704 2 0 29.720000 34.810000 54.440000 0 0 -1
5113 1705 1 0 41.120000 10.900000 57.290000 0 0 0
5114 1705 2 0 41.310000 11.590000 57.520000 0 0 0
5115 1705 3 0 40.920000 10.160000 57.040000 0 0 0
5116 1706 4 0 40.840000 8.570000 56.550000 0 0 0
5117 1706 3 0 40.730000 9.290000 56.840000 0 0 0
5118 1706 3 0 40.950000 7.850000 56.270000 0 0 0
5119 1707 4 0 40.100000 6.420000 55.370000 0 0 0
5120 1707 3 0 40.830000 6.270000 55.260000 0 0 0
5121 1707 3 0 39.370000 6.560000 55.480000 0 0 0
5122 1708 4 0 39.540000 4.480000 54.000000 0 0 0
5123 1708 3 0 39.330000 3.930000 54.450000 0 0 0
5124 1708 3 0 39.750000 5.040000 53.550000 0 0 0
5125 1709 4 0 38.520000 2.480000 54.850000 0 0 0
5126 1709 3 0 38.370000 1.860000 55.270000 0 0 0
5127 1709 3 0 38.660000 3.100000 54.440000 0 0 0
5128 1710 1 0 38.130000 57.530000 54.960000 0 -1 0
5129 1710 3 0 37.820000 56.920000 55.410000 0 -1 0
5130 1710 2 0 38.410000 0.552400 54.540000 0 0 0
5131 1711 1 0 24.240000 48.310000 50.730000 0 0 0
5132 1711 2 0 24.430000 49.000000 50.960000 0 0 0
5133 1711 3 0 24.040000 47.570000 50.480000 0 0 0
5134 1712 4 0 22.110000 47.020000 50.120000 0 0 0
5135 1712 3 0 22.000000 47.740000 50.400000 0 0 0
5136 1712 3 0 22.220000 46.300000 49.830000 0 0 0
5137 1713 4 0 20.170000 45.820000 49.880000 0 0 0
5138 1713 3 0 20.900000 45.670000 49.770000 0 0 0
5139 1713 3 0 19.440000 45.960000 50.000000 0 0 0
5140 1714 4 0 18.690000 44.320000 51.310000 0 0 0
5141 1714 3 0 18.480000 43.770000 51.760000 0 0 0
5142 1714 3 0 18.900000 44.880000 50.860000 0 0 0
5143 1715 4 0 16.920000 42.810000 52.370000 0 0 0
5144 1715 3 0 16.770000 42.190000 52.790000 0 0 0
5145 1715 3 0 17.060000 43.430000 51.960000 0 0 0
5146 1716 1 0 15.310000 41.710000 53.600000 0 0 0
5147 1716 3 0 15.000000 41.100000 54.050000 0 0 0
5148 1716 2 0 15.590000 42.270000 53.180000 0 0 0
5149 1717 1 0 17.970000 8.100000 35.310000 0 0 0
5150 1717 2 0 18.160000 8.790000 35.540000 0 0 0
5151 1717 3 0 17.770000 7.360000 35.060000 0 0 0
5152 1718 4 0 17.130000 9.220000 33.210000 0 0 0
5153 1718 3 0 17.020000 9.940000 33.490000 0 0 0
5154 1718 3 0 17.240000 8.500000 32.930000 0 0 0
5155 1719 4 0 14.920000 9.480000 32.700000 0 0 0
5156 1719 3 0 15.650000 9.330000 32.590000 0 0 0
5157 1719 3 0 14.190000 9.620000 32.820000 0 0 0
5158 1720 4 0 13.760000 8.940000 30.530000 0 0 0
5159 1720 3 0 13.550000 8.390000 30.980000 0 0 0
5160 1720 3 0 13.970000 9.500000 30.080000 0 0 0
5161 1721 4 0 12.890000 8.160000 28.220000 0 0 0
5162 1721 3 0 12.740000 7.540000 28.640000 0 0 0
5163 1721 3 0 13.030000 8.780000 27.800000 0 0 0
5164 1722 1 0 12.340000 7.400000 26.170000 0 0 0
5165 1722 3 0 12.030000 6.790000 26.620000 0 0 0
5166 1722 2 0 12.620000 7.960000 25.750000 0 0 0
5167 1723 1 0 49.200000 44.770000 8.380000 0 0 0
5168 1723 2 0 49.390000 45.460000 8.610000 0 0 0
5169 1723 3 0 49.000000 44.030000 8.130000 0 0 0
5170 1724 4 0 49.220000 42.490000 9.440000 0 0 0
5171 1724 3 0 49.110000 43.210000 9.720000 0 0 0
5172 1724 3 0 49.330000 41.770000 9.150000 0 0 0
5173 1725 4 0 51.270000 42.130000 10.860000 0 0 0
5174 1725 3 0 52.000000 41.990000 10.750000 0 0 0
5175 1725 3 0 50.540000 42.280000 10.980000 0 0 0
5176 1726 4 0 52.980000 42.200000 12.670000 0 0 0
5177 1726 3 0 52.770000 41.640000 13.120000 0 0 0
5178 1726 3 0 53.190000 42.760000 12.220000 0 0 0
5179 1727 4 0 54.280000 43.290000 14.030000 0 0 0
5180 1727 3 0 54.130000 42.670000 14.450000 0 0 0
5181 1727 3 0 54.420000 43.910000 13.620000 0 0 0
5182 1728 1 0 55.150000 45.340000 15.110000 0 0 0
5183 1728 3 0 54.840000 44.730000 15.560000 0 0 0
5184 1728 2 0 55.430000 45.900000 14.690000 0 0 0
5185 1729 1 0 44.330000 17.990000 46.780000 0 0 0
5186 1729 2 0 44.520000 18.680000 47.010000 0 0 0
5187 1729 3 0 44.130000 17.250000 46.530000 0 0 0
5188 1730 4 0 43.230000 16.560000 45.050000 0 0 0
5189 1730 3 0 43.120000 17.280000 45.340000 0 0 0
5190 1730 3 0 43.340000 15.840000 44.760000 0 0 0
5191 1731 4 0 42.000000 17.590000 43.010000 0 0 0
5192 1731 3 0 42.730000 17.440000 42.900000 0 0 0
5193 1731 3 0 41.270000 17.730000 43.120000 0 0 0
5194 1732 4 0 42.480000 19.380000 41.290000 0 0 0
5195 1732 3 0 42.270000 18.820000 41.740000 0 0 0
5196 1732 3 0 42.690000 19.940000 40.840000 0 0 0
5197 1733 4 0 42.040000 21.240000 40.190000 0 0 0
5198 1733 3 0 41.890000 20.620000 40.610000 0 0 0
5199 1733 3 0 42.180000 21.860000 39.780000 0 0 0
5200 1734 1 0 40.130000 22.360000 40.830000 0 0 0
5201 1734 3 0 39.820000 21.750000 41.280000 0 0 0
5202 1734 2 0 40.410000 22.920000 40.410000 0 0 0
5203 1735 1 0 22.790000 15.900000 28.420000 0 0 0
5204 1735 2 0 22.980000 16.590000 28.650000 0 0 0
5205 1735 3 0 22.590000 15.160000 28.170000 0 0 0
5206 1736 4 0 23.870000 16.930000 26.520000 0 0 0
5207 1736 3 0 23.760000 17.650000 26.810000 0 0 0
5208 1736 3 0 23.980000 16.210000 26.230000 0 0 0
5209 1737 4 0 24.930000 17.470000 24.290000 0 0 0
5210 1737 3 0 25.660000 17.320000 24.170000 0 0 0
5211 1737 3 0 24.200000 17.620000 24.410000 0 0 0
5212 1738 4 0 25.530000 16.850000 22.180000 0 0 0
5213 1738 3 0 25.320000 16.300000 22.630000 0 0 0
5214 1738 3 0 25.740000 17.400000 21.730000 0 0 0
5215 1739 4 0 27.760000 16.620000 21.000000 0 0 0
5216 1739 3 0 27.610000 16.000000 21.420000 0 0 0
5217 1739 3 0 27.900000 17.240000 20.590000 0 0 0
5218 1740 1 0 28.970000 14.870000 19.580000 0 0 0
5219 1740 3 0 28.660000 14.260000 20.030000 0 0 0
5220 1740 2 0 29.250000 15.430000 19.160000 0 0 0
5221 1741 1 0 5.040000 22.800000 15.770000 0 0 0
5222 1741 2 0 5.230000 23.490000 16.000000 0 0 0
5223 1741 3 0 4.840000 22.060000 15.520000 0 0 0
5224 1742 4 0 3.440000 23.990000 16.480000 0 0 0
5225 1742 3 0 3.330000 24.710000 16.760000 0 0 0
5226 1742 3 0 3.550000 23.270000 16.190000 0 0 0
5227 1743 4 0 2.060000 25.890000 16.690000 0 0 0
5228 1743 3 0 2.790000 25.750000 16.580000 0 0 0
5229 1743 3 0 1.330000 26.030000 16.810000 0 0 0
5230 1744 4 0 2.110000 28.100000 16.440000 0 0 0
5231 1744 3 0 1.900000 27.550000 16.890000 0 0 0
5232 1744 3 0 2.320000 28.650000 15.990000 0 0 0
5233 1745 4 0 2.430000 30.190000 17.530000 0 0 0
5234 1745 3 0 2.290000 29.570000 17.940000 0 0 0
5235 1745 3 0 2.570000 30.810000 17.120000 0 0 0
5236 1746 1 0 2.860000 32.490000 17.600000 0 0 0
5237 1746 3 0 2.550000 31.880000 18.050000 0 0 0
5238 1746 2 0 3.140000 33.050000 17.180000 0 0 0
5239 1747 1 0 22.550000 41.330000 55.230000 0 0 0
5240 1747 2 0 22.740000 42.020000 55.460000 0 0 0
5241 1747 3 0 22.350000 40.590000 54.980000 0 0 0
5242 1748 4 0 21.600000 40.670000 57.440000 0 0 0
5243 1748 3 0 21.490000 41.390000 0.182400 0 0 1
5244 1748 3 0 21.710000 39.950000 57.150000 0 0 0
5245 1749 4 0 20.430000 39.230000 1.160000 0 0 1
5246 1749 3 0 21.160000 39.090000 1.050000 0 0 1
5247 1749 3 0 19.700000 39.380000 1.280000 0 0 1
5248 1750 4 0 21.210000 38.430000 3.360000 0 0 1
5249 1750 3 0 21.000000 37.880000 3.810000 0 0 1
5250 1750 3 0 21.420000 38.980000 2.910000 0 0 1
5251 1751 4 0 22.270000 37.090000 5.200000 0 0 1
5252 1751 3 0 22.120000 36.470000 5.620000 0 0 1
5253 1751 3 0 22.410000 37.710000 4.790000 0 0 1
5254 1752 1 0 23.540000 35.070000 5.870000 0 0 1
5255 1752 3 0 23.230000 34.460000 6.320000 0 0 1
5256 1752 2 0 23.820000 35.630000 5.450000 0 0 1
5257 1753 1 0 37.480000 35.530000 47.610000 0 0 0
5258 1753 2 0 37.670000 36.220000 47.840000 0 0 0
5259 1753 3 0 37.280000 34.790000 47.360000 0 0 0
5260 1754 4 0 36.110000 34.190000 45.990000 0 0 0
5261 1754 3 0 36.000000 34.910000 46.280000 0 0 0
5262 1754 3 0 36.220000 33.470000 45.710000 0 0 0
5263 1755 4 0 33.970000 34.170000 44.570000 0 0 0
5264 1755 3 0 34.700000 34.020000 44.460000 0 0 0
5265 1755 3 0 33.240000 34.310000 44.680000 0 0 0
5266 1756 4 0 32.790000 36.010000 44.020000 0 0 0
5267 1756 3 0 32.580000 35.460000 44.470000 0 0 0
5268 1756 3 0 33.000000 36.560000 43.570000 0 0 0
5269 1757 4 0 31.200000 37.860000 43.360000 0 0 0
5270 1757 3 0 31.060000 37.240000 43.780000 0 0 0
5271 1757 3 0 31.350000 38.480000 42.950000 0 0 0
5272 1758 1 0 30.900000 40.170000 42.390000 0 0 0
5273 1758 3 0 30.590000 39.560000 42.840000 0 0 0
5274 1758 2 0 31.180000 40.730000 41.970000 0 0 0
5275 1759 1 0 27.910000 29.470000 28.700000 0 0 0
5276 1759 2 0 28.100000 30.160000 28.930000 0 0 0
5277 1759 3 0 27.710000 28.730000 28.450000 0 0 0
5278 1760 4 0 29.810000 29.540000 30.250000 0 0 0
5279 1760 3 0 29.700000 30.260000 30.530000 0 0 0
5280 1760 3 0 29.920000 28.820000 29.970000 0 0 0
5281 1761 4 0 31.630000 29.890000 31.300000 0 0 0
5282 1761 3 0 32.360000 29.740000 31.190000 0 0 0
5283 1761 3 0 30.900000 30.030000 31.410000 0 0 0
5284 1762 4 0 34.140000 29.790000 30.950000 0 0 0
5285 1762 3 0 33.930000 29.240000 31.400000 0 0 0
5286 1762 3 0 34.350000 30.340000 30.500000 0 0 0
5287 1763 4 0 36.560000 29.260000 30.380000 0 0 0
5288 1763 3 0 36.420000 28.640000 30.790000 0 0 0
5289 1763 3 0 36.710000 29.880000 29.970000 0 0 0
5290 1764 1 0 38.300000 30.920000 31.180000 0 0 0
5291 1764 3 0 37.990000 30.310000 31.630000 0 0 0
5292 1764 2 0 38.580000 31.480000 30.760000 0 0 0
5293 1765 1 0 46.560000 1.540000 31.750000 0 0 0
5294 1765 2 0 46.750000 2.230000 31.980000 0 0 0
5295 1765 3 0 46.360000 0.800000 31.500000 0 0 0
5296 1766 4 0 46.880000 57.430000 33.600000 0 -1 0
5297 1766 3 0 46.770000 0.612400 33.880000 0 0 0
5298 1766 3 0 46.990000 56.710000 33.320000 0 -1 0
5299 1767 4 0 47.420000 56.100000 35.440000 0 -1 0
5300 1767 3 0 48.150000 55.960000 35.330000 0 -1 0
5301 1767 3 0 46.690000 56.250000 35.560000 0 -1 0
5302 1768 4 0 48.310000 55.130000 37.370000 0 -1 0
5303 1768 3 0 48.100000 54.570000 37.820000 0 -1 0
5304 1768 3 0 48.520000 55.690000 36.920000 0 -1 0
5305 1769 4 0 50.240000 53.930000 38.310000 0 -1 0
5306 1769 3 0 50.100000 53.310000 38.730000 0 -1 0
5307 1769 3 0 50.380000 54.550000 37.900000 0 -1 0
5308 1770 1 0 51.490000 51.740000 38.510000 0 -1 0
5309 1770 3 0 51.180000 51.130000 38.960000 0 -1 0
5310 1770 2 0 51.770000 52.300000 38.090000 0 -1 0
5311 1771 1 0 29.430000 20.360000 9.590000 0 0 0
5312 1771 2 0 29.620000 21.050000 9.820000 0 0 0
5313 1771 3 0 29.230000 19.620000 9.340000 0 0 0
5314 1772 4 0 29.340000 18.320000 8.160000 0 0 0
5315 1772 3 0 29.230000 19.040000 8.440000 0 0 0
5316 1772 3 0 29.450000 17.600000 7.870000 0 0 0
5317 1773 4 0 27.900000 16.260000 8.120000 0 0 0
5318 1773 3 0 28.630000 16.110000 8.010000 0 0 0
5319 1773 3 0 27.170000 16.400000 8.240000 0 0 0
5320 1774 4 0 28.270000 15.120000 10.010000 0 0 0
5321 1774 3 0 28.060000 14.570000 10.460000 0 0 0
5322 1774 3 0 28.480000 15.670000 9.560000 0 0 0
5323 1775 4 0 30.610000 14.770000 10.960000 0 0 0
5324 1775 3 0 30.460000 14.150000 11.380000 0 0 0
5325 1775 3 0 30.750000 15.390000 10.550000 0 0 0
5326 1776 1 0 32.730000 14.490000 11.480000 0 0 0
5327 1776 3 0 32.420000 13.880000 11.930000 0 0 0
5328 1776 2 0 33.010000 15.050000 11.060000 0 0 0
5329 1777 1 0 31.440000 36.390000 10.560000 0 0 0
5330 1777 2 0 31.630000 37.080000 10.790000 0 0 0
5331 1777 3 0 31.240000 35.650000 10.310000 0 0 0
5332 1778 4 0 29.040000 36.520000 11.090000 0 0 0
5333 1778 3 0 28.930000 37.240000 11.370000 0 0 0
5334 1778 3 0 29.150000 35.800000 10.810000 0 0 0
5335 1779 4 0 27.140000 37.880000 11.400000 0 0 0
5336 1779 3 0 27.870000 37.730000 11.290000 0 0 0
5337 1779 3 0 26.410000 38.020000 11.510000 0 0 0
5338 1780 4 0 24.940000 39.030000 10.650000 0 0 0
5339 1780 3 0 24.730000 38.480000 11.100000 0 0 0
5340 1780 3 0 25.150000 39.580000 10.200000 0 0 0
5341 1781 4 0 22.930000 39.850000 10.000000 0 0 0
5342 1781 3 0 22.790000 39.230000 10.420000 0 0 0
5343 1781 3 0 23.080000 40.470000 9.590000 0 0 0
5344 1782 1 0 20.880000 38.750000 9.060000 0 0 0
5345 1782 3 0 20.570000 38.140000 9.510000 0 0 0
5346 1782 2 0 21.160000 39.310000 8.640000 0 0 0
5347 1783 1 0 53.830000 40.120000 5.830000 0 0 0
5348 1783 2 0 54.020000 40.810000 6.060000 0 0 0
5349 1783 3 0 53.630000 39.380000 5.580000 0 0 0
5350 1784 4 0 51.600000 39.510000 5.340000 0 0 0
5351 1784 3 0 51.490000 40.230000 5.620000 0 0 0
5352 1784 3 0 51.710000 38.790000 5.060000 0 0 0
5353 1785 4 0 49.220000 39.680000 5.980000 0 0 0
5354 1785 3 0 49.950000 39.540000 5.870000 0 0 0
5355 1785 3 0 48.490000 39.820000 6.100000 0 0 0
5356 1786 4 0 46.820000 39.390000 6.930000 0 0 0
5357 1786 3 0 46.610000 38.840000 7.380000 0 0 0
5358 1786 3 0 47.030000 39.940000 6.480000 0 0 0
5359 1787 4 0 45.100000 39.720000 8.710000 0 0 0
5360 1787 3 0 44.950000 39.100000 9.130000 0 0 0
5361 1787 3 0 45.240000 40.340000 8.300000 0 0 0
5362 1788 1 0 43.490000 39.870000 10.210000 0 0 0
5363 1788 3 0 43.180000 39.260000 10.660000 0 0 0
5364 1788 2 0 43.770000 40.430000 9.790000 0 0 0
5365 1789 1 0 34.040000 56.620000 55.120000 0 0 0
5366 1789 2 0 34.230000 57.310000 55.350000 0 0 0
5367 1789 3 0 33.840000 55.880000 54.870000 0 0 0
5368 1790 4 0 32.680000 54.830000 55.120000 0 0 0
5369 1790 3 0 32.570000 55.550000 55.400000 0 0 0
5370 1790 3 0 32.790000 54.110000 54.830000 0 0 0
5371 1791 4 0 30.860000 53.410000 54.160000 0 0 0
5372 1791 3 0 31.590000 53.270000 54.050000 0 0 0
5373 1791 3 0 30.130000 53.560000 54.280000 0 0 0
5374 1792 4 0 30.050000 51.330000 52.780000 0 0 0
5375 1792 3 0 29.840000 50.770000 53.230000 0 0 0
5376 1792 3 0 30.260000 51.890000 52.330000 0 0 0
5377 1793 4 0 29.450000 49.400000 51.670000 0 0 0
5378 1793 3 0 29.300000 48.780000 52.080000 0 0 0
5379 1793 3 0 29.590000 50.020000 51.250000 0 0 0
5380 1794 1 0 28.480000 47.100000 51.280000 0 0 0
5381 1794 3 0 28.170000 46.490000 51.730000 0 0 0
5382 1794 2 0 28.760000 47.660000 50.860000 0 0 0
5383 1795 1 0 7.230000 56.630000 31.480000 0 0 0
5384 1795 2 0 7.420000 57.320000 31.710000 0 0 0
5385 1795 3 0 7.030000 55.890000 31.230000 0 0 0
5386 1796 4 0 6.580000 54.830000 33.210000 0 0 0
5387 1796 3 0 6.470000 55.550000 33.490000 0 0 0
5388 1796 3 0 6.690000 54.110000 32.930000 0 0 0
5389 1797 4 0 6.110000 53.480000 34.890000 0 0 0
5390 1797 3 0 6.840000 53.330000 34.780000 0 0 0
5391 1797 3 0 5.380000 53.620000 35.000000 0 0 0
5392 1798 4 0 7.710000 52.930000 36.810000 0 0 0
5393 1798 3 0 7.500000 52.370000 37.260000 0 0 0
5394 1798 3 0 7.920000 53.490000 36.360000 0 0 0
5395 1799 4 0 9.150000 52.230000 38.490000 0 0 0
5396 1799 3 0 9.010000 51.610000 38.910000 0 0 0
5397 1799 3 0 9.290000 52.850000 38.080000 0 0 0
5398 1800 1 0 9.720000 53.750000 40.040000 0 0 0
5399 1800 3 0 9.410000 53.140000 40.490000 0 0 0
5400 1800 2 0 10.000000 54.310000 39.620000 0 0 0
5401 1801 1 0 11.300000 28.740000 38.020000 0 0 0
5402 1801 2 0 11.490000 29.430000 38.250000 0 0 0
5403 1801 3 0 11.100000 28.000000 37.770000 0 0 0
5404 1802 4 0 12.230000 30.160000 36.640000 0 0 0
5405 1802 3 0 12.120000 30.880000 36.920000 0 0 0
5406 1802 3 0 12.340000 29.440000 36.360000 0 0 0
5407 1803 4 0 12.810000 31.950000 34.980000 0 0 0
5408 1803 3 0 13.540000 31.800000 34.870000 0 0 0
5409 1803 3 0 12.080000 32.090000 35.100000 0 0 0
5410 1804 4 0 13.530000 32.190000 32.690000 0 0 0
5411 1804 3 0 13.320000 31.630000 33.140000 0 0 0
5412 1804 3 0 13.740000 32.740000 32.240000 0 0 0
5413 1805 4 0 13.870000 32.080000 30.500000 0 0 0
5414 1805 3 0 13.730000 31.460000 30.910000 0 0 0
5415 1805 3 0 14.010000 32.700000 30.080000 0 0 0
5416 1806 1 0 14.120000 31.710000 28.190000 0 0 0
5417 1806 3 0 13.810000 31.100000 28.640000 0 0 0
5418 1806 2 0 14.400000 32.270000 27.770000 0 0 0
5419 1807 1 0 43.890000 35.650000 39.470000 0 0 0
5420 1807 2 0 44.080000 36.340000 39.700000 0 0 0
5421 1807 3 0 43.690000 34.910000 39.220000 0 0 0
5422 1808 4 0 44.090000 34.070000 37.840000 0 0 0
5423 1808 3 0 43.980000 34.790000 38.120000 0 0 0
5424 1808 3 0 44.200000 33.350000 37.550000 0 0 0
5425 1809 4 0 44.850000 32.490000 36.060000 0 0 0
5426 1809 3 0 45.580000 32.350000 35.950000 0 0 0
5427 1809 3 0 44.120000 32.640000 36.170000 0 0 0
5428 1810 4 0 46.610000 31.590000 34.790000 0 0 0
5429 1810 3 0 46.400000 31.030000 35.240000 0 0 0
5430 1810 3 0 46.820000 32.140000 34.340000 0 0 0
5431 1811 4 0 48.990000 32.530000 34.780000 0 0 0
5432 1811 3 0 48.850000 31.910000 35.200000 0 0 0
5433 1811 3 0 49.130000 33.150000 34.370000 0 0 0
5434 1812 1 0 50.440000 32.350000 36.510000 0 0 0
5435 1812 3 0 50.130000 31.740000 36.960000 0 0 0
5436 1812 2 0 50.720000 32.910000 36.090000 0 0 0
5437 1813 1 0 40.410000 5.400000 39.520000 0 0 0
5438 1813 2 0 40.600000 6.090000 39.750000 0 0 0
5439 1813 3 0 40.210000 4.660000 39.270000 0 0 0
5440 1814 4 0 41.300000 7.520000 39.750000 0 0 0
5441 1814 3 0 41.190000 8.240000 40.030000 0 0 0
5442 1814 3 0 41.410000 6.800000 39.470000 0 0 0
5443 1815 4 0 41.680000 9.680000 41.080000 0 0 0
5444 1815 3 0 42.410000 9.530000 40.960000 0 0 0
5445 1815 3 0 40.950000 9.820000 41.190000 0 0 0
5446 1816 4 0 41.490000 11.830000 41.680000 0 0 0
5447 1816 3 0 41.280000 11.270000 42.130000 0 0 0
5448 1816 3 0 41.700000 12.390000 41.230000 0 0 0
5449 1817 4 0 40.870000 13.210000 43.600000 0 0 0
5450 1817 3 0 40.720000 12.590000 44.020000 0 0 0
5451 1817 3 0 41.010000 13.830000 43.190000 0 0 0
5452 1818 1 0 39.080000 14.170000 45.330000 0 0 0
5453 1818 3 0 38.770000 13.560000 45.780000 0 0 0
5454 1818 2 0 39.360000 14.730000 44.910000 0 0 0
5455 1819 1 0 50.440000 20.970000 46.960000 0 0 0
5456 1819 2 0 50.630000 21.660000 47.190000 0 0 0
5457 1819 3 0 50.240000 20.230000 46.710000 0 0 0
5458 1820 4 0 48.640000 21.200000 48.780000 0 0 0
5459 1820 3 0 48.530000 21.920000 49.070000 0 0 0
5460 1820 3 0 48.750000 20.480000 48.490000 0 0 0
5461 1821 4 0 46.640000 22.730000 48.840000 0 0 0
5462 1821 3 0 47.370000 22.590000 48.730000 0 0 0
5463 1821 3 0 45.910000 22.880000 48.960000 0 0 0
5464 1822 4 0 44.810000 24.430000 48.490000 0 0 0
5465 1822 3 0 44.600000 23.880000 48.940000 0 0 0
5466 1822 3 0 45.020000 24.980000 48.040000 0 0 0
5467 1823 4 0 42.780000 25.560000 47.790000 0 0 0
5468 1823 3 0 42.630000 24.940000 48.210000 0 0 0
5469 1823 3 0 42.920000 26.180000 47.370000 0 0 0
5470 1824 1 0 40.850000 26.780000 47.300000 0 0 0
5471 1824 3 0 40.540000 26.170000 47.750000 0 0 0
5472 1824 2 0 41.130000 27.340000 46.880000 0 0 0
5473 1825 1 0 9.690000 35.810000 24.370000 0 0 0
5474 1825 2 0 9.880000 36.500000 24.600000 0 0 0
5475 1825 3 0 9.490000 35.070000 24.120000 0 0 0
5476 1826 4 0 8.410000 34.610000 22.610000 0 0 0
5477 1826 3 0 8.300000 35.330000 22.900000 0 0 0
5478 1826 3 0 8.520000 33.890000 22.320000 0 0 0
5479 1827 4 0 7.400000 33.910000 20.740000 0 0 0
5480 1827 3 0 8.130000 33.770000 20.620000 0 0 0
5481 1827 3 0 6.670000 34.050000 20.850000 0 0 0
5482 1828 4 0 7.200000 34.170000 18.520000 0 0 0
5483 1828 3 0 6.990000 33.610000 18.970000 0 0 0
5484 1828 3 0 7.410000 34.720000 18.070000 0 0 0
5485 1829 4 0 7.180000 34.870000 16.070000 0 0 0
5486 1829 3 0 7.040000 34.250000 16.490000 0 0 0
5487 1829 3 0 7.320000 35.490000 15.660000 0 0 0
5488 1830 1 0 7.890000 35.440000 13.710000 0 0 0
5489 1830 3 0 7.580000 34.830000 14.160000 0 0 0
5490 1830 2 0 8.170000 36.000000 13.290000 0 0 0
5491 1831 1 0 32.360000 18.120000 27.080000 0 0 0
5492 1831 2 0 32.550000 18.810000 27.310000 0 0 0
5493 1831 3 0 32.160000 17.380000 26.830000 0 0 0
5494 1832 4 0 33.740000 19.160000 25.320000 0 0 0
5495 1832 3 0 33.630000 19.880000 25.610000 0 0 0
5496 1832 3 0 33.850000 18.440000 25.030000 0 0 0
5497 1833 4 0 33.570000 21.500000 24.780000 0 0 0
5498 1833 3 0 34.300000 21.350000 24.670000 0 0 0
5499 1833 3 0 32.840000 21.640000 24.900000 0 0 0
5500 1834 4 0 35.100000 23.180000 24.960000 0 0 0
5501 1834 3 0 34.890000 22.630000 25.410000 0 0 0
5502 1834 3 0 35.310000 23.730000 24.510000 0 0 0
5503 1835 4 0 35.130000 25.540000 23.920000 0 0 0
5504 1835 3 0 34.980000 24.920000 24.330000 0 0 0
5505 1835 3 0 35.270000 26.160000 23.510000 0 0 0
5506 1836 1 0 35.310000 25.760000 21.720000 0 0 0
5507 1836 3 0 35.000000 25.150000 22.170000 0 0 0
5508 1836 2 0 35.590000 26.320000 21.300000 0 0 0
5509 1837 1 0 56.960000 46.200000 23.910000 0 0 0
5510 1837 2 0 57.150000 46.890000 24.140000 0 0 0
5511 1837 3 0 56.760000 45.460000 23.660000 0 0 0
5512 1838 4 0 1.660000 46.420000 22.870000 1 0 0
5513 1838 3 0 1.550000 47.140000 23.160000 1 0 0
5514 1838 3 0 1.770000 45.700000 22.580000 1 0 0
5515 1839 4 0 3.400000 45.230000 22.170000 1 0 0
5516 1839 3 0 4.130000 45.080000 22.060000 1 0 0
5517 1839 3 0 2.670000 45.370000 22.290000 1 0 0
5518 1840 4 0 4.800000 43.240000 21.620000 1 0 0
5519 1840 3 0 4.590000 42.680000 22.070000 1 0 0
5520 1840 3 0 5.010000 43.800000 21.170000 1 0 0
5521 1841 4 0 6.330000 42.110000 22.790000 1 0 0
5522 1841 3 0 6.190000 41.490000 23.210000 1 0 0
5523 1841 3 0 6.470000 42.730000 22.370000 1 0 0
5524 1842 1 0 7.770000 40.590000 23.820000 1 0 0
5525 1842 3 0 7.460000 39.980000 24.270000 1 0 0
5526 1842 2 0 8.050000 41.150000 23.400000 1 0 0
5527 1843 1 0 21.790000 56.310000 20.820000 0 0 0
5528 1843 2 0 21.980000 57.000000 21.050000 0 0 0
5529 1843 3 0 21.590000 55.570000 20.570000 0 0 0
5530 1844 4 0 23.590000 54.980000 20.460000 0 0 0
5531 1844 3 0 23.480000 55.700000 20.740000 0 0 0
5532 1844 3 0 23.700000 54.260000 20.180000 0 0 0
5533 1845 4 0 25.390000 53.980000 19.560000 0 0 0
5534 1845 3 0 26.120000 53.830000 19.450000 0 0 0
5535 1845 3 0 24.660000 54.120000 19.680000 0 0 0
5536 1846 4 0 26.760000 52.670000 18.000000 0 0 0
5537 1846 3 0 26.550000 52.120000 18.450000 0 0 0
5538 1846 3 0 26.970000 53.230000 17.550000 0 0 0
5539 1847 4 0 27.320000 51.450000 15.900000 0 0 0
5540 1847 3 0 27.180000 50.830000 16.320000 0 0 0
5541 1847 3 0 27.470000 52.070000 15.490000 0 0 0
5542 1848 1 0 28.730000 51.460000 13.840000 0 0 0
5543 1848 3 0 28.420000 50.850000 14.290000 0 0 0
5544 1848 2 0 29.010000 52.020000 13.420000 0 0 0
5545 1849 1 0 18.640000 37.670000 32.960000 0 0 0
5546 1849 2 0 18.830000 38.360000 33.190000 0 0 0
5547 1849 3 0 18.440000 36.930000 32.710000 0 0 0
5548 1850 4 0 19.760000 39.280000 31.510000 0 0 0
5549 1850 3 0 19.650000 40.000000 31.790000 0 0 0
5550 1850 3 0 19.870000 38.560000 31.220000 0 0 0
5551 1851 4 0 21.960000 38.370000 30.580000 0 0 0
5552 1851 3 0 22.690000 38.230000 30.460000 0 0 0
5553 1851 3 0 21.230000 38.520000 30.690000 0 0 0
5554 1852 4 0 23.340000 36.870000 31.950000 0 0 0
5555 1852 3 0 23.130000 36.310000 32.400000 0 0 0
5556 1852 3 0 23.550000 37.420000 31.500000 0 0 0
5557 1853 4 0 22.340000 35.540000 33.880000 0 0 0
5558 1853 3 0 22.200000 34.920000 34.290000 0 0 0
5559 1853 3 0 22.480000 36.160000 33.460000 0 0 0
5560 1854 1 0 22.440000 34.070000 35.650000 0 0 0
5561 1854 3 0 22.130000 33.460000 36.100000 0 0 0
5562 1854 2 0 22.720000 34.630000 35.230000 0 0 0
5563 1855 1 0 36.290000 47.290000 41.830000 0 0 0
5564 1855 2 0 36.480000 47.980000 42.060000 0 0 0
5565 1855 3 0 36.090000 46.550000 41.580000 0 0 0
5566 1856 4 0 37.930000 46.640000 43.180000 0 0 0
5567 1856 3 0 37.820000 47.360000 43.460000 0 0 0
5568 1856 3 0 38.040000 45.920000 42.890000 0 0 0
5569 1857 4 0 39.870000 45.590000 44.440000 0 0 0
5570 1857 3 0 40.600000 45.450000 44.330000 0 0 0
5571 1857 3 0 39.140000 45.740000 44.550000 0 0 0
5572 1858 4 0 42.160000 44.830000 44.850000 0 0 0
5573 1858 3 0 41.950000 44.270000 45.300000 0 0 0
5574 1858 3 0 42.370000 45.380000 44.400000 0 0 0
5575 1859 4 0 44.000000 43.660000 45.740000 0 0 0
5576 1859 3 0 43.860000 43.040000 46.150000 0 0 0
5577 1859 3 0 44.150000 44.280000 45.320000 0 0 0
5578 1860 1 0 45.680000 42.410000 46.560000 0 0 0
5579 1860 3 0 45.370000 41.800000 47.010000 0 0 0
5580 1860 2 0 45.960000 42.970000 46.140000 0 0 0
5581 1861 1 0 19.560000 7.350000 52.750000 0 0 0
5582 1861 2 0 19.750000 8.040000 52.980000 0 0 0
5583 1861 3 0 19.360000 6.610000 52.500000 0 0 0
5584 1862 4 0 20.370000 6.480000 50.490000 0 0 0
5585 1862 3 0 20.260000 7.200000 50.780000 0 0 0
5586 1862 3 0 20.480000 5.760000 50.210000 0 0 0
5587 1863 4 0 19.030000 5.780000 48.760000 0 0 0
5588 1863 3 0 19.760000 5.630000 48.650000 0 0 0
5589 1863 3 0 18.300000 5.920000 48.880000 0 0 0
5590 1864 4 0 18.770000 3.400000 47.810000 0 0 0
5591 1864 3 0 18.560000 2.850000 48.260000 0 0 0
5592 1864 3 0 18.980000 3.960000 47.360000 0 0 0
5593 1865 4 0 19.860000 2.010000 46.030000 0 0 0
5594 1865 3 0 19.720000 1.390000 46.440000 0 0 0
5595 1865 3 0 20.000000 2.630000 45.610000 0 0 0
5596 1866 1 0 19.450000 57.250000 44.800000 0 -1 0
5597 1866 3 0 19.140000 56.640000 45.250000 0 -1 0
5598 1866 2 0 19.730000 0.272400 44.380000 0 0 0
5599 1867 1 0 46.510000 45.710000 42.100000 0 0 0
5600 1867 2 0 46.700000 46.400000 42.330000 0 0 0
5601 1867 3 0 46.310000 44.970000 41.850000 0 0 0
5602 1868 4 0 47.100000 43.360000 41.780000 0 0 0
5603 1868 3 0 46.990000 44.080000 42.070000 0 0 0
5604 1868 3 0 47.210000 42.640000 41.490000 0 0 0
5605 1869 4 0 47.090000 40.920000 41.380000 0 0 0
5606 1869 3 0 47.820000 40.770000 41.270000 0 0 0
5607 1869 3 0 46.360000 41.060000 41.490000 0 0 0
5608 1870 4 0 47.560000 38.470000 40.660000 0 0 0
5609 1870 3 0 47.350000 37.920000 41.110000 0 0 0
5610 1870 3 0 47.770000 39.020000 40.210000 0 0 0
5611 1871 4 0 48.060000 36.790000 38.880000 0 0 0
5612 1871 3 0 47.920000 36.170000 39.290000 0 0 0
5613 1871 3 0 48.210000 37.410000 38.460000 0 0 0
5614 1872 1 0 49.340000 36.710000 36.680000 0 0 0
5615 1872 3 0 49.030000 36.100000 37.130000 0 0 0
5616 1872 2 0 49.620000 37.270000 36.260000 0 0 0
5617 1873 1 0 25.770000 40.260000 34.090000 0 0 0
5618 1873 2 0 25.960000 40.950000 34.320000 0 0 0
5619 1873 3 0 25.570000 39.520000 33.840000 0 0 0
5620 1874 4 0 26.940000 38.290000 33.890000 0 0 0
5621 1874 3 0 26.830000 39.010000 34.170000 0 0 0
5622 1874 3 0 27.050000 37.570000 33.610000 0 0 0
5623 1875 4 0 27.260000 35.850000 34.140000 0 0 0
5624 1875 3 0 27.990000 35.710000 34.030000 0 0 0
5625 1875 3 0 26.530000 35.990000 34.260000 0 0 0
5626 1876 4 0 27.830000 33.750000 34.680000 0 0 0
5627 1876 3 0 27.620000 33.200000 35.130000 0 0 0
5628 1876 3 0 28.040000 34.300000 34.230000 0 0 0
5629 1877 4 0 27.950000 31.610000 35.890000 0 0 0
5630 1877 3 0 27.800000 30.990000 36.310000 0 0 0
5631 1877 3 0 28.090000 32.230000 35.480000 0 0 0
5632 1878 1 0 29.380000 29.860000 36.410000 0 0 0
5633 1878 3 0 29.070000 29.250000 36.860000 0 0 0
5634 1878 2 0 29.660000 30.420000 35.990000 0 0 0
5635 1879 1 0 17.780000 1.410000 33.060000 0 0 0
5636 1879 2 0 17.970000 2.100000 33.290000 0 0 0
5637 1879 3 0 17.580000 0.670000 32.810000 0 0 0
5638 1880 4 0 18.790000 56.950000 31.810000 0 -1 0
5639 1880 3 0 18.680000 0.132400 32.100000 0 0 0
5640 1880 3 0 18.900000 56.230000 31.520000 0 -1 0
5641 1881 4 0 19.740000 55.410000 30.590000 0 -1 0
5642 1881 3 0 20.470000 55.270000 30.480000 0 -1 0
5643 1881 3 0 19.010000 55.560000 30.710000 0 -1 0
5644 1882 4 0 20.890000 56.260000 28.870000 0 -1 0
5645 1882 3 0 20.680000 55.710000 29.320000 0 -1 0
5646 1882 3 0 21.100000 56.820000 28.420000 0 -1 0
5647 1883 4 0 22.070000 0.970000 28.850000 0 0 0
5648 1883 3 0 21.920000 0.350000 29.260000 0 0 0
5649 1883 3 0 22.210000 1.590000 28.430000 0 0 0
5650 1884 1 0 24.160000 2.310000 28.870000 0 0 0
5651 1884 3 0 23.850000 1.700000 29.320000 0 0 0
5652 1884 2 0 24.440000 2.870000 28.450000 0 0 0
5653 1885 1 0 23.900000 43.960000 17.070000 0 0 0
5654 1885 2 0 24.090000 44.650000 17.300000 0 0 0
5655 1885 3 0 23.700000 43.220000 16.820000 0 0 0
5656 1886 4 0 24.110000 44.110000 14.730000 0 0 0
5657 1886 3 0 24.000000 44.830000 15.020000 0 0 0
5658 1886 3 0 24.220000 43.390000 14.450000 0 0 0
5659 1887 4 0 22.760000 42.710000 13.260000 0 0 0
5660 1887 3 0 23.490000 42.560000 13.150000 0 0 0
5661 1887 3 0 22.030000 42.850000 13.380000 0 0 0
5662 1888 4 0 20.690000 41.430000 13.770000 0 0 0
5663 1888 3 0 20.480000 40.870000 14.220000 0 0 0
5664 1888 3 0 20.900000 41.990000 13.320000 0 0 0
5665 1889 4 0 20.180000 39.820000 15.780000 0 0 0
5666 1889 3 0 20.030000 39.200000 16.200000 0 0 0
5667 1889 3 0 20.320000 40.440000 15.370000 0 0 0
5668 1890 1 0 19.910000 38.020000 17.580000 0 0 0
5669 1890 3 0 19.600000 37.410000 18.030000 0 0 0
5670 1890 2 0 20.190000 38.580000 17.160000 0 0 0
5671 1891 1 0 56.470000 42.350000 26.080000 0 0 0
5672 1891 2 0 56.660000 43.040000 26.310000 0 0 0
5673 1891 3 0 56.270000 41.610000 25.830000 0 0 0
5674 1892 4 0 54.060000 41.830000 26.020000 0 0 0
5675 1892 3 0 53.950000 42.550000 26.300000 0 0 0
5676 1892 3 0 54.170000 41.110000 25.740000 0 0 0
5677 1893 4 0 51.900000 41.180000 25.940000 0 0 0
5678 1893 3 0 52.630000 41.040000 25.830000 0 0 0
5679 1893 3 0 51.170000 41.330000 26.060000 0 0 0
5680 1894 4 0 49.310000 41.420000 25.370000 0 0 0
5681 1894 3 0 49.100000 40.870000 25.820000 0 0 0
5682 1894 3 0 49.520000 41.980000 24.920000 0 0 0
5683 1895 4 0 47.600000 42.260000 24.080000 0 0 0
5684 1895 3 0 47.450000 41.640000 24.500000 0 0 0
5685 1895 3 0 47.740000 42.880000 23.670000 0 0 0
5686 1896 1 0 46.280000 43.960000 22.840000 0 0 0
5687 1896 3 0 45.970000 43.350000 23.290000 0 0 0
5688 1896 2 0 46.560000 44.520000 22.420000 0 0 0
5689 1897 1 0 4.030000 42.230000 26.550000 0 0 0
5690 1897 2 0 4.220000 42.920000 26.780000 0 0 0
5691 1897 3 0 3.830000 41.490000 26.300000 0 0 0
5692 1898 4 0 3.620000 44.340000 27.730000 0 0 0
5693 1898 3 0 3.510000 45.060000 28.010000 0 0 0
5694 1898 3 0 3.730000 43.620000 27.450000 0 0 0
5695 1899 4 0 2.250000 45.320000 29.280000 0 0 0
5696 1899 3 0 2.980000 45.180000 29.170000 0 0 0
5697 1899 3 0 1.520000 45.460000 29.390000 0 0 0
5698 1900 4 0 1.330000 46.670000 31.000000 0 0 0
5699 1900 3 0 1.120000 46.110000 31.450000 0 0 0
5700 1900 3 0 1.540000 47.230000 30.550000 0 0 0
5701 1901 4 0 57.470000 48.040000 31.970000 -1 0 0
5702 1901 3 0 57.320000 47.420000 32.390000 -1 0 0
5703 1901 3 0 0.072400 48.660000 31.550000 0 0 0
5704 1902 1 0 56.530000 50.330000 32.190000 -1 0 0
5705 1902 3 0 56.220000 49.720000 32.640000 -1 0 0
5706 1902 2 0 56.810000 50.890000 31.770000 -1 0 0
5707 1903 1 0 24.260000 33.660000 39.410000 0 0 0
5708 1903 2 0 24.450000 34.350000 39.640000 0 0 0
5709 1903 3 0 24.060000 32.920000 39.160000 0 0 0
5710 1904 4 0 25.150000 35.880000 38.550000 0 0 0
5711 1904 3 0 25.040000 36.600000 38.830000 0 0 0
5712 1904 3 0 25.260000 35.160000 38.270000 0 0 0
5713 1905 4 0 26.100000 37.630000 39.520000 0 0 0
5714 1905 3 0 26.830000 37.480000 39.410000 0 0 0
5715 1905 3 0 25.370000 37.770000 39.630000 0 0 0
5716 1906 4 0 26.240000 39.820000 39.850000 0 0 0
5717 1906 3 0 26.030000 39.270000 40.300000 0 0 0
5718 1906 3 0 26.450000 40.380000 39.400000 0 0 0
5719 1907 4 0 27.390000 41.600000 38.950000 0 0 0
5720 1907 3 0 27.240000 40.980000 39.370000 0 0 0
5721 1907 3 0 27.530000 42.220000 38.540000 0 0 0
5722 1908 1 0 28.770000 43.600000 38.490000 0 0 0
5723 1908 3 0 28.460000 42.990000 38.940000 0 0 0
5724 1908 2 0 29.050000 44.160000 38.070000 0 0 0
5725 1909 1 0 18.370000 41.470000 23.190000 0 0 0
5726 1909 2 0 18.560000 42.160000 23.420000 0 0 0
5727 1909 3 0 18.170000 40.730000 22.940000 0 0 0
5728 1910 4 0 16.660000 41.770000 24.940000 0 0 0
5729 1910 3 0 16.550000 42.490000 25.220000 0 0 0
5730 1910 3 0 16.770000 41.050000 24.660000 0 0 0
5731 1911 4 0 15.880000 42.580000 27.130000 0 0 0
5732 1911 3 0 16.610000 42.440000 27.020000 0 0 0
5733 1911 3 0 15.150000 42.720000 27.240000 0 0 0
5734 1912 4 0 15.350000 43.940000 29.280000 0 0 0
5735 1912 3 0 15.140000 43.380000 29.730000 0 0 0
5736 1912 3 0 15.560000 44.500000 28.830000 0 0 0
5737 1913 4 0 14.650000 45.590000 31.060000 0 0 0
5738 1913 3 0 14.510000 44.970000 31.470000 0 0 0
5739 1913 3 0 14.800000 46.210000 30.640000 0 0 0
5740 1914 1 0 14.490000 47.820000 32.210000 0 0 0
5741 1914 3 0 14.180000 47.210000 32.660000 0 0 0
5742 1914 2 0 14.770000 48.380000 31.790000 0 0 0
5743 1915 1 0 40.560000 49.790000 53.380000 0 0 0
5744 1915 2 0 40.750000 50.480000 53.610000 0 0 0
5745 1915 3 0 40.360000 49.050000 53.130000 0 0 0
5746 1916 4 0 42.290000 48.790000 52.250000 0 0 0
5747 1916 3 0 42.180000 49.510000 52.530000 0 0 0
5748 1916 3 0 42.400000 48.070000 51.960000 0 0 0
5749 1917 4 0 44.140000 47.300000 52.180000 0 0 0
5750 1917 3 0 44.870000 47.160000 52.070000 0 0 0
5751 1917 3 0 43.410000 47.450000 52.290000 0 0 0
5752 1918 4 0 45.260000 46.910000 50.300000 0 0 0
5753 1918 3 0 45.050000 46.350000 50.750000 0 0 0
5754 1918 3 0 45.470000 47.470000 49.850000 0 0 0
5755 1919 4 0 46.640000 46.590000 48.250000 0 0 0
5756 1919 3 0 46.490000 45.970000 48.670000 0 0 0
5757 1919 3 0 46.780000 47.210000 47.840000 0 0 0
5758 1920 1 0 47.990000 46.130000 46.610000 0 0 0
5759 1920 3 0 47.680000 45.520000 47.060000 0 0 0
5760 1920 2 0 48.270000 46.690000 46.190000 0 0 0
5761 1921 1 0 8.640000 21.300000 6.800000 0 0 0
5762 1921 2 0 8.830000 21.990000 7.030000 0 0 0
5763 1921 3 0 8.440000 20.560000 6.550000 0 0 0
5764 1922 4 0 10.160000 19.850000 8.260000 0 0 0
5765 1922 3 0 10.050000 20.570000 8.540000 0 0 0
5766 1922 3 0 10.270000 19.130000 7.970000 0 0 0
5767 1923 4 0 10.400000 20.410000 10.780000 0 0 0
5768 1923 3 0 11.130000 20.260000 10.670000 0 0 0
5769 1923 3 0 9.670000 20.550000 10.900000 0 0 0
5770 1924 4 0 9.810000 20.070000 12.890000 0 0 0
5771 1924 3 0 9.600000 19.520000 13.340000 0 0 0
5772 1924 3 0 10.020000 20.620000 12.440000 0 0 0
5773 1925 4 0 9.030000 20.080000 15.260000 0 0 0
5774 1925 3 0 8.890000 19.460000 15.680000 0 0 0
5775 1925 3 0 9.170000 20.700000 14.850000 0 0 0
5776 1926 1 0 9.080000 21.090000 17.580000 0 0 0
5777 1926 3 0 8.770000 20.480000 18.030000 0 0 0
5778 1926 2 0 9.360000 21.650000 17.160000 0 0 0
5779 1927 1 0 2.460000 35.730000 48.240000 0 0 0
5780 1927 2 0 2.650000 36.420000 48.470000 0 0 0
5781 1927 3 0 2.260000 34.990000 47.990000 0 0 0
5782 1928 4 0 1.070000 35.810000 46.170000 0 0 0
5783 1928 3 0 0.960000 36.530000 46.460000 0 0 0
5784 1928 3 0 1.180000 35.090000 45.880000 0 0 0
5785 1929 4 0 56.650000 36.750000 44.950000 -1 0 0
5786 1929 3 0 57.380000 36.600000 44.840000 -1 0 0
5787 1929 3 0 55.920000 36.890000 45.060000 -1 0 0
5788 1930 4 0 54.790000 38.210000 43.960000 -1 0 0
5789 1930 3 0 54.580000 37.660000 44.410000 -1 0 0
5790 1930 3 0 55.000000 38.770000 43.510000 -1 0 0
5791 1931 4 0 53.820000 40.290000 45.060000 -1 0 0
5792 1931 3 0 53.670000 39.670000 45.480000 -1 0 0
5793 1931 3 0 53.960000 40.910000 44.650000 -1 0 0
5794 1932 1 0 53.010000 42.220000 46.410000 -1 0 0
5795 1932 3 0 52.700000 41.610000 46.860000 -1 0 0
5796 1932 2 0 53.290000 42.780000 45.990000 -1 0 0
5797 1933 1 0 51.610000 27.500000 54.320000 0 0 0
5798 1933 2 0 51.800000 28.190000 54.550000 0 0 0
5799 1933 3 0 51.410000 26.760000 54.070000 0 0 0
5800 1934 4 0 53.230000 25.880000 54.290000 0 0 0
5801 1934 3 0 53.120000 26.600000 54.580000 0 0 0
5802 1934 3 0 53.340000 25.160000 54.010000 0 0 0
5803 1935 4 0 54.370000 24.050000 54.800000 0 0 0
5804 1935 3 0 55.100000 23.900000 54.690000 0 0 0
5805 1935 3 0 53.640000 24.190000 54.920000 0 0 0
5806 1936 4 0 55.920000 22.360000 55.770000 0 0 0
5807 1936 3 0 55.710000 21.810000 56.220000 0 0 0
5808 1936 3 0 56.130000 22.920000 55.320000 0 0 0
5809 1937 4 0 0.720000 21.360000 54.920000 1 0 0
5810 1937 3 0 0.580000 20.740000 55.340000 1 0 0
5811 1937 3 0 0.860000 21.980000 54.500000 1 0 0
5812 1938 1 0 3.190000 20.880000 55.540000 1 0 0
5813 1938 3 0 2.880000 20.270000 55.990000 1 0 0
5814 1938 2 0 3.470000 21.440000 55.120000 1 0 0
5815 1939 1 0 10.390000 15.950000 56.730000 0 0 0
5816 1939 2 0 10.580000 16.640000 56.960000 0 0 0
5817 1939 3 0 10.190000 15.210000 56.480000 0 0 0
5818 1940 4 0 11.910000 14.330000 55.600000 0 0 0
5819 1940 3 0 11.800000 15.050000 55.880000 0 0 0
5820 1940 3 0 12.020000 13.610000 55.310000 0 0 0
5821 1941 4 0 12.970000 12.630000 54.400000 0 0 0
5822 1941 3 0 13.700000 12.480000 54.290000 0 0 0
5823 1941 3 0 12.240000 12.770000 54.520000 0 0 0
5824 1942 4 0 13.740000 10.760000 52.780000 0 0 0
5825 1942 3 0 13.530000 10.210000 53.230000 0 0 0
5826 1942 3 0 13.950000 11.310000 52.330000 0 0 0
5827 1943 4 0 14.470000 8.810000 51.840000 0 0 0
5828 1943 3 0 14.330000 8.190000 52.260000 0 0 0
5829 1943 3 0 14.620000 9.430000 51.430000 0 0 0
5830 1944 1 0 15.540000 7.050000 51.000000 0 0 0
5831 1944 3 0 15.230000 6.440000 51.450000 0 0 0
5832 1944 2 0 15.820000 7.610000 50.580000 0 0 0
5833 1945 1 0 47.160000 33.020000 50.470000 0 0 0
5834 1945 2 0 47.350000 33.710000 50.700000 0 0 0
5835 1945 3 0 46.960000 32.280000 50.220000 0 0 0
5836 1946 4 0 47.660000 34.560000 48.750000 0 0 0
5837 1946 3 0 47.550000 35.280000 49.040000 0 0 0
5838 1946 3 0 47.770000 33.840000 48.460000 0 0 0
5839 1947 4 0 46.150000 34.780000 46.820000 0 0 0
5840 1947 3 0 46.880000 34.640000 46.710000 0 0 0
5841 1947 3 0 45.420000 34.930000 46.940000 0 0 0
5842 1948 4 0 44.870000 35.400000 45.010000 0 0 0
5843 1948 3 0 44.660000 34.850000 45.460000 0 0 0
5844 1948 3 0 45.080000 35.950000 44.560000 0 0 0
5845 1949 4 0 44.400000 37.690000 44.090000 0 0 0
5846 1949 3 0 44.260000 37.070000 44.500000 0 0 0
5847 1949 3 0 44.550000 38.310000 43.670000 0 0 0
5848 1950 1 0 43.870000 39.650000 43.080000 0 0 0
5849 1950 3 0 43.560000 39.040000 43.530000 0 0 0
5850 1950 2 0 44.150000 40.210000 42.660000 0 0 0
5851 1951 1 0 10.890000 18.340000 36.010000 0 0 0
5852 1951 2 0 11.080000 19.030000 36.240000 0 0 0
5853 1951 3 0 10.690000 17.600000 35.760000 0 0 0
5854 1952 4 0 10.630000 15.820000 36.160000 0 0 0
5855 1952 3 0 10.520000 16.540000 36.440000 0 0 0
5856 1952 3 0 10.740000 15.100000 35.880000 0 0 0
5857 1953 4 0 10.630000 13.620000 36.120000 0 0 0
5858 1953 3 0 11.360000 13.480000 36.010000 0 0 0
5859 1953 3 0 9.900000 13.770000 36.230000 0 0 0
5860 1954 4 0 11.010000 12.050000 34.180000 0 0 0
5861 1954 3 0 10.800000 11.500000 34.630000 0 0 0
5862 1954 3 0 11.220000 12.600000 33.730000 0 0 0
5863 1955 4 0 10.560000 11.400000 31.760000 0 0 0
5864 1955 3 0 10.420000 10.780000 32.180000 0 0 0
5865 1955 3 0 10.710000 12.020000 31.350000 0 0 0
5866 1956 1 0 9.610000 10.910000 29.530000 0 0 0
5867 1956 3 0 9.300000 10.300000 29.980000 0 0 0
5868 1956 2 0 9.890000 11.470000 29.110000 0 0 0
5869 1957 1 0 55.230000 1.910000 43.610000 0 0 0
5870 1957 2 0 55.420000 2.600000 43.840000 0 0 0
5871 1957 3 0 55.030000 1.170000 43.360000 0 0 0
5872 1958 4 0 55.390000 3.630000 41.790000 0 0 0
5873 1958 3 0 55.280000 4.350000 42.080000 0 0 0
5874 1958 3 0 55.500000 2.910000 41.510000 0 0 0
5875 1959 4 0 53.860000 4.300000 39.920000 0 0 0
5876 1959 3 0 54.590000 4.150000 39.810000 0 0 0
5877 1959 3 0 53.130000 4.440000 40.030000 0 0 0
5878 1960 4 0 52.670000 4.570000 37.960000 0 0 0
5879 1960 3 0 52.460000 4.020000 38.410000 0 0 0
5880 1960 3 0 52.880000 5.120000 37.510000 0 0 0
5881 1961 4 0 50.630000 3.590000 37.130000 0 0 0
5882 1961 3 0 50.480000 2.970000 37.550000 0 0 0
5883 1961 3 0 50.770000 4.210000 36.710000 0 0 0
5884 1962 1 0 48.620000 3.050000 36.210000 0 0 0
5885 1962 3 0 48.310000 2.440000 36.660000 0 0 0
5886 1962 2 0 48.900000 3.610000 35.790000 0 0 0
5887 1963 1 0 42.800000 2.590000 20.880000 0 0 0
5888 1963 2 0 42.990000 3.280000 21.110000 0 0 0
5889 1963 3 0 42.600000 1.850000 20.630000 0 0 0
5890 1964 4 0 44.180000 3.610000 19.320000 0 0 0
5891 1964 3 0 44.070000 4.330000 19.600000 0 0 0
5892 1964 3 0 44.290000 2.890000 19.030000 0 0 0
5893 1965 4 0 45.550000 2.290000 17.930000 0 0 0
5894 1965 3 0 46.280000 2.140000 17.820000 0 0 0
5895 1965 3 0 44.820000 2.430000 18.040000 0 0 0
5896 1966 4 0 46.740000 0.670000 16.320000 0 0 0
5897 1966 3 0 46.530000 0.120000 16.770000 0 0 0
5898 1966 3 0 46.950000 1.220000 15.870000 0 0 0
5899 1967 4 0 47.210000 57.280000 13.910000 0 -1 0
5900 1967 3 0 47.070000 56.660000 14.330000 0 -1 0
5901 1967 3 0 47.360000 0.362400 13.500000 0 0 0
5902 1968 1 0 47.510000 57.200000 11.460000 0 -1 0
5903 1968 3 0 47.200000 56.590000 11.910000 0 -1 0
5904 1968 2 0 47.790000 0.222400 11.040000 0 0 0
5905 1969 1 0 26.950000 8.030000 45.810000 0 0 0
5906 1969 2 0 27.140000 8.720000 46.040000 0 0 0
5907 1969 3 0 26.750000 7.290000 45.560000 0 0 0
5908 1970 4 0 25.500000 5.980000 45.650000 0 0 0
5909 1970 3 0 25.390000 6.700000 45.940000 0 0 0
5910 1970 3 0 25.610000 5.260000 45.370000 0 0 0
5911 1971 4 0 24.070000 4.320000 45.240000 0 0 0
5912 1971 3 0 24.800000 4.170000 45.130000 0 0 0
5913 1971 3 0 23.340000 4.460000 45.350000 0 0 0
5914 1972 4 0 23.750000 2.000000 44.270000 0 0 0
5915 1972 3 0 23.540000 1.450000 44.720000 0 0 0
5916 1972 3 0 23.960000 2.560000 43.820000 0 0 0
5917 1973 4 0 24.770000 57.390000 43.410000 0 -1 0
5918 1973 3 0 24.620000 56.770000 43.830000 0 -1 0
5919 1973 3 0 24.910000 0.472400 43.000000 0 0 0
5920 1974 1 0 26.100000 55.470000 43.150000 0 -1 0
5921 1974 3 0 25.790000 54.860000 43.600000 0 -1 0
5922 1974 2 0 26.380000 56.030000 42.730000 0 -1 0
5923 1975 1 0 38.000000 35.890000 42.850000 0 0 0
5924 1975 2 0 38.190000 36.580000 43.080000 0 0 0
5925 1975 3 0 37.800000 35.150000 42.600000 0 0 0
5926 1976 4 0 38.320000 35.310000 40.400000 0 0 0
5927 1976 3 0 38.210000 36.030000 40.690000 0 0 0
5928 1976 3 0 38.430000 34.590000 40.110000 0 0 0
5929 1977 4 0 38.210000 35.090000 37.950000 0 0 0
5930 1977 3 0 38.940000 34.940000 37.840000 0 0 0
5931 1977 3 0 37.480000 35.230000 38.060000 0 0 0
5932 1978 4 0 36.560000 34.820000 36.550000 0 0 0
5933 1978 3 0 36.350000 34.270000 37.000000 0 0 0
5934 1978 3 0 36.770000 35.380000 36.100000 0 0 0
5935 1979 4 0 34.630000 34.570000 35.450000 0 0 0
5936 1979 3 0 34.490000 33.950000 35.870000 0 0 0
5937 1979 3 0 34.780000 35.190000 35.030000 0 0 0
5938 1980 1 0 32.560000 33.210000 35.120000 0 0 0
5939 1980 3 0 32.250000 32.600000 35.570000 0 0 0
5940 1980 2 0 32.840000 33.770000 34.700000 0 0 0
5941 1981 1 0 51.920000 19.980000 14.980000 0 0 0
5942 1981 2 0 52.110000 20.670000 15.210000 0 0 0
5943 1981 3 0 51.720000 19.240000 14.730000 0 0 0
5944 1982 4 0 52.980000 17.650000 14.830000 0 0 0
5945 1982 3 0 52.870000 18.370000 15.120000 0 0 0
5946 1982 3 0 53.090000 16.930000 14.550000 0 0 0
5947 1983 4 0 53.430000 15.770000 16.330000 0 0 0
5948 1983 3 0 54.160000 15.620000 16.220000 0 0 0
5949 1983 3 0 52.700000 15.910000 16.450000 0 0 0
5950 1984 4 0 54.730000 13.690000 16.690000 0 0 0
5951 1984 3 0 54.520000 13.130000 17.140000 0 0 0
5952 1984 3 0 54.940000 14.250000 16.240000 0 0 0
5953 1985 4 0 54.990000 11.200000 17.370000 0 0 0
5954 1985 3 0 54.840000 10.580000 17.790000 0 0 0
5955 1985 3 0 55.130000 11.820000 16.960000 0 0 0
5956 1986 1 0 55.520000 9.200000 16.280000 0 0 0
5957 1986 3 0 55.210000 8.590000 16.730000 0 0 0
5958 1986 2 0 55.800000 9.760000 15.860000 0 0 0
5959 1987 1 0 5.870000 10.770000 29.200000 0 0 0
5960 1987 2 0 6.060000 11.460000 29.430000 0 0 0
5961 1987 3 0 5.670000 10.030000 28.950000 0 0 0
5962 1988 4 0 5.630000 9.740000 31.200000 0 0 0
5963 1988 3 0 5.520000 10.460000 31.490000 0 0 0
5964 1988 3 0 5.740000 9.020000 30.910000 0 0 0
5965 1989 4 0 5.130000 11.090000 33.250000 0 0 0
5966 1989 3 0 5.860000 10.950000 33.140000 0 0 0
5967 1989 3 0 4.400000 11.230000 33.370000 0 0 0
5968 1990 4 0 5.120000 11.840000 35.590000 0 0 0
5969 1990 3 0 4.910000 11.280000 36.040000 0 0 0
5970 1990 3 0 5.330000 12.400000 35.140000 0 0 0
5971 1991 4 0 6.100000 12.670000 37.390000 0 0 0
5972 1991 3 0 5.960000 12.050000 37.800000 0 0 0
5973 1991 3 0 6.240000 13.290000 36.970000 0 0 0
5974 1992 1 0 7.070000 12.920000 39.440000 0 0 0
5975 1992 3 0 6.760000 12.310000 39.890000 0 0 0
5976 1992 2 0 7.350000 13.480000 39.020000 0 0 0
5977 1993 1 0 35.780000 9.730000 12.330000 0 0 0
5978 1993 2 0 35.970000 10.420000 12.560000 0 0 0
5979 1993 3 0 35.580000 8.990000 12.080000 0 0 0
5980 1994 4 0 35.030000 9.660000 9.960000 0 0 0
5981 1994 3 0 34.920000 10.380000 10.240000 0 0 0
5982 1994 3 0 35.140000 8.940000 9.680000 0 0 0
5983 1995 4 0 34.840000 8.860000 7.610000 0 0 0
5984 1995 3 0 35.570000 8.710000 7.500000 0 0 0
5985 1995 3 0 34.110000 9.000000 7.730000 0 0 0
5986 1996 4 0 33.600000 8.600000 5.480000 0 0 0
5987 1996 3 0 33.390000 8.040000 5.930000 0 0 0
5988 1996 3 0 33.810000 9.150000 5.030000 0 0 0
5989 1997 4 0 32.130000 8.690000 3.420000 0 0 0
5990 1997 3 0 31.990000 8.070000 3.840000 0 0 0
5991 1997 3 0 32.280000 9.310000 3.010000 0 0 0
5992 1998 1 0 31.320000 9.620000 1.390000 0 0 0
5993 1998 3 0 31.010000 9.010000 1.840000 0 0 0
5994 1998 2 0 31.600000 10.180000 0.970000 0 0 0
5995 1999 1 0 47.620000 9.140000 56.410000 0 0 0
5996 1999 2 0 47.810000 9.830000 56.640000 0 0 0
5997 1999 3 0 47.420000 8.400000 56.160000 0 0 0
5998 2000 4 0 48.420000 11.540000 56.510000 0 0 0
5999 2000 3 0 48.310000 12.260000 56.790000 0 0 0
6000 2000 3 0 48.530000 10.820000 56.220000 0 0 0
6001 2001 4 0 48.980000 13.520000 57.470000 0 0 0
6002 2001 3 0 49.710000 13.370000 57.360000 0 0 0
6003 2001 3 0 48.250000 13.670000 0.042400 0 0 1
6004 2002 4 0 49.330000 15.990000 0.320000 0 0 1
6005 2002 3 0 49.120000 15.430000 0.770000 0 0 1
6006 2002 3 0 49.540000 16.550000 57.407600 0 0 0
6007 2003 4 0 47.850000 17.280000 1.780000 0 0 1
6008 2003 3 0 47.710000 16.660000 2.200000 0 0 1
6009 2003 3 0 48.000000 17.900000 1.370000 0 0 1
6010 2004 1 0 46.140000 18.260000 3.250000 0 0 1
6011 2004 3 0 45.830000 17.650000 3.700000 0 0 1
6012 2004 2 0 46.420000 18.820000 2.830000 0 0 1
6013 2005 1 0 51.460000 44.650000 50.510000 0 0 0
6014 2005 2 0 51.650000 45.340000 50.740000 0 0 0
6015 2005 3 0 51.260000 43.910000 50.260000 0 0 0
6016 2006 4 0 49.320000 43.680000 50.350000 0 0 0
6017 2006 3 0 49.210000 44.400000 50.640000 0 0 0
6018 2006 3 0 49.430000 42.960000 50.060000 0 0 0
6019 2007 4 0 48.880000 41.940000 48.940000 0 0 0
6020 2007 3 0 49.610000 41.790000 48.830000 0 0 0
6021 2007 3 0 48.150000 42.080000 49.050000 0 0 0
6022 2008 4 0 48.810000 40.120000 47.610000 0 0 0
6023 2008 3 0 48.600000 39.560000 48.060000 0 0 0
6024 2008 3 0 49.020000 40.670000 47.160000 0 0 0
6025 2009 4 0 48.860000 38.350000 46.230000 0 0 0
6026 2009 3 0 48.720000 37.730000 46.650000 0 0 0
6027 2009 3 0 49.010000 38.970000 45.820000 0 0 0
6028 2010 1 0 49.370000 36.870000 44.310000 0 0 0
6029 2010 3 0 49.060000 36.260000 44.760000 0 0 0
6030 2010 2 0 49.650000 37.430000 43.890000 0 0 0
6031 2011 1 0 11.980000 43.200000 22.110000 0 0 0
6032 2011 2 0 12.170000 43.890000 22.340000 0 0 0
6033 2011 3 0 11.780000 42.460000 21.860000 0 0 0
6034 2012 4 0 10.400000 44.690000 22.210000 0 0 0
6035 2012 3 0 10.290000 45.410000 22.500000 0 0 0
6036 2012 3 0 10.510000 43.970000 21.920000 0 0 0
6037 2013 4 0 8.430000 46.340000 22.470000 0 0 0
6038 2013 3 0 9.160000 46.200000 22.360000 0 0 0
6039 2013 3 0 7.700000 46.490000 22.580000 0 0 0
6040 2014 4 0 6.920000 48.010000 22.430000 0 0 0
6041 2014 3 0 6.710000 47.450000 22.880000 0 0 0
6042 2014 3 0 7.130000 48.570000 21.980000 0 0 0
6043 2015 4 0 5.210000 49.480000 22.650000 0 0 0
6044 2015 3 0 5.070000 48.860000 23.070000 0 0 0
6045 2015 3 0 5.350000 50.100000 22.240000 0 0 0
6046 2016 1 0 3.330000 50.640000 22.950000 0 0 0
6047 2016 3 0 3.020000 50.030000 23.400000 0 0 0
6048 2016 2 0 3.610000 51.200000 22.530000 0 0 0
6049 2017 1 0 9.100000 31.320000 26.380000 0 0 0
6050 2017 2 0 9.290000 32.010000 26.610000 0 0 0
6051 2017 3 0 8.900000 30.580000 26.130000 0 0 0
6052 2018 4 0 9.730000 29.180000 26.990000 0 0 0
6053 2018 3 0 9.620000 29.900000 27.280000 0 0 0
6054 2018 3 0 9.840000 28.460000 26.700000 0 0 0
6055 2019 4 0 9.310000 27.090000 27.290000 0 0 0
6056 2019 3 0 10.040000 26.950000 27.180000 0 0 0
6057 2019 3 0 8.580000 27.240000 27.400000 0 0 0
6058 2020 4 0 8.210000 25.320000 28.810000 0 0 0
6059 2020 3 0 8.000000 24.770000 29.260000 0 0 0
6060 2020 3 0 8.420000 25.870000 28.360000 0 0 0
6061 2021 4 0 6.680000 24.540000 30.250000 0 0 0
6062 2021 3 0 6.540000 23.920000 30.670000 0 0 0
6063 2021 3 0 6.820000 25.160000 29.840000 0 0 0
6064 2022 1 0 4.120000 24.750000 30.460000 0 0 0
6065 2022 3 0 3.810000 24.140000 30.910000 0 0 0
6066 2022 2 0 4.400000 25.310000 30.040000 0 0 0
6067 2023 1 0 3.580000 53.540000 51.890000 0 0 0
6068 2023 2 0 3.770000 54.230000 52.120000 0 0 0
6069 2023 3 0 3.380000 52.800000 51.640000 0 0 0
6070 2024 4 0 1.020000 53.730000 52.040000 0 0 0
6071 2024 3 0 0.910000 54.450000 52.320000 0 0 0
6072 2024 3 0 1.130000 53.010000 51.750000 0 0 0
6073 2025 4 0 56.450000 53.620000 51.200000 -1 0 0
6074 2025 3 0 57.180000 53.480000 51.090000 -1 0 0
6075 2025 3 0 55.720000 53.770000 51.310000 -1 0 0
6076 2026 4 0 54.280000 53.630000 50.150000 -1 0 0
6077 2026 3 0 54.070000 53.080000 50.600000 -1 0 0
6078 2026 3 0 54.490000 54.190000 49.700000 -1 0 0
6079 2027 4 0 51.830000 53.810000 50.220000 -1 0 0
6080 2027 3 0 51.680000 53.190000 50.640000 -1 0 0
6081 2027 3 0 51.970000 54.430000 49.810000 -1 0 0
6082 2028 1 0 49.890000 53.640000 51.610000 -1 0 0
6083 2028 3 0 49.580000 53.030000 52.060000 -1 0 0
6084 2028 2 0 50.170000 54.200000 51.190000 -1 0 0
6085 2029 1 0 43.920000 14.410000 24.590000 0 0 0
6086 2029 2 0 44.110000 15.100000 24.820000 0 0 0
6087 2029 3 0 43.720000 13.670000 24.340000 0 0 0
6088 2030 4 0 43.430000 15.000000 22.380000 0 0 0
6089 2030 3 0 43.320000 15.720000 22.660000 0 0 0
6090 2030 3 0 43.540000 14.280000 22.100000 0 0 0
6091 2031 4 0 42.810000 16.000000 20.020000 0 0 0
6092 2031 3 0 43.540000 15.860000 19.900000 0 0 0
6093 2031 3 0 42.080000 16.150000 20.130000 0 0 0
6094 2032 4 0 42.360000 17.020000 18.060000 0 0 0
6095 2032 3 0 42.150000 16.470000 18.510000 0 0 0
6096 2032 3 0 42.570000 17.570000 17.610000 0 0 0
6097 2033 4 0 41.650000 18.100000 16.270000 0 0 0
6098 2033 3 0 41.510000 17.480000 16.690000 0 0 0
6099 2033 3 0 41.790000 18.720000 15.860000 0 0 0
6100 2034 1 0 40.950000 19.560000 14.570000 0 0 0
6101 2034 3 0 40.640000 18.950000 15.020000 0 0 0
6102 2034 2 0 41.230000 20.120000 14.150000 0 0 0
6103 2035 1 0 23.400000 22.950000 43.250000 0 0 0
6104 2035 2 0 23.590000 23.640000 43.480000 0 0 0
6105 2035 3 0 23.200000 22.210000 43.000000 0 0 0
6106 2036 4 0 24.680000 23.460000 45.220000 0 0 0
6107 2036 3 0 24.570000 24.180000 45.510000 0 0 0
6108 2036 3 0 24.790000 22.740000 44.940000 0 0 0
6109 2037 4 0 26.110000 23.740000 46.890000 0 0 0
6110 2037 3 0 26.840000 23.600000 46.780000 0 0 0
6111 2037 3 0 25.380000 23.890000 47.000000 0 0 0
6112 2038 4 0 28.000000 23.540000 47.990000 0 0 0
6113 2038 3 0 27.790000 22.990000 48.440000 0 0 0
6114 2038 3 0 28.210000 24.090000 47.540000 0 0 0
6115 2039 4 0 29.980000 24.390000 48.560000 0 0 0
6116 2039 3 0 29.840000 23.770000 48.970000 0 0 0
6117 2039 3 0 30.130000 25.010000 48.140000 0 0 0
6118 2040 1 0 32.100000 25.160000 49.500000 0 0 0
6119 2040 3 0 31.790000 24.550000 49.950000 0 0 0
6120 2040 2 0 32.380000 25.720000 49.080000 0 0 0
6121 2041 1 0 30.100000 14.730000 42.820000 0 0 0
6122 2041 2 0 30.290000 15.420000 43.050000 0 0 0
6123 2041 3 0 29.900000 13.990000 42.570000 0 0 0
6124 2042 4 0 31.160000 15.090000 40.620000 0 0 0
6125 2042 3 0 31.050000 15.810000 40.910000 0 0 0
6126 2042 3 0 31.270000 14.370000 40.340000 0 0 0
6127 2043 4 0 32.040000 15.570000 38.240000 0 0 0
6128 2043 3 0 32.770000 15.420000 38.120000 0 0 0
6129 2043 3 0 31.310000 15.710000 38.350000 0 0 0
6130 2044 4 0 32.730000 16.050000 35.840000 0 0 0
6131 2044 3 0 32.520000 15.500000 36.290000 0 0 0
6132 2044 3 0 32.940000 16.600000 35.390000 0 0 0
6133 2045 4 0 32.050000 16.590000 33.740000 0 0 0
6134 2045 3 0 31.910000 15.970000 34.160000 0 0 0
6135 2045 3 0 32.200000 17.210000 33.330000 0 0 0
6136 2046 1 0 32.300000 16.650000 31.310000 0 0 0
6137 2046 3 0 31.990000 16.040000 31.760000 0 0 0
6138 2046 2 0 32.580000 17.210000 30.890000 0 0 0
6139 2047 1 0 21.240000 26.950000 14.830000 0 0 0
6140 2047 2 0 21.430000 27.640000 15.060000 0 0 0
6141 2047 3 0 21.040000 26.210000 14.580000 0 0 0
6142 2048 4 0 22.800000 25.450000 14.620000 0 0 0
6143 2048 3 0 22.690000 26.170000 14.900000 0 0 0
6144 2048 3 0 22.910000 24.730000 14.330000 0 0 0
6145 2049 4 0 24.390000 23.480000 14.490000 0 0 0
6146 2049 3 0 25.120000 23.330000 14.380000 0 0 0
6147 2049 3 0 23.660000 23.620000 14.610000 0 0 0
6148 2050 4 0 25.750000 21.570000 14.180000 0 0 0
6149 2050 3 0 25.540000 21.020000 14.630000 0 0 0
6150 2050 3 0 25.960000 22.120000 13.730000 0 0 0
6151 2051 4 0 27.440000 21.140000 15.720000 0 0 0
6152 2051 3 0 27.300000 20.520000 16.140000 0 0 0
6153 2051 3 0 27.590000 21.760000 15.310000 0 0 0
6154 2052 1 0 27.610000 19.810000 17.830000 0 0 0
6155 2052 3 0 27.300000 19.200000 18.280000 0 0 0
6156 2052 2 0 27.890000 20.370000 17.410000 0 0 0
6157 2053 1 0 16.260000 39.060000 19.850000 0 0 0
6158 2053 2 0 16.450000 39.750000 20.080000 0 0 0
6159 2053 3 0 16.060000 38.320000 19.600000 0 0 0
6160 2054 4 0 14.300000 40.040000 18.650000 0 0 0
6161 2054 3 0 14.190000 40.760000 18.930000 0 0 0
6162 2054 3 0 14.410000 39.320000 18.370000 0 0 0
6163 2055 4 0 11.860000 40.040000 18.250000 0 0 0
6164 2055 3 0 12.590000 39.890000 18.140000 0 0 0
6165 2055 3 0 11.130000 40.180000 18.370000 0 0 0
6166 2056 4 0 9.520000 39.100000 18.880000 0 0 0
6167 2056 3 0 9.310000 38.550000 19.330000 0 0 0
6168 2056 3 0 9.730000 39.660000 18.430000 0 0 0
6169 2057 4 0 7.980000 38.540000 20.490000 0 0 0
6170 2057 3 0 7.840000 37.920000 20.910000 0 0 0
6171 2057 3 0 8.120000 39.160000 20.080000 0 0 0
6172 2058 1 0 5.450000 38.210000 20.140000 0 0 0
6173 2058 3 0 5.140000 37.600000 20.590000 0 0 0
6174 2058 2 0 5.730000 38.770000 19.720000 0 0 0
6175 2059 1 0 53.010000 11.210000 7.350000 0 0 0
6176 2059 2 0 53.200000 11.900000 7.580000 0 0 0
6177 2059 3 0 52.810000 10.470000 7.100000 0 0 0
6178 2060 4 0 53.530000 9.620000 5.530000 0 0 0
6179 2060 3 0 53.420000 10.340000 5.820000 0 0 0
6180 2060 3 0 53.640000 8.900000 5.250000 0 0 0
6181 2061 4 0 54.300000 7.940000 4.020000 0 0 0
6182 2061 3 0 55.030000 7.790000 3.910000 0 0 0
6183 2061 3 0 53.570000 8.080000 4.140000 0 0 0
6184 2062 4 0 54.730000 6.360000 2.470000 0 0 0
6185 2062 3 0 54.520000 5.810000 2.920000 0 0 0
6186 2062 3 0 54.940000 6.920000 2.020000 0 0 0
6187 2063 4 0 55.080000 4.410000 1.110000 0 0 0
6188 2063 3 0 54.940000 3.790000 1.530000 0 0 0
6189 2063 3 0 55.220000 5.030000 0.700000 0 0 0
6190 2064 1 0 55.330000 3.620000 56.290000 0 0 -1
6191 2064 3 0 55.020000 3.010000 56.740000 0 0 -1
6192 2064 2 0 55.610000 4.180000 55.870000 0 0 -1
6193 2065 1 0 33.260000 43.440000 41.050000 0 0 0
6194 2065 2 0 33.450000 44.130000 41.280000 0 0 0
6195 2065 3 0 33.060000 42.700000 40.800000 0 0 0
6196 2066 4 0 34.380000 44.150000 38.860000 0 0 0
6197 2066 3 0 34.270000 44.870000 39.150000 0 0 0
6198 2066 3 0 34.490000 43.430000 38.570000 0 0 0
6199 2067 4 0 35.540000 45.040000 37.170000 0 0 0
6200 2067 3 0 36.270000 44.890000 37.060000 0 0 0
6201 2067 3 0 34.810000 45.180000 37.290000 0 0 0
6202 2068 4 0 37.480000 46.280000 37.260000 0 0 0
6203 2068 3 0 37.270000 45.720000 37.710000 0 0 0
6204 2068 3 0 37.690000 46.840000 36.810000 0 0 0
6205 2069 4 0 38.830000 48.030000 37.110000 0 0 0
6206 2069 3 0 38.690000 47.410000 37.520000 0 0 0
6207 2069 3 0 38.970000 48.650000 36.700000 0 0 0
6208 2070 1 0 39.460000 50.140000 36.780000 0 0 0
6209 2070 3 0 39.150000 49.530000 37.230000 0 0 0
6210 2070 2 0 39.740000 50.700000 36.360000 0 0 0
6211 2071 1 0 12.120000 2.460000 9.310000 0 0 0
6212 2071 2 0 12.310000 3.150000 9.540000 0 0 0
6213 2071 3 0 11.920000 1.720000 9.060000 0 0 0
6214 2072 4 0 13.320000 0.370000 8.640000 0 0 0
6215 2072 3 0 13.210000 1.090000 8.920000 0 0 0
6216 2072 3 0 13.430000 57.187600 8.360000 0 -1 0
6217 2073 4 0 13.840000 55.450000 8.360000 0 -1 0
6218 2073 3 0 14.570000 55.300000 8.250000 0 -1 0
6219 2073 3 0 13.110000 55.590000 8.480000 0 -1 0
6220 2074 4 0 16.230000 55.030000 8.670000 0 -1 0
6221 2074 3 0 16.020000 54.470000 9.120000 0 -1 0
6222 2074 3 0 16.440000 55.590000 8.220000 0 -1 0
6223 2075 4 0 18.440000 55.090000 8.660000 0 -1 0
6224 2075 3 0 18.300000 54.470000 9.080000 0 -1 0
6225 2075 3 0 18.590000 55.710000 8.250000 0 -1 0
6226 2076 1 0 20.800000 55.330000 8.660000 0 -1 0
6227 2076 3 0 20.490000 54.720000 9.110000 0 -1 0
6228 2076 2 0 21.080000 55.890000 8.240000 0 -1 0
6229 2077 1 0 40.840000 1.550000 9.440000 0 0 0
6230 2077 2 0 41.030000 2.240000 9.670000 0 0 0
6231 2077 3 0 40.640000 0.810000 9.190000 0 0 0
6232 2078 4 0 42.590000 0.150000 9.830000 0 0 0
6233 2078 3 0 42.480000 0.870000 10.110000 0 0 0
6234 2078 3 0 42.700000 56.967600 9.550000 0 -1 0
6235 2079 4 0 43.050000 56.780000 11.810000 0 -1 0
6236 2079 3 0 43.780000 56.630000 11.700000 0 -1 0
6237 2079 3 0 42.320000 56.920000 11.930000 0 -1 0
6238 2080 4 0 41.770000 55.240000 13.170000 0 -1 0
6239 2080 3 0 41.560000 54.680000 13.620000 0 -1 0
6240 2080 3 0 41.980000 55.800000 12.720000 0 -1 0
6241 2081 4 0 40.160000 53.710000 14.070000 0 -1 0
6242 2081 3 0 40.020000 53.090000 14.490000 0 -1 0
6243 2081 3 0 40.300000 54.330000 13.660000 0 -1 0
6244 2082 1 0 38.190000 52.570000 12.910000 0 -1 0
6245 2082 3 0 37.880000 51.960000 13.360000 0 -1 0
6246 2082 2 0 38.470000 53.130000 12.490000 0 -1 0
6247 2083 1 0 7.220000 24.810000 22.530000 0 0 0
6248 2083 2 0 7.410000 25.500000 22.760000 0 0 0
6249 2083 3 0 7.020000 24.070000 22.280000 0 0 0
6250 2084 4 0 6.530000 22.560000 21.720000 0 0 0
6251 2084 3 0 6.420000 23.280000 22.000000 0 0 0
6252 2084 3 0 6.640000 21.840000 21.440000 0 0 0
6253 2085 4 0 5.210000 21.120000 20.640000 0 0 0
6254 2085 3 0 5.940000 20.980000 20.530000 0 0 0
6255 2085 3 0 4.480000 21.270000 20.750000 0 0 0
6256 2086 4 0 3.860000 19.120000 20.380000 0 0 0
6257 2086 3 0 3.650000 18.570000 20.830000 0 0 0
6258 2086 3 0 4.070000 19.670000 19.930000 0 0 0
6259 2087 4 0 1.970000 17.530000 20.480000 0 0 0
6260 2087 3 0 1.830000 16.910000 20.900000 0 0 0
6261 2087 3 0 2.110000 18.150000 20.060000 0 0 0
6262 2088 1 0 1.430000 15.220000 21.010000 0 0 0
6263 2088 3 0 1.120000 14.610000 21.460000 0 0 0
6264 2088 2 0 1.710000 15.780000 20.590000 0 0 0
6265 2089 1 0 26.200000 52.910000 50.170000 0 0 0
6266 2089 2 0 26.390000 53.600000 50.400000 0 0 0
6267 2089 3 0 26.000000 52.170000 49.920000 0 0 0
6268 2090 4 0 26.780000 54.230000 52.220000 0 0 0
6269 2090 3 0 26.670000 54.950000 52.510000 0 0 0
6270 2090 3 0 26.890000 53.510000 51.940000 0 0 0
6271 2091 4 0 26.590000 54.670000 54.680000 0 0 0
6272 2091 3 0 27.320000 54.520000 54.570000 0 0 0
6273 2091 3 0 25.860000 54.810000 54.790000 0 0 0
6274 2092 4 0 25.870000 54.630000 57.070000 0 0 0
6275 2092 3 0 25.660000 54.070000 57.520000 0 0 0
6276 2092 3 0 26.080000 55.190000 56.620000 0 0 0
6277 2093 4 0 24.070000 53.520000 0.690000 0 0 1
6278 2093 3 0 23.930000 52.900000 1.110000 0 0 1
6279 2093 3 0 24.210000 54.140000 0.280000 0 0 1
6280 2094 1 0 24.140000 51.310000 1.690000 0 0 1
6281 2094 3 0 23.830000 50.700000 2.140000 0 0 1
6282 2094 2 0 24.420000 51.870000 1.270000 0 0 1
6283 2095 1 0 55.580000 9.490000 11.000000 0 0 0
6284 2095 2 0 55.770000 10.180000 11.230000 0 0 0
6285 2095 3 0 55.380000 8.750000 10.750000 0 0 0
6286 2096 4 0 54.380000 7.460000 11.530000 0 0 0
6287 2096 3 0 54.270000 8.180000 11.810000 0 0 0
6288 2096 3 0 54.490000 6.740000 11.250000 0 0 0
6289 2097 4 0 53.300000 5.990000 9.800000 0 0 0
6290 2097 3 0 54.030000 5.840000 9.690000 0 0 0
6291 2097 3 0 52.570000 6.130000 9.920000 0 0 0
6292 2098 4 0 51.490000 5.230000 8.110000 0 0 0
6293 2098 3 0 51.280000 4.680000 8.560000 0 0 0
6294 2098 3 0 51.700000 5.790000 7.660000 0 0 0
6295 2099 4 0 49.770000 6.010000 6.380000 0 0 0
6296 2099 3 0 49.630000 5.390000 6.800000 0 0 0
6297 2099 3 0 49.920000 6.630000 5.970000 0 0 0
6298 2100 1 0 48.220000 7.080000 5.230000 0 0 0
6299 2100 3 0 47.910000 6.470000 5.680000 0 0 0
6300 2100 2 0 48.500000 7.640000 4.810000 0 0 0
6301 2101 1 0 5.180000 41.820000 12.220000 0 0 0
6302 2101 2 0 5.370000 42.510000 12.450000 0 0 0
6303 2101 3 0 4.980000 41.080000 11.970000 0 0 0
6304 2102 4 0 6.510000 39.910000 11.230000 0 0 0
6305 2102 3 0 6.400000 40.630000 11.510000 0 0 0
6306 2102 3 0 6.620000 39.190000 10.950000 0 0 0
6307 2103 4 0 8.710000 38.760000 11.210000 0 0 0
6308 2103 3 0 9.440000 38.610000 11.100000 0 0 0
6309 2103 3 0 7.980000 38.900000 11.330000 0 0 0
6310 2104 4 0 10.380000 37.540000 11.270000 0 0 0
6311 2104 3 0 10.170000 36.990000 11.720000 0 0 0
6312 2104 3 0 10.590000 38.090000 10.820000 0 0 0
6313 2105 4 0 12.260000 35.940000 10.940000 0 0 0
6314 2105 3 0 12.120000 35.320000 11.360000 0 0 0
6315 2105 3 0 12.400000 36.560000 10.530000 0 0 0
6316 2106 1 0 14.220000 34.800000 10.930000 0 0 0
6317 2106 3 0 13.910000 34.190000 11.380000 0 0 0
6318 2106 2 0 14.500000 35.360000 10.510000 0 0 0
6319 2107 1 0 28.410000 38.780000 53.620000 0 0 0
6320 2107 2 0 28.600000 39.470000 53.850000 0 0 0
6321 2107 3 0 28.210000 38.040000 53.370000 0 0 0
6322 2108 4 0 28.230000 38.830000 55.880000 0 0 0
6323 2108 3 0 28.120000 39.550000 56.170000 0 0 0
6324 2108 3 0 28.340000 38.110000 55.590000 0 0 0
6325 2109 4 0 26.860000 39.950000 57.190000 0 0 0
6326 2109 3 0 27.590000 39.810000 57.080000 0 0 0
6327 2109 3 0 26.130000 40.100000 57.310000 0 0 0
6328 2110 4 0 25.690000 40.720000 1.480000 0 0 1
6329 2110 3 0 25.480000 40.160000 1.930000 0 0 1
6330 2110 3 0 25.900000 41.280000 1.030000 0 0 1
6331 2111 4 0 24.050000 41.680000 3.140000 0 0 1
6332 2111 3 0 23.900000 41.060000 3.560000 0 0 1
6333 2111 3 0 24.190000 42.300000 2.730000 0 0 1
6334 2112 1 0 22.470000 41.910000 4.770000 0 0 1
6335 2112 3 0 22.160000 41.300000 5.220000 0 0 1
6336 2112 2 0 22.750000 42.470000 4.350000 0 0 1
6337 2113 1 0 37.560000 28.160000 16.990000 0 0 0
6338 2113 2 0 37.750000 28.850000 17.220000 0 0 0
6339 2113 3 0 37.360000 27.420000 16.740000 0 0 0
6340 2114 4 0 37.760000 29.850000 15.130000 0 0 0
6341 2114 3 0 37.650000 30.570000 15.410000 0 0 0
6342 2114 3 0 37.870000 29.130000 14.840000 0 0 0
6343 2115 4 0 38.340000 30.890000 13.300000 0 0 0
6344 2115 3 0 39.070000 30.750000 13.190000 0 0 0
6345 2115 3 0 37.610000 31.030000 13.420000 0 0 0
6346 2116 4 0 39.770000 30.910000 11.480000 0 0 0
6347 2116 3 0 39.560000 30.360000 11.930000 0 0 0
6348 2116 3 0 39.980000 31.470000 11.030000 0 0 0
6349 2117 4 0 39.070000 30.440000 9.280000 0 0 0
6350 2117 3 0 38.930000 29.820000 9.700000 0 0 0
6351 2117 3 0 39.210000 31.060000 8.870000 0 0 0
6352 2118 1 0 37.690000 30.470000 7.500000 0 0 0
6353 2118 3 0 37.380000 29.860000 7.950000 0 0 0
6354 2118 2 0 37.970000 31.030000 7.080000 0 0 0
6355 2119 1 0 20.000000 3.450000 3.530000 0 0 0
6356 2119 2 0 20.190000 4.140000 3.760000 0 0 0
6357 2119 3 0 19.800000 2.710000 3.280000 0 0 0
6358 2120 4 0 20.800000 5.280000 2.440000 0 0 0
6359 2120 3 0 20.690000 6.000000 2.720000 0 0 0
6360 2120 3 0 20.910000 4.560000 2.160000 0 0 0
6361 2121 4 0 20.920000 7.470000 1.910000 0 0 0
6362 2121 3 0 21.650000 7.320000 1.800000 0 0 0
6363 2121 3 0 20.190000 7.610000 2.030000 0 0 0
6364 2122 4 0 20.870000 9.320000 0.610000 0 0 0
6365 2122 3 0 20.660000 8.770000 1.060000 0 0 0
6366 2122 3 0 21.080000 9.880000 0.160000 0 0 0
6367 2123 4 0 19.990000 10.810000 56.420000 0 0 -1
6368 2123 3 0 19.850000 10.190000 56.840000 0 0 -1
6369 2123 3 0 20.140000 11.430000 56.010000 0 0 -1
6370 2124 1 0 18.440000 12.410000 55.210000 0 0 -1
6371 2124 3 0 18.130000 11.800000 55.660000 0 0 -1
6372 2124 2 0 18.720000 12.970000 54.790000 0 0 -1
6373 2125 1 0 22.520000 42.020000 37.960000 0 0 0
6374 2125 2 0 22.710000 42.710000 38.190000 0 0 0
6375 2125 3 0 22.320000 41.280000 37.710000 0 0 0
6376 2126 4 0 23.000000 43.410000 39.530000 0 0 0
6377 2126 3 0 22.890000 44.130000 39.810000 0 0 0
6378 2126 3 0 23.110000 42.690000 39.250000 0 0 0
6379 2127 4 0 22.410000 45.220000 41.150000 0 0 0
6380 2127 3 0 23.140000 45.080000 41.040000 0 0 0
6381 2127 3 0 21.680000 45.370000 41.270000 0 0 0
6382 2128 4 0 21.610000 47.090000 42.610000 0 0 0
6383 2128 3 0 21.400000 46.530000 43.060000 0 0 0
6384 2128 3 0 21.820000 47.640000 42.160000 0 0 0
6385 2129 4 0 20.950000 48.880000 44.130000 0 0 0
6386 2129 3 0 20.810000 48.260000 44.550000 0 0 0
6387 2129 3 0 21.100000 49.500000 43.720000 0 0 0
6388 2130 1 0 20.270000 49.560000 46.110000 0 0 0
6389 2130 3 0 19.960000 48.950000 46.560000 0 0 0
6390 2130 2 0 20.550000 50.120000 45.690000 0 0 0
6391 2131 1 0 11.660000 4.550000 39.160000 0 0 0
6392 2131 2 0 11.850000 5.240000 39.390000 0 0 0
6393 2131 3 0 11.460000 3.810000 38.910000 0 0 0
6394 2132 4 0 12.810000 3.090000 40.940000 0 0 0
6395 2132 3 0 12.700000 3.810000 41.230000 0 0 0
6396 2132 3 0 12.920000 2.370000 40.660000 0 0 0
6397 2133 4 0 12.660000 2.160000 42.950000 0 0 0
6398 2133 3 0 13.390000 2.010000 42.840000 0 0 0
6399 2133 3 0 11.930000 2.300000 43.060000 0 0 0
6400 2134 4 0 12.850000 57.350000 43.790000 0 -1 0
6401 2134 3 0 12.640000 56.790000 44.240000 0 -1 0
6402 2134 3 0 13.060000 0.372400 43.340000 0 0 0
6403 2135 4 0 12.320000 55.160000 43.970000 0 -1 0
6404 2135 3 0 12.180000 54.540000 44.390000 0 -1 0
6405 2135 3 0 12.460000 55.780000 43.560000 0 -1 0
6406 2136 1 0 11.640000 52.770000 43.840000 0 -1 0
6407 2136 3 0 11.330000 52.160000 44.290000 0 -1 0
6408 2136 2 0 11.920000 53.330000 43.420000 0 -1 0
6409 2137 1 0 0.370000 25.350000 33.600000 0 0 0
6410 2137 2 0 0.560000 26.040000 33.830000 0 0 0
6411 2137 3 0 0.170000 24.610000 33.350000 0 0 0
6412 2138 4 0 56.910000 23.840000 31.800000 -1 0 0
6413 2138 3 0 56.800000 24.560000 32.080000 -1 0 0
6414 2138 3 0 57.020000 23.120000 31.520000 -1 0 0
6415 2139 4 0 57.530000 22.600000 29.690000 -1 0 0
6416 2139 3 0 0.722400 22.450000 29.580000 0 0 0
6417 2139 3 0 56.800000 22.740000 29.810000 -1 0 0
6418 2140 4 0 0.320000 21.750000 27.270000 0 0 0
6419 2140 3 0 0.110000 21.190000 27.720000 0 0 0
6420 2140 3 0 0.530000 22.300000 26.820000 0 0 0
6421 2141 4 0 56.060000 21.340000 26.040000 -1 0 0
6422 2141 3 0 55.910000 20.720000 26.460000 -1 0 0
6423 2141 3 0 56.200000 21.960000 25.620000 -1 0 0
6424 2142 1 0 54.530000 20.150000 24.460000 -1 0 0
6425 2142 3 0 54.220000 19.540000 24.910000 -1 0 0
6426 2142 2 0 54.810000 20.710000 24.040000 -1 0 0
6427 2143 1 0 34.380000 32.600000 39.180000 0 0 0
6428 2143 2 0 34.570000 33.290000 39.410000 0 0 0
6429 2143 3 0 34.180000 31.860000 38.930000 0 0 0
6430 2144 4 0 34.420000 31.390000 40.980000 0 0 0
6431 2144 3 0 34.310000 32.110000 41.270000 0 0 0
6432 2144 3 0 34.530000 30.670000 40.690000 0 0 0
6433 2145 4 0 34.240000 30.540000 43.360000 0 0 0
6434 2145 3 0 34.970000 30.390000 43.250000 0 0 0
6435 2145 3 0 33.510000 30.680000 43.480000 0 0 0
6436 2146 4 0 34.470000 30.010000 45.610000 0 0 0
6437 2146 3 0 34.260000 29.460000 46.060000 0 0 0
6438 2146 3 0 34.680000 30.560000 45.160000 0 0 0
6439 2147 4 0 35.390000 29.600000 47.810000 0 0 0
6440 2147 3 0 35.250000 28.980000 48.220000 0 0 0
6441 2147 3 0 35.540000 30.220000 47.390000 0 0 0
6442 2148 1 0 37.090000 27.880000 48.330000 0 0 0
6443 2148 3 0 36.780000 27.270000 48.780000 0 0 0
6444 2148 2 0 37.370000 28.440000 47.910000 0 0 0
6445 2149 1 0 52.760000 46.680000 4.680000 0 0 0
6446 2149 2 0 52.950000 47.370000 4.910000 0 0 0
6447 2149 3 0 52.560000 45.940000 4.430000 0 0 0
6448 2150 4 0 52.480000 44.630000 3.860000 0 0 0
6449 2150 3 0 52.370000 45.350000 4.140000 0 0 0
6450 2150 3 0 52.590000 43.910000 3.580000 0 0 0
6451 2151 4 0 54.240000 43.490000 2.580000 0 0 0
6452 2151 3 0 54.970000 43.350000 2.470000 0 0 0
6453 2151 3 0 53.510000 43.640000 2.700000 0 0 0
6454 2152 4 0 54.070000 42.320000 0.670000 0 0 0
6455 2152 3 0 53.860000 41.760000 1.120000 0 0 0
6456 2152 3 0 54.280000 42.880000 0.220000 0 0 0
6457 2153 4 0 54.060000 42.650000 55.910000 0 0 -1
6458 2153 3 0 53.910000 42.030000 56.330000 0 0 -1
6459 2153 3 0 54.200000 43.270000 55.500000 0 0 -1
6460 2154 1 0 54.480000 43.400000 53.800000 0 0 -1
6461 2154 3 0 54.170000 42.790000 54.250000 0 0 -1
6462 2154 2 0 54.760000 43.960000 53.380000 0 0 -1
6463 2155 1 0 47.590000 26.980000 0.270000 0 0 0
6464 2155 2 0 47.780000 27.670000 0.500000 0 0 0
6465 2155 3 0 47.390000 26.240000 0.020000 0 0 0
6466 2156 4 0 49.810000 27.290000 0.600000 0 0 0
6467 2156 3 0 49.700000 28.010000 0.880000 0 0 0
6468 2156 3 0 49.920000 26.570000 0.320000 0 0 0
6469 2157 4 0 52.180000 26.740000 1.640000 0 0 0
6470 2157 3 0 52.910000 26.590000 1.530000 0 0 0
6471 2157 3 0 51.450000 26.880000 1.760000 0 0 0
6472 2158 4 0 54.400000 26.350000 2.220000 0 0 0
6473 2158 3 0 54.190000 25.790000 2.670000 0 0 0
6474 2158 3 0 54.610000 26.900000 1.770000 0 0 0
6475 2159 4 0 56.510000 24.830000 2.270000 0 0 0
6476 2159 3 0 56.360000 24.210000 2.690000 0 0 0
6477 2159 3 0 56.650000 25.450000 1.860000 0 0 0
6478 2160 1 0 0.760000 23.750000 3.230000 1 0 0
6479 2160 3 0 0.450000 23.140000 3.680000 1 0 0
6480 2160 2 0 1.040000 24.310000 2.810000 1 0 0
6481 2161 1 0 41.750000 14.500000 28.850000 0 0 0
6482 2161 2 0 41.940000 15.190000 29.080000 0 0 0
6483 2161 3 0 41.550000 13.760000 28.600000 0 0 0
6484 2162 4 0 40.900000 16.540000 29.200000 0 0 0
6485 2162 3 0 40.790000 17.260000 29.490000 0 0 0
6486 2162 3 0 41.010000 15.820000 28.910000 0 0 0
6487 2163 4 0 41.360000 18.880000 29.640000 0 0 0
6488 2163 3 0 42.090000 18.730000 29.530000 0 0 0
6489 2163 3 0 40.630000 19.020000 29.760000 0 0 0
6490 2164 4 0 41.550000 21.170000 29.930000 0 0 0
6491 2164 3 0 41.340000 20.620000 30.380000 0 0 0
6492 2164 3 0 41.760000 21.720000 29.480000 0 0 0
6493 2165 4 0 42.550000 22.550000 31.840000 0 0 0
6494 2165 3 0 42.400000 21.930000 32.260000 0 0 0
6495 2165 3 0 42.690000 23.170000 31.430000 0 0 0
6496 2166 1 0 44.650000 23.520000 32.890000 0 0 0
6497 2166 3 0 44.340000 22.910000 33.340000 0 0 0
6498 2166 2 0 44.930000 24.080000 32.470000 0 0 0
6499 2167 1 0 5.420000 31.660000 6.870000 0 0 0
6500 2167 2 0 5.610000 32.350000 7.100000 0 0 0
6501 2167 3 0 5.220000 30.920000 6.620000 0 0 0
6502 2168 4 0 3.130000 31.200000 7.720000 0 0 0
6503 2168 3 0 3.020000 31.920000 8.000000 0 0 0
6504 2168 3 0 3.240000 30.480000 7.440000 0 0 0
6505 2169 4 0 1.400000 31.340000 9.220000 0 0 0
6506 2169 3 0 2.130000 31.190000 9.110000 0 0 0
6507 2169 3 0 0.670000 31.480000 9.340000 0 0 0
6508 2170 4 0 57.170000 32.210000 10.700000 -1 0 0
6509 2170 3 0 56.960000 31.660000 11.150000 -1 0 0
6510 2170 3 0 57.380000 32.760000 10.250000 -1 0 0
6511 2171 4 0 57.030000 33.160000 12.690000 -1 0 0
6512 2171 3 0 56.890000 32.540000 13.100000 -1 0 0
6513 2171 3 0 57.180000 33.780000 12.280000 -1 0 0
6514 2172 1 0 0.660000 34.120000 14.390000 0 0 0
6515 2172 3 0 0.350000 33.510000 14.840000 0 0 0
6516 2172 2 0 0.940000 34.680000 13.970000 0 0 0
6517 2173 1 0 4.820000 27.030000 25.840000 0 0 0
6518 2173 2 0 5.010000 27.720000 26.070000 0 0 0
6519 2173 3 0 4.620000 26.290000 25.590000 0 0 0
6520 2174 4 0 2.800000 28.070000 25.840000 0 0 0
6521 2174 3 0 2.690000 28.790000 26.120000 0 0 0
6522 2174 3 0 2.910000 27.350000 25.560000 0 0 0
6523 2175 4 0 0.440000 28.940000 25.750000 0 0 0
6524 2175 3 0 1.170000 28.800000 25.640000 0 0 0
6525 2175 3 0 57.247600 29.090000 25.870000 -1 0 0
6526 2176 4 0 55.780000 30.110000 25.910000 -1 0 0
6527 2176 3 0 55.570000 29.560000 26.360000 -1 0 0
6528 2176 3 0 55.990000 30.670000 25.460000 -1 0 0
6529 2177 4 0 54.120000 31.340000 27.060000 -1 0 0
6530 2177 3 0 53.970000 30.720000 27.480000 -1 0 0
6531 2177 3 0 54.260000 31.960000 26.650000 -1 0 0
6532 2178 1 0 53.250000 32.530000 29.170000 -1 0 0
6533 2178 3 0 52.940000 31.920000 29.620000 -1 0 0
6534 2178 2 0 53.530000 33.090000 28.750000 -1 0 0
6535 2179 1 0 17.070000 19.530000 3.010000 0 0 0
6536 2179 2 0 17.260000 20.220000 3.240000 0 0 0
6537 2179 3 0 16.870000 18.790000 2.760000 0 0 0
6538 2180 4 0 17.620000 21.250000 1.270000 0 0 0
6539 2180 3 0 17.510000 21.970000 1.550000 0 0 0
6540 2180 3 0 17.730000 20.530000 0.990000 0 0 0
6541 2181 4 0 18.150000 22.940000 57.260000 0 0 -1
6542 2181 3 0 18.880000 22.800000 57.150000 0 0 -1
6543 2181 3 0 17.420000 23.080000 57.370000 0 0 -1
6544 2182 4 0 18.420000 24.490000 55.300000 0 0 -1
6545 2182 3 0 18.210000 23.930000 55.750000 0 0 -1
6546 2182 3 0 18.630000 25.040000 54.850000 0 0 -1
6547 2183 4 0 19.040000 25.870000 53.350000 0 0 -1
6548 2183 3 0 18.890000 25.250000 53.770000 0 0 -1
6549 2183 3 0 19.180000 26.490000 52.930000 0 0 -1
6550 2184 1 0 21.340000 26.330000 53.190000 0 0 -1
6551 2184 3 0 21.030000 25.720000 53.640000 0 0 -1
6552 2184 2 0 21.620000 26.890000 52.770000 0 0 -1
6553 2185 1 0 18.320000 11.330000 18.110000 0 0 0
6554 2185 2 0 18.510000 12.020000 18.340000 0 0 0
6555 2185 3 0 18.120000 10.590000 17.860000 0 0 0
6556 2186 4 0 16.710000 10.890000 19.530000 0 0 0
6557 2186 3 0 16.600000 11.610000 19.820000 0 0 0
6558 2186 3 0 16.820000 10.170000 19.250000 0 0 0
6559 2187 4 0 15.160000 10.540000 21.020000 0 0 0
6560 2187 3 0 15.890000 10.390000 20.910000 0 0 0
6561 2187 3 0 14.430000 10.690000 21.140000 0 0 0
6562 2188 4 0 13.370000 10.820000 22.310000 0 0 0
6563 2188 3 0 13.160000 10.260000 22.760000 0 0 0
6564 2188 3 0 13.580000 11.380000 21.860000 0 0 0
6565 2189 4 0 11.150000 10.890000 23.520000 0 0 0
6566 2189 3 0 11.010000 10.270000 23.930000 0 0 0
6567 2189 3 0 11.290000 11.510000 23.110000 0 0 0
6568 2190 1 0 9.350000 11.060000 25.040000 0 0 0
6569 2190 3 0 9.040000 10.450000 25.490000 0 0 0
6570 2190 2 0 9.630000 11.620000 24.620000 0 0 0
6571 2191 1 0 22.530000 10.790000 26.220000 0 0 0
6572 2191 2 0 22.720000 11.480000 26.450000 0 0 0
6573 2191 3 0 22.330000 10.050000 25.970000 0 0 0
6574 2192 4 0 24.260000 9.360000 27.640000 0 0 0
6575 2192 3 0 24.150000 10.080000 27.920000 0 0 0
6576 2192 3 0 24.370000 8.640000 27.360000 0 0 0
6577 2193 4 0 26.750000 9.660000 28.070000 0 0 0
6578 2193 3 0 27.480000 9.510000 27.960000 0 0 0
6579 2193 3 0 26.020000 9.800000 28.190000 0 0 0
6580 2194 4 0 29.010000 9.620000 28.120000 0 0 0
6581 2194 3 0 28.800000 9.060000 28.570000 0 0 0
6582 2194 3 0 29.220000 10.180000 27.670000 0 0 0
6583 2195 4 0 31.220000 9.060000 28.260000 0 0 0
6584 2195 3 0 31.070000 8.440000 28.680000 0 0 0
6585 2195 3 0 31.360000 9.680000 27.850000 0 0 0
6586 2196 1 0 33.290000 8.440000 28.710000 0 0 0
6587 2196 3 0 32.980000 7.830000 29.160000 0 0 0
6588 2196 2 0 33.570000 9.000000 28.290000 0 0 0
6589 2197 1 0 49.120000 4.710000 26.530000 0 0 0
6590 2197 2 0 49.310000 5.400000 26.760000 0 0 0
6591 2197 3 0 48.920000 3.970000 26.280000 0 0 0
6592 2198 4 0 47.710000 5.640000 28.300000 0 0 0
6593 2198 3 0 47.600000 6.360000 28.590000 0 0 0
6594 2198 3 0 47.820000 4.920000 28.010000 0 0 0
6595 2199 4 0 46.840000 6.420000 30.530000 0 0 0
6596 2199 3 0 47.570000 6.270000 30.420000 0 0 0
6597 2199 3 0 46.110000 6.560000 30.640000 0 0 0
6598 2200 4 0 47.230000 6.630000 32.960000 0 0 0
6599 2200 3 0 47.020000 6.080000 33.410000 0 0 0
6600 2200 3 0 47.440000 7.190000 32.510000 0 0 0
6601 2201 4 0 46.930000 6.640000 35.140000 0 0 0
6602 2201 3 0 46.780000 6.020000 35.550000 0 0 0
6603 2201 3 0 47.070000 7.260000 34.730000 0 0 0
6604 2202 1 0 46.730000 6.530000 37.750000 0 0 0
6605 2202 3 0 46.420000 5.920000 38.200000 0 0 0
6606 2202 2 0 47.010000 7.090000 37.330000 0 0 0
6607 2203 1 0 21.400000 25.030000 38.580000 0 0 0
6608 2203 2 0 21.590000 25.720000 38.810000 0 0 0
6609 2203 3 0 21.200000 24.290000 38.330000 0 0 0
6610 2204 4 0 19.960000 24.230000 40.140000 0 0 0
6611 2204 3 0 19.850000 24.950000 40.430000 0 0 0
6612 2204 3 0 20.070000 23.510000 39.860000 0 0 0
6613 2205 4 0 18.770000 24.170000 41.870000 0 0 0
6614 2205 3 0 19.500000 24.020000 41.760000 0 0 0
6615 2205 3 0 18.040000 24.310000 41.990000 0 0 0
6616 2206 4 0 17.300000 24.010000 43.580000 0 0 0
6617 2206 3 0 17.090000 23.450000 44.030000 0 0 0
6618 2206 3 0 17.510000 24.560000 43.130000 0 0 0
6619 2207 4 0 15.560000 23.480000 45.440000 0 0 0
6620 2207 3 0 15.420000 22.860000 45.850000 0 0 0
6621 2207 3 0 15.710000 24.100000 45.020000 0 0 0
6622 2208 1 0 14.870000 22.550000 47.730000 0 0 0
6623 2208 3 0 14.560000 21.940000 48.180000 0 0 0
6624 2208 2 0 15.150000 23.110000 47.310000 0 0 0
6625 2209 1 0 1.540000 19.480000 41.920000 0 0 0
6626 2209 2 0 1.730000 20.170000 42.150000 0 0 0
6627 2209 3 0 1.340000 18.740000 41.670000 0 0 0
6628 2210 4 0 2.500000 21.430000 41.420000 0 0 0
6629 2210 3 0 2.390000 22.150000 41.710000 0 0 0
6630 2210 3 0 2.610000 20.710000 41.140000 0 0 0
6631 2211 4 0 3.220000 23.510000 40.860000 0 0 0
6632 2211 3 0 3.950000 23.370000 40.750000 0 0 0
6633 2211 3 0 2.490000 23.650000 40.980000 0 0 0
6634 2212 4 0 3.570000 25.490000 39.380000 0 0 0
6635 2212 3 0 3.360000 24.940000 39.830000 0 0 0
6636 2212 3 0 3.780000 26.040000 38.930000 0 0 0
6637 2213 4 0 3.780000 26.680000 37.170000 0 0 0
6638 2213 3 0 3.640000 26.060000 37.590000 0 0 0
6639 2213 3 0 3.920000 27.300000 36.760000 0 0 0
6640 2214 1 0 2.640000 27.940000 35.260000 0 0 0
6641 2214 3 0 2.330000 27.330000 35.710000 0 0 0
6642 2214 2 0 2.920000 28.500000 34.840000 0 0 0
6643 2215 1 0 50.770000 28.680000 42.820000 0 0 0
6644 2215 2 0 50.960000 29.370000 43.050000 0 0 0
6645 2215 3 0 50.570000 27.940000 42.570000 0 0 0
6646 2216 4 0 51.940000 28.570000 45.130000 0 0 0
6647 2216 3 0 51.830000 29.290000 45.420000 0 0 0
6648 2216 3 0 52.050000 27.850000 44.840000 0 0 0
6649 2217 4 0 51.260000 29.470000 47.040000 0 0 0
6650 2217 3 0 51.990000 29.330000 46.920000 0 0 0
6651 2217 3 0 50.530000 29.620000 47.150000 0 0 0
6652 2218 4 0 50.730000 30.490000 49.010000 0 0 0
6653 2218 3 0 50.520000 29.940000 49.460000 0 0 0
6654 2218 3 0 50.940000 31.040000 48.560000 0 0 0
6655 2219 4 0 51.000000 31.210000 51.460000 0 0 0
6656 2219 3 0 50.850000 30.590000 51.880000 0 0 0
6657 2219 3 0 51.140000 31.830000 51.040000 0 0 0
6658 2220 1 0 53.070000 32.450000 51.660000 0 0 0
6659 2220 3 0 52.760000 31.840000 52.110000 0 0 0
6660 2220 2 0 53.350000 33.010000 51.240000 0 0 0
6661 2221 1 0 19.880000 18.360000 55.010000 0 0 0
6662 2221 2 0 20.070000 19.050000 55.240000 0 0 0
6663 2221 3 0 19.680000 17.620000 54.760000 0 0 0
6664 2222 4 0 18.010000 17.020000 56.090000 0 0 0
6665 2222 3 0 17.900000 17.740000 56.380000 0 0 0
6666 2222 3 0 18.120000 16.300000 55.800000 0 0 0
6667 2223 4 0 16.870000 16.180000 0.620000 0 0 1
6668 2223 3 0 17.600000 16.030000 0.510000 0 0 1
6669 2223 3 0 16.140000 16.330000 0.740000 0 0 1
6670 2224 4 0 15.130000 15.070000 2.280000 0 0 1
6671 2224 3 0 14.920000 14.510000 2.730000 0 0 1
6672 2224 3 0 15.340000 15.620000 1.830000 0 0 1
6673 2225 4 0 14.480000 12.700000 1.900000 0 0 1
6674 2225 3 0 14.330000 12.080000 2.320000 0 0 1
6675 2225 3 0 14.620000 13.320000 1.490000 0 0 1
6676 2226 1 0 13.250000 10.920000 2.010000 0 0 1
6677 2226 3 0 12.940000 10.310000 2.460000 0 0 1
6678 2226 2 0 13.530000 11.480000 1.590000 0 0 1
6679 2227 1 0 14.020000 55.740000 24.030000 0 0 0
6680 2227 2 0 14.210000 56.430000 24.260000 0 0 0
6681 2227 3 0 13.820000 55.000000 23.780000 0 0 0
6682 2228 4 0 14.320000 53.940000 25.330000 0 0 0
6683 2228 3 0 14.210000 54.660000 25.610000 0 0 0
6684 2228 3 0 14.430000 53.220000 25.050000 0 0 0
6685 2229 4 0 14.740000 51.790000 26.420000 0 0 0
6686 2229 3 0 15.470000 51.650000 26.310000 0 0 0
6687 2229 3 0 14.010000 51.940000 26.540000 0 0 0
6688 2230 4 0 13.350000 50.020000 27.040000 0 0 0
6689 2230 3 0 13.140000 49.460000 27.490000 0 0 0
6690 2230 3 0 13.560000 50.580000 26.590000 0 0 0
6691 2231 4 0 12.030000 48.240000 27.060000 0 0 0
6692 2231 3 0 11.890000 47.620000 27.480000 0 0 0
6693 2231 3 0 12.180000 48.860000 26.650000 0 0 0
6694 2232 1 0 11.210000 46.280000 27.770000 0 0 0
6695 2232 3 0 10.900000 45.670000 28.220000 0 0 0
6696 2232 2 0 11.490000 46.840000 27.350000 0 0 0
6697 2233 1 0 20.380000 24.740000 31.910000 0 0 0
6698 2233 2 0 20.570000 25.430000 32.140000 0 0 0
6699 2233 3 0 20.180000 24.000000 31.660000 0 0 0
6700 2234 4 0 19.770000 24.680000 29.610000 0 0 0
6701 2234 3 0 19.660000 25.400000 29.890000 0 0 0
6702 2234 3 0 19.880000 23.960000 29.330000 0 0 0
6703 2235 4 0 19.580000 23.850000 27.280000 0 0 0
6704 2235 3 0 20.310000 23.700000 27.170000 0 0 0
6705 2235 3 0 18.850000 23.990000 27.400000 0 0 0
6706 2236 4 0 19.920000 23.070000 25.210000 0 0 0
6707 2236 3 0 19.710000 22.520000 25.660000 0 0 0
6708 2236 3 0 20.130000 23.620000 24.760000 0 0 0
6709 2237 4 0 20.390000 21.720000 23.470000 0 0 0
6710 2237 3 0 20.250000 21.100000 23.890000 0 0 0
6711 2237 3 0 20.540000 22.340000 23.060000 0 0 0
6712 2238 1 0 22.760000 20.950000 23.180000 0 0 0
6713 2238 3 0 22.450000 20.340000 23.630000 0 0 0
6714 2238 2 0 23.040000 21.510000 22.760000 0 0 0
6715 2239 1 0 0.320000 42.340000 20.140000 0 0 0
6716 2239 2 0 0.510000 43.030000 20.370000 0 0 0
6717 2239 3 0 0.120000 41.600000 19.890000 0 0 0
6718 2240 4 0 0.600000 40.180000 19.270000 0 0 0
6719 2240 3 0 0.490000 40.900000 19.560000 0 0 0
6720 2240 3 0 0.710000 39.460000 18.990000 0 0 0
6721 2241 4 0 0.370000 38.190000 17.720000 0 0 0
6722 2241 3 0 1.100000 38.040000 17.610000 0 0 0
6723 2241 3 0 57.177600 38.330000 17.840000 -1 0 0
6724 2242 4 0 56.790000 38.160000 15.340000 -1 0 0
6725 2242 3 0 56.580000 37.600000 15.790000 -1 0 0
6726 2242 3 0 57.000000 38.710000 14.890000 -1 0 0
6727 2243 4 0 54.990000 38.020000 13.740000 -1 0 0
6728 2243 3 0 54.840000 37.400000 14.160000 -1 0 0
6729 2243 3 0 55.130000 38.640000 13.330000 -1 0 0
6730 2244 1 0 53.140000 36.870000 12.650000 -1 0 0
6731 2244 3 0 52.830000 36.260000 13.100000 -1 0 0
6732 2244 2 0 53.420000 37.430000 12.230000 -1 0 0
6733 2245 1 0 35.140000 33.340000 9.420000 0 0 0
6734 2245 2 0 35.330000 34.030000 9.650000 0 0 0
6735 2245 3 0 34.940000 32.600000 9.170000 0 0 0
6736 2246 4 0 37.350000 34.580000 9.810000 0 0 0
6737 2246 3 0 37.240000 35.300000 10.100000 0 0 0
6738 2246 3 0 37.460000 33.860000 9.530000 0 0 0
6739 2247 4 0 39.480000 35.400000 10.100000 0 0 0
6740 2247 3 0 40.210000 35.260000 9.990000 0 0 0
6741 2247 3 0 38.750000 35.540000 10.220000 0 0 0
6742 2248 4 0 40.970000 35.150000 8.360000 0 0 0
6743 2248 3 0 40.760000 34.600000 8.810000 0 0 0
6744 2248 3 0 41.180000 35.710000 7.910000 0 0 0
6745 2249 4 0 43.200000 35.250000 7.630000 0 0 0
6746 2249 3 0 43.060000 34.630000 8.050000 0 0 0
6747 2249 3 0 43.350000 35.870000 7.220000 0 0 0
6748 2250 1 0 45.550000 35.300000 7.090000 0 0 0
6749 2250 3 0 45.240000 34.690000 7.540000 0 0 0
6750 2250 2 0 45.830000 35.860000 6.670000 0 0 0
6751 2251 1 0 27.710000 2.520000 47.050000 0 0 0
6752 2251 2 0 27.900000 3.210000 47.280000 0 0 0
6753 2251 3 0 27.510000 1.780000 46.800000 0 0 0
6754 2252 4 0 29.080000 4.280000 47.580000 0 0 0
6755 2252 3 0 28.970000 5.000000 47.870000 0 0 0
6756 2252 3 0 29.190000 3.560000 47.290000 0 0 0
6757 2253 4 0 30.450000 5.720000 49.100000 0 0 0
6758 2253 3 0 31.180000 5.570000 48.990000 0 0 0
6759 2253 3 0 29.720000 5.860000 49.210000 0 0 0
6760 2254 4 0 31.700000 6.830000 50.600000 0 0 0
6761 2254 3 0 31.490000 6.280000 51.050000 0 0 0
6762 2254 3 0 31.910000 7.390000 50.150000 0 0 0
6763 2255 4 0 33.950000 6.940000 50.670000 0 0 0
6764 2255 3 0 33.810000 6.320000 51.090000 0 0 0
6765 2255 3 0 34.090000 7.560000 50.260000 0 0 0
6766 2256 1 0 36.070000 6.420000 51.830000 0 0 0
6767 2256 3 0 35.760000 5.810000 52.280000 0 0 0
6768 2256 2 0 36.350000 6.980000 51.410000 0 0 0
6769 2257 1 0 20.440000 22.180000 14.440000 0 0 0
6770 2257 2 0 20.630000 22.870000 14.670000 0 0 0
6771 2257 3 0 20.240000 21.440000 14.190000 0 0 0
6772 2258 4 0 19.660000 22.110000 12.060000 0 0 0
6773 2258 3 0 19.550000 22.830000 12.340000 0 0 0
6774 2258 3 0 19.770000 21.390000 11.770000 0 0 0
6775 2259 4 0 18.730000 23.990000 11.020000 0 0 0
6776 2259 3 0 19.460000 23.850000 10.910000 0 0 0
6777 2259 3 0 18.000000 24.130000 11.140000 0 0 0
6778 2260 4 0 19.200000 26.160000 11.110000 0 0 0
6779 2260 3 0 18.990000 25.610000 11.560000 0 0 0
6780 2260 3 0 19.410000 26.710000 10.660000 0 0 0
6781 2261 4 0 19.370000 28.440000 10.900000 0 0 0
6782 2261 3 0 19.230000 27.820000 11.320000 0 0 0
6783 2261 3 0 19.520000 29.060000 10.490000 0 0 0
6784 2262 1 0 20.030000 30.600000 11.120000 0 0 0
6785 2262 3 0 19.720000 29.990000 11.570000 0 0 0
6786 2262 2 0 20.310000 31.160000 10.700000 0 0 0
6787 2263 1 0 38.260000 6.530000 28.500000 0 0 0
6788 2263 2 0 38.450000 7.220000 28.730000 0 0 0
6789 2263 3 0 38.060000 5.790000 28.250000 0 0 0
6790 2264 4 0 38.620000 7.210000 30.790000 0 0 0
6791 2264 3 0 38.510000 7.930000 31.070000 0 0 0
6792 2264 3 0 38.730000 6.490000 30.510000 0 0 0
6793 2265 4 0 36.890000 7.090000 32.510000 0 0 0
6794 2265 3 0 37.620000 6.940000 32.400000 0 0 0
6795 2265 3 0 36.160000 7.230000 32.630000 0 0 0
6796 2266 4 0 35.890000 6.240000 34.640000 0 0 0
6797 2266 3 0 35.680000 5.690000 35.090000 0 0 0
6798 2266 3 0 36.100000 6.790000 34.190000 0 0 0
6799 2267 4 0 35.970000 6.430000 37.180000 0 0 0
6800 2267 3 0 35.830000 5.810000 37.600000 0 0 0
6801 2267 3 0 36.110000 7.050000 36.760000 0 0 0
6802 2268 1 0 36.010000 7.340000 39.200000 0 0 0
6803 2268 3 0 35.700000 6.730000 39.650000 0 0 0
6804 2268 2 0 36.290000 7.900000 38.780000 0 0 0
6805 2269 1 0 4.230000 11.920000 8.960000 0 0 0
6806 2269 2 0 4.420000 12.610000 9.190000 0 0 0
6807 2269 3 0 4.030000 11.180000 8.710000 0 0 0
6808 2270 4 0 3.770000 11.430000 11.360000 0 0 0
6809 2270 3 0 3.660000 12.150000 11.640000 0 0 0
6810 2270 3 0 3.880000 10.710000 11.070000 0 0 0
6811 2271 4 0 3.350000 10.700000 13.470000 0 0 0
6812 2271 3 0 4.080000 10.550000 13.360000 0 0 0
6813 2271 3 0 2.620000 10.850000 13.590000 0 0 0
6814 2272 4 0 3.280000 10.670000 15.780000 0 0 0
6815 2272 3 0 3.070000 10.110000 16.230000 0 0 0
6816 2272 3 0 3.490000 11.230000 15.330000 0 0 0
6817 2273 4 0 3.780000 12.640000 16.850000 0 0 0
6818 2273 3 0 3.640000 12.020000 17.270000 0 0 0
6819 2273 3 0 3.920000 13.260000 16.440000 0 0 0
6820 2274 1 0 4.640000 14.610000 17.840000 0 0 0
6821 2274 3 0 4.330000 14.000000 18.290000 0 0 0
6822 2274 2 0 4.920000 15.170000 17.420000 0 0 0
6823 2275 1 0 40.820000 34.730000 50.390000 0 0 0
6824 2275 2 0 41.010000 35.420000 50.620000 0 0 0
6825 2275 3 0 40.620000 33.990000 50.140000 0 0 0
6826 2276 4 0 42.990000 35.130000 50.850000 0 0 0
6827 2276 3 0 42.880000 35.850000 51.140000 0 0 0
6828 2276 3 0 43.100000 34.410000 50.560000 0 0 0
6829 2277 4 0 44.000000 34.840000 53.190000 0 0 0
6830 2277 3 0 44.730000 34.700000 53.080000 0 0 0
6831 2277 3 0 43.270000 34.980000 53.300000 0 0 0
6832 2278 4 0 43.420000 33.950000 55.300000 0 0 0
6833 2278 3 0 43.210000 33.400000 55.750000 0 0 0
6834 2278 3 0 43.630000 34.500000 54.850000 0 0 0
6835 2279 4 0 41.740000 33.610000 56.800000 0 0 0
6836 2279 3 0 41.600000 32.990000 57.210000 0 0 0
6837 2279 3 0 41.890000 34.230000 56.380000 0 0 0
6838 2280 1 0 39.750000 33.080000 55.990000 0 0 0
6839 2280 3 0 39.440000 32.470000 56.440000 0 0 0
6840 2280 2 0 40.030000 33.640000 55.570000 0 0 0
6841 2281 1 0 28.090000 6.270000 53.340000 0 0 0
6842 2281 2 0 28.280000 6.960000 53.570000 0 0 0
6843 2281 3 0 27.890000 5.530000 53.090000 0 0 0
6844 2282 4 0 26.720000 6.830000 51.450000 0 0 0
6845 2282 3 0 26.610000 7.550000 51.730000 0 0 0
6846 2282 3 0 26.830000 6.110000 51.160000 0 0 0
6847 2283 4 0 25.170000 8.140000 50.140000 0 0 0
6848 2283 3 0 25.900000 7.990000 50.030000 0 0 0
6849 2283 3 0 24.440000 8.280000 50.260000 0 0 0
6850 2284 4 0 23.000000 9.270000 49.470000 0 0 0
6851 2284 3 0 22.790000 8.720000 49.920000 0 0 0
6852 2284 3 0 23.210000 9.830000 49.020000 0 0 0
6853 2285 4 0 22.510000 10.710000 51.100000 0 0 0
6854 2285 3 0 22.360000 10.090000 51.520000 0 0 0
6855 2285 3 0 22.650000 11.330000 50.690000 0 0 0
6856 2286 1 0 21.800000 12.460000 52.740000 0 0 0
6857 2286 3 0 21.490000 11.850000 53.190000 0 0 0
6858 2286 2 0 22.080000 13.020000 52.320000 0 0 0
6859 2287 1 0 13.930000 45.180000 8.190000 0 0 0
6860 2287 2 0 14.120000 45.870000 8.420000 0 0 0
6861 2287 3 0 13.730000 44.440000 7.940000 0 0 0
6862 2288 4 0 12.210000 44.160000 9.500000 0 0 0
6863 2288 3 0 12.100000 44.880000 9.780000 0 0 0
6864 2288 3 0 12.320000 43.440000 9.210000 0 0 0
6865 2289 4 0 10.920000 45.180000 11.210000 0 0 0
6866 2289 3 0 11.650000 45.030000 11.100000 0 0 0
6867 2289 3 0 10.190000 45.320000 11.330000 0 0 0
6868 2290 4 0 11.270000 47.220000 12.560000 0 0 0
6869 2290 3 0 11.060000 46.670000 13.010000 0 0 0
6870 2290 3 0 11.480000 47.780000 12.110000 0 0 0
6871 2291 4 0 13.610000 47.830000 13.280000 0 0 0
6872 2291 3 0 13.470000 47.210000 13.700000 0 0 0
6873 2291 3 0 13.750000 48.450000 12.870000 0 0 0
6874 2292 1 0 15.640000 48.520000 14.680000 0 0 0
6875 2292 3 0 15.330000 47.910000 15.130000 0 0 0
6876 2292 2 0 15.920000 49.080000 14.260000 0 0 0
6877 2293 1 0 10.830000 34.270000 2.520000 0 0 0
6878 2293 2 0 11.020000 34.960000 2.750000 0 0 0
6879 2293 3 0 10.630000 33.530000 2.270000 0 0 0
6880 2294 4 0 10.520000 32.320000 1.570000 0 0 0
6881 2294 3 0 10.410000 33.040000 1.850000 0 0 0
6882 2294 3 0 10.630000 31.600000 1.290000 0 0 0
6883 2295 4 0 9.780000 30.250000 2.680000 0 0 0
6884 2295 3 0 10.510000 30.100000 2.570000 0 0 0
6885 2295 3 0 9.050000 30.390000 2.800000 0 0 0
6886 2296 4 0 9.050000 27.890000 2.380000 0 0 0
6887 2296 3 0 8.840000 27.340000 2.830000 0 0 0
6888 2296 3 0 9.260000 28.450000 1.930000 0 0 0
6889 2297 4 0 9.430000 25.530000 2.410000 0 0 0
6890 2297 3 0 9.280000 24.910000 2.830000 0 0 0
6891 2297 3 0 9.570000 26.150000 2.000000 0 0 0
6892 2298 1 0 10.040000 23.340000 2.760000 0 0 0
6893 2298 3 0 9.730000 22.730000 3.210000 0 0 0
6894 2298 2 0 10.320000 23.900000 2.340000 0 0 0
6895 2299 1 0 27.830000 49.210000 2.090000 0 0 0
6896 2299 2 0 28.020000 49.900000 2.320000 0 0 0
6897 2299 3 0 27.630000 48.470000 1.840000 0 0 0
6898 2300 4 0 29.080000 51.430000 2.370000 0 0 0
6899 2300 3 0 28.970000 52.150000 2.650000 0 0 0
6900 2300 3 0 29.190000 50.710000 2.090000 0 0 0
6901 2301 4 0 30.690000 53.090000 3.390000 0 0 0
6902 2301 3 0 31.420000 52.950000 3.280000 0 0 0
6903 2301 3 0 29.960000 53.240000 3.510000 0 0 0
6904 2302 4 0 32.330000 54.420000 4.610000 0 0 0
6905 2302 3 0 32.120000 53.860000 5.060000 0 0 0
6906 2302 3 0 32.540000 54.980000 4.160000 0 0 0
6907 2303 4 0 33.830000 56.010000 3.350000 0 0 0
6908 2303 3 0 33.690000 55.390000 3.770000 0 0 0
6909 2303 3 0 33.970000 56.630000 2.940000 0 0 0
6910 2304 1 0 35.240000 57.500000 1.830000 0 0 0
6911 2304 3 0 34.930000 56.890000 2.280000 0 0 0
6912 2304 2 0 35.520000 0.522400 1.410000 0 1 0
6913 2305 1 0 51.180000 29.830000 23.970000 0 0 0
6914 2305 2 0 51.370000 30.520000 24.200000 0 0 0
6915 2305 3 0 50.980000 29.090000 23.720000 0 0 0
6916 2306 4 0 50.240000 28.400000 25.890000 0 0 0
6917 2306 3 0 50.130000 29.120000 26.170000 0 0 0
6918 2306 3 0 50.350000 27.680000 25.610000 0 0 0
6919 2307 4 0 49.120000 27.280000 27.730000 0 0 0
6920 2307 3 0 49.850000 27.140000 27.620000 0 0 0
6921 2307 3 0 48.390000 27.430000 27.850000 0 0 0
6922 2308 4 0 48.080000 25.870000 29.310000 0 0 0
6923 2308 3 0 47.870000 25.320000 29.760000 0 0 0
6924 2308 3 0 48.290000 26.430000 28.860000 0 0 0
6925 2309 4 0 46.950000 24.030000 28.720000 0 0 0
6926 2309 3 0 46.810000 23.410000 29.130000 0 0 0
6927 2309 3 0 47.100000 24.650000 28.300000 0 0 0
6928 2310 1 0 46.390000 21.650000 29.230000 0 0 0
6929 2310 3 0 46.080000 21.040000 29.680000 0 0 0
6930 2310 2 0 46.670000 22.210000 28.810000 0 0 0
6931 2311 1 0 35.510000 39.270000 29.610000 0 0 0
6932 2311 2 0 35.700000 39.960000 29.840000 0 0 0
6933 2311 3 0 35.310000 38.530000 29.360000 0 0 0
6934 2312 4 0 36.300000 39.140000 27.040000 0 0 0
6935 2312 3 0 36.190000 39.860000 27.320000 0 0 0
6936 2312 3 0 36.410000 38.420000 26.760000 0 0 0
6937 2313 4 0 37.110000 39.530000 24.820000 0 0 0
6938 2313 3 0 37.840000 39.380000 24.710000 0 0 0
6939 2313 3 0 36.380000 39.670000 24.940000 0 0 0
6940 2314 4 0 37.900000 39.160000 22.460000 0 0 0
6941 2314 3 0 37.690000 38.610000 22.910000 0 0 0
6942 2314 3 0 38.110000 39.710000 22.010000 0 0 0
6943 2315 4 0 37.370000 38.530000 20.140000 0 0 0
6944 2315 3 0 37.230000 37.910000 20.550000 0 0 0
6945 2315 3 0 37.520000 39.150000 19.720000 0 0 0
6946 2316 1 0 37.020000 40.110000 18.190000 0 0 0
6947 2316 3 0 36.710000 39.500000 18.640000 0 0 0
6948 2316 2 0 37.300000 40.670000 17.770000 0 0 0
6949 2317 1 0 24.610000 43.520000 20.990000 0 0 0
6950 2317 2 0 24.800000 44.210000 21.220000 0 0 0
6951 2317 3 0 24.410000 42.780000 20.740000 0 0 0
6952 2318 4 0 27.120000 43.200000 21.230000 0 0 0
6953 2318 3 0 27.010000 43.920000 21.520000 0 0 0
6954 2318 3 0 27.230000 42.480000 20.950000 0 0 0
6955 2319 4 0 29.670000 43.340000 21.080000 0 0 0
6956 2319 3 0 30.400000 43.190000 20.970000 0 0 0
6957 2319 3 0 28.940000 43.480000 21.200000 0 0 0
6958 2320 4 0 30.760000 45.260000 22.260000 0 0 0
6959 2320 3 0 30.550000 44.700000 22.710000 0 0 0
6960 2320 3 0 30.970000 45.820000 21.810000 0 0 0
6961 2321 4 0 32.850000 46.240000 23.110000 0 0 0
6962 2321 3 0 32.710000 45.620000 23.530000 0 0 0
6963 2321 3 0 33.000000 46.860000 22.690000 0 0 0
6964 2322 1 0 35.020000 46.760000 24.280000 0 0 0
6965 2322 3 0 34.710000 46.150000 24.730000 0 0 0
6966 2322 2 0 35.300000 47.320000 23.860000 0 0 0
6967 2323 1 0 42.690000 12.560000 47.460000 0 0 0
6968 2323 2 0 42.880000 13.250000 47.690000 0 0 0
6969 2323 3 0 42.490000 11.820000 47.210000 0 0 0
6970 2324 4 0 42.100000 14.360000 49.140000 0 0 0
6971 2324 3 0 41.990000 15.080000 49.420000 0 0 0
6972 2324 3 0 42.210000 13.640000 48.850000 0 0 0
6973 2325 4 0 40.850000 15.440000 51.010000 0 0 0
6974 2325 3 0 41.580000 15.300000 50.900000 0 0 0
6975 2325 3 0 40.120000 15.580000 51.120000 0 0 0
6976 2326 4 0 39.420000 16.440000 52.340000 0 0 0
6977 2326 3 0 39.210000 15.880000 52.790000 0 0 0
6978 2326 3 0 39.630000 17.000000 51.890000 0 0 0
6979 2327 4 0 37.760000 17.780000 53.770000 0 0 0
6980 2327 3 0 37.610000 17.160000 54.180000 0 0 0
6981 2327 3 0 37.900000 18.400000 53.350000 0 0 0
6982 2328 1 0 36.030000 18.640000 55.470000 0 0 0
6983 2328 3 0 35.720000 18.030000 55.920000 0 0 0
6984 2328 2 0 36.310000 19.200000 55.050000 0 0 0
6985 2329 1 0 4.420000 2.420000 13.520000 0 0 0
6986 2329 2 0 4.610000 3.110000 13.750000 0 0 0
6987 2329 3 0 4.220000 1.680000 13.270000 0 0 0
6988 2330 4 0 3.520000 1.740000 15.480000 0 0 0
6989 2330 3 0 3.410000 2.460000 15.770000 0 0 0
6990 2330 3 0 3.630000 1.020000 15.200000 0 0 0
6991 2331 4 0 1.250000 1.130000 16.640000 0 0 0
6992 2331 3 0 1.980000 0.980000 16.530000 0 0 0
6993 2331 3 0 0.520000 1.270000 16.750000 0 0 0
6994 2332 4 0 56.620000 2.480000 16.760000 -1 0 0
6995 2332 3 0 56.410000 1.930000 17.210000 -1 0 0
6996 2332 3 0 56.830000 3.030000 16.310000 -1 0 0
6997 2333 4 0 54.550000 3.960000 17.050000 -1 0 0
6998 2333 3 0 54.410000 3.340000 17.470000 -1 0 0
6999 2333 3 0 54.700000 4.580000 16.640000 -1 0 0
7000 2334 1 0 54.160000 5.220000 19.020000 -1 0 0
7001 2334 3 0 53.850000 4.610000 19.470000 -1 0 0
7002 2334 2 0 54.440000 5.780000 18.600000 -1 0 0
7003 2335 1 0 31.400000 40.090000 36.100000 0 0 0
7004 2335 2 0 31.590000 40.780000 36.330000 0 0 0
7005 2335 3 0 31.200000 39.350000 35.850000 0 0 0
7006 2336 4 0 30.640000 38.200000 37.740000 0 0 0
7007 2336 3 0 30.530000 38.920000 38.030000 0 0 0
7008 2336 3 0 30.750000 37.480000 37.450000 0 0 0
7009 2337 4 0 30.490000 36.130000 38.540000 0 0 0
7010 2337 3 0 31.220000 35.990000 38.430000 0 0 0
7011 2337 3 0 29.760000 36.270000 38.650000 0 0 0
7012 2338 4 0 30.210000 33.950000 39.460000 0 0 0
7013 2338 3 0 30.000000 33.400000 39.910000 0 0 0
7014 2338 3 0 30.420000 34.500000 39.010000 0 0 0
7015 2339 4 0 29.360000 32.070000 40.690000 0 0 0
7016 2339 3 0 29.210000 31.450000 41.110000 0 0 0
7017 2339 3 0 29.500000 32.690000 40.270000 0 0 0
7018 2340 1 0 27.720000 30.160000 40.970000 0 0 0
7019 2340 3 0 27.410000 29.550000 41.420000 0 0 0
7020 2340 2 0 28.000000 30.720000 40.550000 0 0 0
7021 2341 1 0 31.190000 3.810000 7.500000 0 0 0
7022 2341 2 0 31.380000 4.500000 7.730000 0 0 0
7023 2341 3 0 30.990000 3.070000 7.250000 0 0 0
7024 2342 4 0 30.260000 6.030000 7.990000 0 0 0
7025 2342 3 0 30.150000 6.750000 8.280000 0 0 0
7026 2342 3 0 30.370000 5.310000 7.710000 0 0 0
7027 2343 4 0 30.260000 7.920000 9.200000 0 0 0
7028 2343 3 0 30.990000 7.770000 9.090000 0 0 0
7029 2343 3 0 29.530000 8.060000 9.320000 0 0 0
7030 2344 4 0 30.820000 9.340000 11.170000 0 0 0
7031 2344 3 0 30.610000 8.790000 11.620000 0 0 0
7032 2344 3 0 31.030000 9.900000 10.720000 0 0 0
7033 2345 4 0 31.550000 10.410000 13.260000 0 0 0
7034 2345 3 0 31.400000 9.790000 13.680000 0 0 0
7035 2345 3 0 31.690000 11.030000 12.850000 0 0 0
7036 2346 1 0 32.590000 12.200000 14.700000 0 0 0
7037 2346 3 0 32.280000 11.590000 15.150000 0 0 0
7038 2346 2 0 32.870000 12.760000 14.280000 0 0 0
7039 2347 1 0 12.510000 24.920000 38.170000 0 0 0
7040 2347 2 0 12.700000 25.610000 38.400000 0 0 0
7041 2347 3 0 12.310000 24.180000 37.920000 0 0 0
7042 2348 4 0 14.390000 25.540000 37.100000 0 0 0
7043 2348 3 0 14.280000 26.260000 37.390000 0 0 0
7044 2348 3 0 14.500000 24.820000 36.810000 0 0 0
7045 2349 4 0 16.040000 26.800000 36.280000 0 0 0
7046 2349 3 0 16.770000 26.660000 36.170000 0 0 0
7047 2349 3 0 15.310000 26.950000 36.390000 0 0 0
7048 2350 4 0 17.830000 28.120000 35.080000 0 0 0
7049 2350 3 0 17.620000 27.560000 35.530000 0 0 0
7050 2350 3 0 18.040000 28.670000 34.630000 0 0 0
7051 2351 4 0 19.770000 28.980000 35.230000 0 0 0
7052 2351 3 0 19.630000 28.360000 35.650000 0 0 0
7053 2351 3 0 19.920000 29.600000 34.820000 0 0 0
7054 2352 1 0 22.130000 29.590000 35.710000 0 0 0
7055 2352 3 0 21.820000 28.980000 36.160000 0 0 0
7056 2352 2 0 22.410000 30.150000 35.290000 0 0 0
7057 2353 1 0 13.270000 35.880000 15.730000 0 0 0
7058 2353 2 0 13.460000 36.570000 15.960000 0 0 0
7059 2353 3 0 13.070000 35.140000 15.480000 0 0 0
7060 2354 4 0 11.630000 35.270000 17.430000 0 0 0
7061 2354 3 0 11.520000 35.990000 17.720000 0 0 0
7062 2354 3 0 11.740000 34.550000 17.150000 0 0 0
7063 2355 4 0 12.210000 34.550000 19.710000 0 0 0
7064 2355 3 0 12.940000 34.410000 19.600000 0 0 0
7065 2355 3 0 11.480000 34.700000 19.830000 0 0 0
7066 2356 4 0 12.530000 33.110000 21.690000 0 0 0
7067 2356 3 0 12.320000 32.560000 22.140000 0 0 0
7068 2356 3 0 12.740000 33.660000 21.240000 0 0 0
7069 2357 4 0 12.580000 31.250000 23.080000 0 0 0
7070 2357 3 0 12.440000 30.630000 23.490000 0 0 0
7071 2357 3 0 12.720000 31.870000 22.660000 0 0 0
7072 2358 1 0 14.300000 29.810000 23.670000 0 0 0
7073 2358 3 0 13.990000 29.200000 24.120000 0 0 0
7074 2358 2 0 14.580000 30.370000 23.250000 0 0 0
7075 2359 1 0 6.540000 53.670000 57.220000 0 0 0
7076 2359 2 0 6.730000 54.360000 57.450000 0 0 0
7077 2359 3 0 6.340000 52.930000 56.970000 0 0 0
7078 2360 4 0 9.070000 54.140000 56.990000 0 0 0
7079 2360 3 0 8.960000 54.860000 57.280000 0 0 0
7080 2360 3 0 9.180000 53.420000 56.700000 0 0 0
7081 2361 4 0 10.720000 54.640000 55.200000 0 0 0
7082 2361 3 0 11.450000 54.500000 55.080000 0 0 0
7083 2361 3 0 9.990000 54.790000 55.310000 0 0 0
7084 2362 4 0 12.520000 56.100000 54.240000 0 0 0
7085 2362 3 0 12.310000 55.540000 54.690000 0 0 0
7086 2362 3 0 12.730000 56.660000 53.790000 0 0 0
7087 2363 4 0 13.680000 0.090000 52.760000 0 1 0
7088 2363 3 0 13.540000 57.007600 53.170000 0 0 0
7089 2363 3 0 13.830000 0.710000 52.340000 0 1 0
7090 2364 1 0 14.580000 57.360000 50.370000 0 0 0
7091 2364 3 0 14.270000 56.750000 50.820000 0 0 0
7092 2364 2 0 14.860000 0.382400 49.950000 0 1 0
7093 2365 1 0 41.500000 38.460000 37.000000 0 0 0
7094 2365 2 0 41.690000 39.150000 37.230000 0 0 0
7095 2365 3 0 41.300000 37.720000 36.750000 0 0 0
7096 2366 4 0 42.120000 39.970000 38.530000 0 0 0
7097 2366 3 0 42.010000 40.690000 38.810000 0 0 0
7098 2366 3 0 42.230000 39.250000 38.250000 0 0 0
7099 2367 4 0 40.740000 40.220000 40.660000 0 0 0
7100 2367 3 0 41.470000 40.080000 40.540000 0 0 0
7101 2367 3 0 40.010000 40.370000 40.770000 0 0 0
7102 2368 4 0 38.110000 40.150000 40.860000 0 0 0
7103 2368 3 0 37.900000 39.590000 41.310000 0 0 0
7104 2368 3 0 38.320000 40.710000 40.410000 0 0 0
7105 2369 4 0 35.870000 40.010000 40.960000 0 0 0
7106 2369 3 0 35.730000 39.390000 41.380000 0 0 0
7107 2369 3 0 36.020000 40.630000 40.540000 0 0 0
7108 2370 1 0 34.330000 38.550000 39.490000 0 0 0
7109 2370 3 0 34.020000 37.940000 39.940000 0 0 0
7110 2370 2 0 34.610000 39.110000 39.070000 0 0 0
7111 2371 1 0 52.130000 48.490000 17.650000 0 0 0
7112 2371 2 0 52.320000 49.180000 17.880000 0 0 0
7113 2371 3 0 51.930000 47.750000 17.400000 0 0 0
7114 2372 4 0 49.840000 48.140000 17.500000 0 0 0
7115 2372 3 0 49.730000 48.860000 17.780000 0 0 0
7116 2372 3 0 49.950000 47.420000 17.220000 0 0 0
7117 2373 4 0 47.850000 48.940000 16.550000 0 0 0
7118 2373 3 0 48.580000 48.800000 16.440000 0 0 0
7119 2373 3 0 47.120000 49.090000 16.670000 0 0 0
7120 2374 4 0 46.660000 50.420000 14.950000 0 0 0
7121 2374 3 0 46.450000 49.860000 15.400000 0 0 0
7122 2374 3 0 46.870000 50.980000 14.500000 0 0 0
7123 2375 4 0 45.630000 52.290000 13.780000 0 0 0
7124 2375 3 0 45.480000 51.670000 14.190000 0 0 0
7125 2375 3 0 45.770000 52.910000 13.370000 0 0 0
7126 2376 1 0 45.290000 52.130000 11.150000 0 0 0
7127 2376 3 0 44.980000 51.520000 11.600000 0 0 0
7128 2376 2 0 45.570000 52.690000 10.730000 0 0 0
7129 2377 1 0 11.660000 50.120000 54.080000 0 0 0
7130 2377 2 0 11.850000 50.810000 54.310000 0 0 0
7131 2377 3 0 11.460000 49.380000 53.830000 0 0 0
7132 2378 4 0 13.720000 51.480000 53.660000 0 0 0
7133 2378 3 0 13.610000 52.200000 53.940000 0 0 0
7134 2378 3 0 13.830000 50.760000 53.370000 0 0 0
7135 2379 4 0 15.860000 52.580000 53.140000 0 0 0
7136 2379 3 0 16.590000 52.440000 53.030000 0 0 0
7137 2379 3 0 15.130000 52.720000 53.250000 0 0 0
7138 2380 4 0 17.090000 54.460000 54.170000 0 0 0
7139 2380 3 0 16.880000 53.900000 54.620000 0 0 0
7140 2380 3 0 17.300000 55.020000 53.720000 0 0 0
7141 2381 4 0 18.720000 55.820000 54.890000 0 0 0
7142 2381 3 0 18.580000 55.200000 55.300000 0 0 0
7143 2381 3 0 18.870000 56.440000 54.470000 0 0 0
7144 2382 1 0 20.870000 56.750000 55.150000 0 0 0
7145 2382 3 0 20.560000 56.140000 55.600000 0 0 0
7146 2382 2 0 21.150000 57.310000 54.730000 0 0 0
7147 2383 1 0 27.220000 15.010000 27.820000 0 0 0
7148 2383 2 0 27.410000 15.700000 28.050000 0 0 0
7149 2383 3 0 27.020000 14.270000 27.570000 0 0 0
7150 2384 4 0 27.750000 13.910000 25.960000 0 0 0
7151 2384 3 0 27.640000 14.630000 26.250000 0 0 0
7152 2384 3 0 27.860000 13.190000 25.670000 0 0 0
7153 2385 4 0 26.780000 12.150000 24.470000 0 0 0
7154 2385 3 0 27.510000 12.000000 24.360000 0 0 0
7155 2385 3 0 26.050000 12.300000 24.580000 0 0 0
7156 2386 4 0 25.780000 10.760000 23.130000 0 0 0
7157 2386 3 0 25.570000 10.210000 23.580000 0 0 0
7158 2386 3 0 25.990000 11.310000 22.680000 0 0 0
7159 2387 4 0 23.970000 11.430000 21.380000 0 0 0
7160 2387 3 0 23.820000 10.810000 21.790000 0 0 0
7161 2387 3 0 24.110000 12.050000 20.960000 0 0 0
7162 2388 1 0 22.110000 12.120000 19.980000 0 0 0
7163 2388 3 0 21.800000 11.510000 20.430000 0 0 0
7164 2388 2 0 22.390000 12.680000 19.560000 0 0 0
7165 2389 1 0 32.350000 21.440000 30.360000 0 0 0
7166 2389 2 0 32.540000 22.130000 30.590000 0 0 0
7167 2389 3 0 32.150000 20.700000 30.110000 0 0 0
7168 2390 4 0 33.690000 22.930000 29.380000 0 0 0
7169 2390 3 0 33.580000 23.650000 29.660000 0 0 0
7170 2390 3 0 33.800000 22.210000 29.100000 0 0 0
7171 2391 4 0 35.740000 23.880000 29.140000 0 0 0
7172 2391 3 0 36.470000 23.730000 29.030000 0 0 0
7173 2391 3 0 35.010000 24.020000 29.260000 0 0 0
7174 2392 4 0 38.070000 24.680000 28.760000 0 0 0
7175 2392 3 0 37.860000 24.130000 29.210000 0 0 0
7176 2392 3 0 38.280000 25.230000 28.310000 0 0 0
7177 2393 4 0 40.470000 25.150000 28.570000 0 0 0
7178 2393 3 0 40.320000 24.530000 28.990000 0 0 0
7179 2393 3 0 40.610000 25.770000 28.160000 0 0 0
7180 2394 1 0 42.750000 25.980000 29.210000 0 0 0
7181 2394 3 0 42.440000 25.370000 29.660000 0 0 0
7182 2394 2 0 43.030000 26.540000 28.790000 0 0 0
7183 2395 1 0 43.270000 28.620000 37.340000 0 0 0
7184 2395 2 0 43.460000 29.310000 37.570000 0 0 0
7185 2395 3 0 43.070000 27.880000 37.090000 0 0 0
7186 2396 4 0 43.580000 29.830000 39.480000 0 0 0
7187 2396 3 0 43.470000 30.550000 39.760000 0 0 0
7188 2396 3 0 43.690000 29.110000 39.200000 0 0 0
7189 2397 4 0 43.600000 31.140000 41.620000 0 0 0
7190 2397 3 0 44.330000 30.990000 41.510000 0 0 0
7191 2397 3 0 42.870000 31.280000 41.730000 0 0 0
7192 2398 4 0 42.880000 31.710000 43.650000 0 0 0
7193 2398 3 0 42.670000 31.150000 44.100000 0 0 0
7194 2398 3 0 43.090000 32.260000 43.200000 0 0 0
7195 2399 4 0 41.230000 31.460000 45.390000 0 0 0
7196 2399 3 0 41.090000 30.840000 45.800000 0 0 0
7197 2399 3 0 41.380000 32.080000 44.970000 0 0 0
7198 2400 1 0 39.500000 31.320000 46.870000 0 0 0
7199 2400 3 0 39.190000 30.710000 47.320000 0 0 0
7200 2400 2 0 39.780000 31.880000 46.450000 0 0 0
7201 2401 1 0 42.960000 49.250000 40.530000 0 0 0
7202 2401 2 0 43.150000 49.940000 40.760000 0 0 0
7203 2401 3 0 42.760000 48.510000 40.280000 0 0 0
7204 2402 4 0 45.270000 50.090000 40.020000 0 0 0
7205 2402 3 0 45.160000 50.810000 40.300000 0 0 0
7206 2402 3 0 45.380000 49.370000 39.730000 0 0 0
7207 2403 4 0 47.240000 51.530000 40.230000 0 0 0
7208 2403 3 0 47.970000 51.380000 40.110000 0 0 0
7209 2403 3 0 46.510000 51.670000 40.340000 0 0 0
7210 2404 4 0 48.860000 51.560000 42.050000 0 0 0
7211 2404 3 0 48.650000 51.000000 42.500000 0 0 0
7212 2404 3 0 49.070000 52.120000 41.600000 0 0 0
7213 2405 4 0 49.880000 49.530000 43.370000 0 0 0
7214 2405 3 0 49.740000 48.910000 43.780000 0 0 0
7215 2405 3 0 50.030000 50.150000 42.950000 0 0 0
7216 2406 1 0 51.000000 47.870000 44.800000 0 0 0
7217 2406 3 0 50.690000 47.260000 45.250000 0 0 0
7218 2406 2 0 51.280000 48.430000 44.380000 0 0 0
7219 2407 1 0 18.520000 12.050000 5.550000 0 0 0
7220 2407 2 0 18.710000 12.740000 5.780000 0 0 0
7221 2407 3 0 18.320000 11.310000 5.300000 0 0 0
7222 2408 4 0 18.820000 12.380000 8.040000 0 0 0
7223 2408 3 0 18.710000 13.100000 8.330000 0 0 0
7224 2408 3 0 18.930000 11.660000 7.760000 0 0 0
7225 2409 4 0 18.340000 12.320000 10.200000 0 0 0
7226 2409 3 0 19.070000 12.170000 10.090000 0 0 0
7227 2409 3 0 17.610000 12.460000 10.320000 0 0 0
7228 2410 4 0 17.390000 12.290000 12.480000 0 0 0
7229 2410 3 0 17.180000 11.740000 12.930000 0 0 0
7230 2410 3 0 17.600000 12.840000 12.030000 0 0 0
7231 2411 4 0 15.550000 12.230000 14.180000 0 0 0
7232 2411 3 0 15.400000 11.610000 14.600000 0 0 0
7233 2411 3 0 15.690000 12.850000 13.770000 0 0 0
7234 2412 1 0 13.730000 12.010000 15.440000 0 0 0
7235 2412 3 0 13.420000 11.400000 15.890000 0 0 0
7236 2412 2 0 14.010000 12.570000 15.020000 0 0 0
7237 2413 1 0 49.340000 8.760000 25.210000 0 0 0
7238 2413 2 0 49.530000 9.450000 25.440000 0 0 0
7239 2413 3 0 49.140000 8.020000 24.960000 0 0 0
7240 2414 4 0 47.940000 8.040000 23.380000 0 0 0
7241 2414 3 0 47.830000 8.760000 23.670000 0 0 0
7242 2414 3 0 48.050000 7.320000 23.090000 0 0 0
7243 2415 4 0 46.460000 7.110000 21.550000 0 0 0
7244 2415 3 0 47.190000 6.960000 21.430000 0 0 0
7245 2415 3 0 45.730000 7.250000 21.670000 0 0 0
7246 2416 4 0 45.910000 7.320000 19.180000 0 0 0
7247 2416 3 0 45.700000 6.760000 19.630000 0 0 0
7248 2416 3 0 46.120000 7.870000 18.730000 0 0 0
7249 2417 4 0 45.600000 7.250000 16.960000 0 0 0
7250 2417 3 0 45.450000 6.630000 17.380000 0 0 0
7251 2417 3 0 45.740000 7.870000 16.550000 0 0 0
7252 2418 1 0 45.030000 7.580000 14.780000 0 0 0
7253 2418 3 0 44.720000 6.970000 15.230000 0 0 0
7254 2418 2 0 45.310000 8.140000 14.360000 0 0 0
7255 2419 1 0 26.340000 13.930000 47.410000 0 0 0
7256 2419 2 0 26.530000 14.620000 47.640000 0 0 0
7257 2419 3 0 26.140000 13.190000 47.160000 0 0 0
7258 2420 4 0 27.070000 12.740000 45.240000 0 0 0
7259 2420 3 0 26.960000 13.460000 45.530000 0 0 0
7260 2420 3 0 27.180000 12.020000 44.950000 0 0 0
7261 2421 4 0 26.390000 11.760000 43.210000 0 0 0
7262 2421 3 0 27.120000 11.610000 43.090000 0 0 0
7263 2421 3 0 25.660000 11.900000 43.320000 0 0 0
7264 2422 4 0 26.410000 11.580000 40.780000 0 0 0
7265 2422 3 0 26.200000 11.030000 41.230000 0 0 0
7266 2422 3 0 26.620000 12.130000 40.330000 0 0 0
7267 2423 4 0 27.480000 11.710000 38.560000 0 0 0
7268 2423 3 0 27.340000 11.090000 38.970000 0 0 0
7269 2423 3 0 27.630000 12.330000 38.140000 0 0 0
7270 2424 1 0 29.170000 10.900000 36.760000 0 0 0
7271 2424 3 0 28.860000 10.290000 37.210000 0 0 0
7272 2424 2 0 29.450000 11.460000 36.340000 0 0 0
7273 2425 1 0 38.720000 27.670000 0.260000 0 0 0
7274 2425 2 0 38.910000 28.360000 0.490000 0 0 0
7275 2425 3 0 38.520000 26.930000 0.010000 0 0 0
7276 2426 4 0 39.150000 28.280000 55.400000 0 0 -1
7277 2426 3 0 39.040000 29.000000 55.690000 0 0 -1
7278 2426 3 0 39.260000 27.560000 55.110000 0 0 -1
7279 2427 4 0 39.210000 26.930000 53.310000 0 0 -1
7280 2427 3 0 39.940000 26.790000 53.200000 0 0 -1
7281 2427 3 0 38.480000 27.080000 53.430000 0 0 -1
7282 2428 4 0 38.720000 25.340000 51.390000 0 0 -1
7283 2428 3 0 38.510000 24.780000 51.840000 0 0 -1
7284 2428 3 0 38.930000 25.890000 50.940000 0 0 -1
7285 2429 4 0 38.060000 23.580000 49.710000 0 0 -1
7286 2429 3 0 37.920000 22.960000 50.130000 0 0 -1
7287 2429 3 0 38.210000 24.200000 49.290000 0 0 -1
7288 2430 1 0 37.270000 21.280000 50.310000 0 0 -1
7289 2430 3 0 36.960000 20.670000 50.760000 0 0 -1
7290 2430 2 0 37.550000 21.840000 49.890000 0 0 -1
7291 2431 1 0 34.860000 17.950000 42.830000 0 0 0
7292 2431 2 0 35.050000 18.640000 43.060000 0 0 0
7293 2431 3 0 34.660000 17.210000 42.580000 0 0 0
7294 2432 4 0 36.330000 16.740000 41.260000 0 0 0
7295 2432 3 0 36.220000 17.460000 41.550000 0 0 0
7296 2432 3 0 36.440000 16.020000 40.980000 0 0 0
7297 2433 4 0 38.100000 15.230000 40.630000 0 0 0
7298 2433 3 0 38.830000 15.080000 40.510000 0 0 0
7299 2433 3 0 37.370000 15.370000 40.740000 0 0 0
7300 2434 4 0 38.310000 13.820000 38.740000 0 0 0
7301 2434 3 0 38.100000 13.260000 39.190000 0 0 0
7302 2434 3 0 38.520000 14.380000 38.290000 0 0 0
7303 2435 4 0 37.900000 11.740000 37.740000 0 0 0
7304 2435 3 0 37.760000 11.120000 38.160000 0 0 0
7305 2435 3 0 38.040000 12.360000 37.320000 0 0 0
7306 2436 1 0 38.550000 9.980000 36.560000 0 0 0
7307 2436 3 0 38.240000 9.370000 37.010000 0 0 0
7308 2436 2 0 38.830000 10.540000 36.140000 0 0 0
7309 2437 1 0 42.170000 21.110000 5.570000 0 0 0
7310 2437 2 0 42.360000 21.800000 5.800000 0 0 0
7311 2437 3 0 41.970000 20.370000 5.320000 0 0 0
7312 2438 4 0 40.240000 20.270000 4.880000 0 0 0
7313 2438 3 0 40.130000 20.990000 5.160000 0 0 0
7314 2438 3 0 40.350000 19.550000 4.600000 0 0 0
7315 2439 4 0 37.800000 19.930000 4.760000 0 0 0
7316 2439 3 0 38.530000 19.780000 4.650000 0 0 0
7317 2439 3 0 37.070000 20.080000 4.880000 0 0 0
7318 2440 4 0 36.300000 20.650000 6.560000 0 0 0
7319 2440 3 0 36.090000 20.100000 7.010000 0 0 0
7320 2440 3 0 36.510000 21.200000 6.110000 0 0 0
7321 2441 4 0 34.480000 19.890000 7.580000 0 0 0
7322 2441 3 0 34.330000 19.270000 8.000000 0 0 0
7323 2441 3 0 34.620000 20.510000 7.170000 0 0 0
7324 2442 1 0 33.410000 19.020000 9.340000 0 0 0
7325 2442 3 0 33.100000 18.410000 9.790000 0 0 0
7326 2442 2 0 33.690000 19.580000 8.920000 0 0 0
7327 2443 1 0 40.280000 32.690000 3.710000 0 0 0
7328 2443 2 0 40.470000 33.380000 3.940000 0 0 0
7329 2443 3 0 40.080000 31.950000 3.460000 0 0 0
7330 2444 4 0 39.320000 30.790000 2.980000 0 0 0
7331 2444 3 0 39.210000 31.510000 3.260000 0 0 0
7332 2444 3 0 39.430000 30.070000 2.700000 0 0 0
7333 2445 4 0 37.140000 30.620000 2.250000 0 0 0
7334 2445 3 0 37.870000 30.470000 2.140000 0 0 0
7335 2445 3 0 36.410000 30.760000 2.370000 0 0 0
7336 2446 4 0 36.290000 31.480000 57.470000 0 0 -1
7337 2446 3 0 36.080000 30.930000 0.382400 0 0 0
7338 2446 3 0 36.500000 32.040000 57.020000 0 0 -1
7339 2447 4 0 34.520000 32.370000 55.970000 0 0 -1
7340 2447 3 0 34.380000 31.750000 56.390000 0 0 -1
7341 2447 3 0 34.660000 32.990000 55.560000 0 0 -1
7342 2448 1 0 32.600000 31.150000 55.350000 0 0 -1
7343 2448 3 0 32.290000 30.540000 55.800000 0 0 -1
7344 2448 2 0 32.880000 31.710000 54.930000 0 0 -1
7345 2449 1 0 37.350000 57.400000 32.320000 0 0 0
7346 2449 2 0 37.540000 0.552400 32.550000 0 1 0
7347 2449 3 0 37.150000 56.660000 32.070000 0 0 0
7348 2450 4 0 38.970000 55.930000 32.890000 0 0 0
7349 2450 3 0 38.860000 56.650000 33.170000 0 0 0
7350 2450 3 0 39.080000 55.210000 32.610000 0 0 0
7351 2451 4 0 40.580000 54.010000 33.010000 0 0 0
7352 2451 3 0 41.310000 53.860000 32.900000 0 0 0
7353 2451 3 0 39.850000 54.150000 33.120000 0 0 0
7354 2452 4 0 41.380000 51.890000 31.980000 0 0 0
7355 2452 3 0 41.170000 51.330000 32.430000 0 0 0
7356 2452 3 0 41.590000 52.450000 31.530000 0 0 0
7357 2453 4 0 42.150000 50.570000 30.390000 0 0 0
7358 2453 3 0 42.000000 49.950000 30.810000 0 0 0
7359 2453 3 0 42.290000 51.190000 29.980000 0 0 0
7360 2454 1 0 42.750000 49.940000 28.210000 0 0 0
7361 2454 3 0 42.440000 49.330000 28.660000 0 0 0
7362 2454 2 0 43.030000 50.500000 27.790000 0 0 0
7363 2455 1 0 36.310000 56.420000 24.430000 0 0 0
7364 2455 2 0 36.500000 57.110000 24.660000 0 0 0
7365 2455 3 0 36.110000 55.680000 24.180000 0 0 0
7366 2456 4 0 34.140000 56.500000 23.770000 0 0 0
7367 2456 3 0 34.030000 57.220000 24.050000 0 0 0
7368 2456 3 0 34.250000 55.780000 23.480000 0 0 0
7369 2457 4 0 32.400000 55.810000 22.040000 0 0 0
7370 2457 3 0 33.130000 55.670000 21.930000 0 0 0
7371 2457 3 0 31.670000 55.960000 22.160000 0 0 0
7372 2458 4 0 30.340000 54.930000 20.810000 0 0 0
7373 2458 3 0 30.130000 54.380000 21.260000 0 0 0
7374 2458 3 0 30.550000 55.490000 20.360000 0 0 0
7375 2459 4 0 29.990000 52.380000 20.870000 0 0 0
7376 2459 3 0 29.850000 51.760000 21.290000 0 0 0
7377 2459 3 0 30.140000 53.000000 20.460000 0 0 0
7378 2460 1 0 29.340000 50.380000 21.520000 0 0 0
7379 2460 3 0 29.030000 49.770000 21.970000 0 0 0
7380 2460 2 0 29.620000 50.940000 21.100000 0 0 0
7381 2461 1 0 0.570000 45.620000 39.030000 0 0 0
7382 2461 2 0 0.760000 46.310000 39.260000 0 0 0
7383 2461 3 0 0.370000 44.880000 38.780000 0 0 0
7384 2462 4 0 1.800000 45.530000 37.090000 0 0 0
7385 2462 3 0 1.690000 46.250000 37.370000 0 0 0
7386 2462 3 0 1.910000 44.810000 36.810000 0 0 0
7387 2463 4 0 2.640000 45.240000 34.690000 0 0 0
7388 2463 3 0 3.370000 45.100000 34.580000 0 0 0
7389 2463 3 0 1.910000 45.380000 34.810000 0 0 0
7390 2464 4 0 2.320000 43.340000 33.540000 0 0 0
7391 2464 3 0 2.110000 42.780000 33.990000 0 0 0
7392 2464 3 0 2.530000 43.890000 33.090000 0 0 0
7393 2465 4 0 2.100000 41.750000 31.960000 0 0 0
7394 2465 3 0 1.960000 41.130000 32.380000 0 0 0
7395 2465 3 0 2.240000 42.370000 31.550000 0 0 0
7396 2466 1 0 1.240000 40.570000 30.060000 0 0 0
7397 2466 3 0 0.930000 39.960000 30.510000 0 0 0
7398 2466 2 0 1.520000 41.130000 29.640000 0 0 0
7399 2467 1 0 52.460000 39.720000 21.390000 0 0 0
7400 2467 2 0 52.650000 40.410000 21.620000 0 0 0
7401 2467 3 0 52.260000 38.980000 21.140000 0 0 0
7402 2468 4 0 54.410000 38.380000 22.350000 0 0 0
7403 2468 3 0 54.300000 39.100000 22.630000 0 0 0
7404 2468 3 0 54.520000 37.660000 22.070000 0 0 0
7405 2469 4 0 56.540000 38.570000 23.640000 0 0 0
7406 2469 3 0 57.270000 38.430000 23.530000 0 0 0
7407 2469 3 0 55.810000 38.720000 23.750000 0 0 0
7408 2470 4 0 1.420000 38.530000 24.240000 1 0 0
7409 2470 3 0 1.210000 37.980000 24.690000 1 0 0
7410 2470 3 0 1.630000 39.090000 23.790000 1 0 0
7411 2471 4 0 3.650000 38.210000 24.730000 1 0 0
7412 2471 3 0 3.510000 37.590000 25.140000 1 0 0
7413 2471 3 0 3.790000 38.830000 24.310000 1 0 0
7414 2472 1 0 4.210000 35.820000 24.620000 1 0 0
7415 2472 3 0 3.900000 35.210000 25.070000 1 0 0
7416 2472 2 0 4.490000 36.380000 24.200000 1 0 0
7417 2473 1 0 31.110000 53.590000 30.520000 0 0 0
7418 2473 2 0 31.300000 54.280000 30.750000 0 0 0
7419 2473 3 0 30.910000 52.850000 30.270000 0 0 0
7420 2474 4 0 30.790000 54.600000 32.550000 0 0 0
7421 2474 3 0 30.680000 55.320000 32.840000 0 0 0
7422 2474 3 0 30.900000 53.880000 32.260000 0 0 0
7423 2475 4 0 29.890000 56.200000 33.810000 0 0 0
7424 2475 3 0 30.620000 56.060000 33.690000 0 0 0
7425 2475 3 0 29.160000 56.350000 33.930000 0 0 0
7426 2476 4 0 29.200000 0.410000 35.300000 0 1 0
7427 2476 3 0 28.990000 57.397600 35.750000 0 0 0
7428 2476 3 0 29.410000 0.970000 34.850000 0 1 0
7429 2477 4 0 29.310000 2.170000 37.120000 0 1 0
7430 2477 3 0 29.170000 1.550000 37.540000 0 1 0
7431 2477 3 0 29.460000 2.790000 36.710000 0 1 0
7432 2478 1 0 30.400000 3.880000 38.140000 0 1 0
7433 2478 3 0 30.090000 3.270000 38.590000 0 1 0
7434 2478 2 0 30.680000 4.440000 37.720000 0 1 0
7435 2479 1 0 19.350000 15.100000 31.020000 0 0 0
7436 2479 2 0 19.540000 15.790000 31.250000 0 0 0
7437 2479 3 0 19.150000 14.360000 30.770000 0 0 0
7438 2480 4 0 17.610000 16.980000 31.140000 0 0 0
7439 2480 3 0 17.500000 17.700000 31.430000 0 0 0
7440 2480 3 0 17.720000 16.260000 30.850000 0 0 0
7441 2481 4 0 16.160000 18.800000 32.040000 0 0 0
7442 2481 3 0 16.890000 18.650000 31.930000 0 0 0
7443 2481 3 0 15.430000 18.940000 32.160000 0 0 0
7444 2482 4 0 16.170000 19.590000 34.050000 0 0 0
7445 2482 3 0 15.960000 19.040000 34.500000 0 0 0
7446 2482 3 0 16.380000 20.140000 33.600000 0 0 0
7447 2483 4 0 16.530000 20.580000 36.350000 0 0 0
7448 2483 3 0 16.390000 19.960000 36.760000 0 0 0
7449 2483 3 0 16.670000 21.200000 35.930000 0 0 0
7450 2484 1 0 16.930000 21.690000 38.530000 0 0 0
7451 2484 3 0 16.620000 21.080000 38.980000 0 0 0
7452 2484 2 0 17.210000 22.250000 38.110000 0 0 0
7453 2485 1 0 53.940000 29.180000 15.140000 0 0 0
7454 2485 2 0 54.130000 29.870000 15.370000 0 0 0
7455 2485 3 0 53.740000 28.440000 14.890000 0 0 0
7456 2486 4 0 55.150000 27.940000 16.540000 0 0 0
7457 2486 3 0 55.040000 28.660000 16.820000 0 0 0
7458 2486 3 0 55.260000 27.220000 16.250000 0 0 0
7459 2487 4 0 55.940000 28.080000 18.850000 0 0 0
7460 2487 3 0 56.670000 27.930000 18.740000 0 0 0
7461 2487 3 0 55.210000 28.220000 18.970000 0 0 0
7462 2488 4 0 55.980000 27.230000 21.020000 0 0 0
7463 2488 3 0 55.770000 26.670000 21.470000 0 0 0
7464 2488 3 0 56.190000 27.780000 20.570000 0 0 0
7465 2489 4 0 55.080000 26.310000 23.190000 0 0 0
7466 2489 3 0 54.940000 25.690000 23.610000 0 0 0
7467 2489 3 0 55.220000 26.930000 22.770000 0 0 0
7468 2490 1 0 53.250000 25.410000 24.640000 0 0 0
7469 2490 3 0 52.940000 24.800000 25.090000 0 0 0
7470 2490 2 0 53.530000 25.970000 24.220000 0 0 0
7471 2491 1 0 20.500000 4.410000 55.290000 0 0 0
7472 2491 2 0 20.690000 5.100000 55.520000 0 0 0
7473 2491 3 0 20.300000 3.670000 55.040000 0 0 0
7474 2492 4 0 18.230000 3.930000 56.470000 0 0 0
7475 2492 3 0 18.120000 4.650000 56.760000 0 0 0
7476 2492 3 0 18.340000 3.210000 56.190000 0 0 0
7477 2493 4 0 16.340000 3.940000 55.140000 0 0 0
7478 2493 3 0 17.070000 3.790000 55.030000 0 0 0
7479 2493 3 0 15.610000 4.080000 55.260000 0 0 0
7480 2494 4 0 13.950000 4.190000 54.730000 0 0 0
7481 2494 3 0 13.740000 3.630000 55.180000 0 0 0
7482 2494 3 0 14.160000 4.740000 54.280000 0 0 0
7483 2495 4 0 11.810000 3.480000 55.480000 0 0 0
7484 2495 3 0 11.670000 2.860000 55.900000 0 0 0
7485 2495 3 0 11.960000 4.100000 55.060000 0 0 0
7486 2496 1 0 10.750000 2.150000 57.400000 0 0 0
7487 2496 3 0 10.440000 1.540000 0.312400 0 0 1
7488 2496 2 0 11.030000 2.710000 56.980000 0 0 0
7489 2497 1 0 33.650000 55.010000 37.320000 0 0 0
7490 2497 2 0 33.840000 55.700000 37.550000 0 0 0
7491 2497 3 0 33.450000 54.270000 37.070000 0 0 0
7492 2498 4 0 36.010000 55.610000 37.700000 0 0 0
7493 2498 3 0 35.900000 56.330000 37.980000 0 0 0
7494 2498 3 0 36.120000 54.890000 37.420000 0 0 0
7495 2499 4 0 38.270000 56.360000 38.420000 0 0 0
7496 2499 3 0 39.000000 56.220000 38.310000 0 0 0
7497 2499 3 0 37.540000 56.510000 38.540000 0 0 0
7498 2500 4 0 39.450000 54.740000 40.050000 0 0 0
7499 2500 3 0 39.240000 54.180000 40.500000 0 0 0
7500 2500 3 0 39.660000 55.300000 39.600000 0 0 0
7501 2501 4 0 39.470000 52.780000 41.550000 0 0 0
7502 2501 3 0 39.330000 52.160000 41.970000 0 0 0
7503 2501 3 0 39.620000 53.400000 41.140000 0 0 0
7504 2502 1 0 39.200000 50.710000 43.070000 0 0 0
7505 2502 3 0 38.890000 50.100000 43.520000 0 0 0
7506 2502 2 0 39.480000 51.270000 42.650000 0 0 0
7507 2503 1 0 5.760000 4.350000 51.810000 0 0 0
7508 2503 2 0 5.950000 5.040000 52.040000 0 0 0
7509 2503 3 0 5.560000 3.610000 51.560000 0 0 0
7510 2504 4 0 4.870000 2.340000 50.720000 0 0 0
7511 2504 3 0 4.760000 3.060000 51.010000 0 0 0
7512 2504 3 0 4.980000 1.620000 50.430000 0 0 0
7513 2505 4 0 3.550000 1.580000 49.130000 0 0 0
7514 2505 3 0 4.280000 1.430000 49.020000 0 0 0
7515 2505 3 0 2.820000 1.720000 49.250000 0 0 0
7516 2506 4 0 1.340000 0.470000 49.010000 0 0 0
7517 2506 3 0 1.130000 57.457600 49.460000 0 -1 0
7518 2506 3 0 1.550000 1.020000 48.560000 0 0 0
7519 2507 4 0 57.250000 0.800000 50.790000 -1 0 0
7520 2507 3 0 57.100000 0.180000 51.200000 -1 0 0
7521 2507 3 0 57.390000 1.420000 50.370000 -1 0 0
7522 2508 1 0 55.730000 0.990000 52.570000 -1 0 0
7523 2508 3 0 55.420000 0.380000 53.020000 -1 0 0
7524 2508 2 0 56.010000 1.550000 52.150000 -1 0 0
7525 2509 1 0 3.090000 14.910000 42.030000 0 0 0
7526 2509 2 0 3.280000 15.600000 42.260000 0 0 0
7527 2509 3 0 2.890000 14.170000 41.780000 0 0 0
7528 2510 4 0 5.440000 14.780000 43.040000 0 0 0
7529 2510 3 0 5.330000 15.500000 43.330000 0 0 0
7530 2510 3 0 5.550000 14.060000 42.760000 0 0 0
7531 2511 4 0 7.600000 14.710000 44.440000 0 0 0
7532 2511 3 0 8.330000 14.570000 44.330000 0 0 0
7533 2511 3 0 6.870000 14.860000 44.550000 0 0 0
7534 2512 4 0 9.790000 14.860000 45.170000 0 0 0
7535 2512 3 0 9.580000 14.300000 45.620000 0 0 0
7536 2512 3 0 10.000000 15.420000 44.720000 0 0 0
7537 2513 4 0 12.170000 15.420000 45.550000 0 0 0
7538 2513 3 0 12.030000 14.800000 45.960000 0 0 0
7539 2513 3 0 12.320000 16.040000 45.130000 0 0 0
7540 2514 1 0 14.250000 16.250000 45.830000 0 0 0
7541 2514 3 0 13.940000 15.640000 46.280000 0 0 0
7542 2514 2 0 14.530000 16.810000 45.410000 0 0 0
7543 2515 1 0 25.980000 53.750000 6.020000 0 0 0
7544 2515 2 0 26.170000 54.440000 6.250000 0 0 0
7545 2515 3 0 25.780000 53.010000 5.770000 0 0 0
7546 2516 4 0 27.050000 51.610000 6.690000 0 0 0
7547 2516 3 0 26.940000 52.330000 6.980000 0 0 0
7548 2516 3 0 27.160000 50.890000 6.410000 0 0 0
7549 2517 4 0 27.930000 49.570000 6.930000 0 0 0
7550 2517 3 0 28.660000 49.420000 6.820000 0 0 0
7551 2517 3 0 27.200000 49.710000 7.050000 0 0 0
7552 2518 4 0 28.410000 47.650000 8.560000 0 0 0
7553 2518 3 0 28.200000 47.090000 9.010000 0 0 0
7554 2518 3 0 28.620000 48.210000 8.110000 0 0 0
7555 2519 4 0 29.030000 45.700000 9.970000 0 0 0
7556 2519 3 0 28.890000 45.080000 10.380000 0 0 0
7557 2519 3 0 29.170000 46.320000 9.560000 0 0 0
7558 2520 1 0 27.430000 44.330000 11.410000 0 0 0
7559 2520 3 0 27.120000 43.720000 11.860000 0 0 0
7560 2520 2 0 27.710000 44.890000 10.990000 0 0 0
7561 2521 1 0 47.380000 6.240000 46.200000 0 0 0
7562 2521 2 0 47.570000 6.930000 46.430000 0 0 0
7563 2521 3 0 47.180000 5.500000 45.950000 0 0 0
7564 2522 4 0 47.850000 4.230000 47.300000 0 0 0
7565 2522 3 0 47.740000 4.950000 47.590000 0 0 0
7566 2522 3 0 47.960000 3.510000 47.020000 0 0 0
7567 2523 4 0 49.810000 3.030000 47.440000 0 0 0
7568 2523 3 0 50.540000 2.880000 47.320000 0 0 0
7569 2523 3 0 49.080000 3.170000 47.550000 0 0 0
7570 2524 4 0 51.840000 1.690000 47.500000 0 0 0
7571 2524 3 0 51.630000 1.140000 47.950000 0 0 0
7572 2524 3 0 52.050000 2.250000 47.050000 0 0 0
7573 2525 4 0 53.920000 0.180000 47.190000 0 0 0
7574 2525 3 0 53.780000 57.097600 47.610000 0 -1 0
7575 2525 3 0 54.070000 0.800000 46.780000 0 0 0
7576 2526 1 0 55.780000 56.150000 46.910000 0 -1 0
7577 2526 3 0 55.470000 55.540000 47.360000 0 -1 0
7578 2526 2 0 56.060000 56.710000 46.490000 0 -1 0
7579 2527 1 0 18.470000 57.060000 25.310000 0 0 0
7580 2527 2 0 18.660000 0.212400 25.540000 0 1 0
7581 2527 3 0 18.270000 56.320000 25.060000 0 0 0
7582 2528 4 0 19.030000 54.790000 24.380000 0 0 0
7583 2528 3 0 18.920000 55.510000 24.660000 0 0 0
7584 2528 3 0 19.140000 54.070000 24.100000 0 0 0
7585 2529 4 0 18.440000 52.630000 23.270000 0 0 0
7586 2529 3 0 19.170000 52.480000 23.160000 0 0 0
7587 2529 3 0 17.710000 52.770000 23.380000 0 0 0
7588 2530 4 0 16.980000 50.760000 22.580000 0 0 0
7589 2530 3 0 16.770000 50.200000 23.030000 0 0 0
7590 2530 3 0 17.190000 51.310000 22.130000 0 0 0
7591 2531 4 0 15.030000 49.430000 21.660000 0 0 0
7592 2531 3 0 14.880000 48.810000 22.080000 0 0 0
7593 2531 3 0 15.170000 50.050000 21.250000 0 0 0
7594 2532 1 0 13.590000 47.880000 20.910000 0 0 0
7595 2532 3 0 13.280000 47.270000 21.360000 0 0 0
7596 2532 2 0 13.870000 48.440000 20.490000 0 0 0
7597 2533 1 0 55.420000 24.390000 8.790000 0 0 0
7598 2533 2 0 55.610000 25.080000 9.020000 0 0 0
7599 2533 3 0 55.220000 23.650000 8.540000 0 0 0
7600 2534 4 0 54.610000 22.980000 6.880000 0 0 0
7601 2534 3 0 54.500000 23.700000 7.160000 0 0 0
7602 2534 3 0 54.720000 22.260000 6.590000 0 0 0
7603 2535 4 0 54.230000 21.570000 5.170000 0 0 0
7604 2535 3 0 54.960000 21.430000 5.060000 0 0 0
7605 2535 3 0 53.500000 21.710000 5.290000 0 0 0
7606 2536 4 0 55.860000 20.600000 3.930000 0 0 0
7607 2536 3 0 55.650000 20.050000 4.380000 0 0 0
7608 2536 3 0 56.070000 21.150000 3.480000 0 0 0
7609 2537 4 0 57.440000 19.580000 2.450000 0 0 0
7610 2537 3 0 57.290000 18.960000 2.870000 0 0 0
7611 2537 3 0 0.042400 20.200000 2.040000 1 0 0
7612 2538 1 0 0.900000 17.910000 1.300000 1 0 0
7613 2538 3 0 0.590000 17.300000 1.750000 1 0 0
7614 2538 2 0 1.180000 18.470000 0.880000 1 0 0
7615 2539 1 0 6.290000 4.000000 4.760000 0 0 0
7616 2539 2 0 6.480000 4.690000 4.990000 0 0 0
7617 2539 3 0 6.090000 3.260000 4.510000 0 0 0
7618 2540 4 0 8.180000 2.430000 4.710000 0 0 0
7619 2540 3 0 8.070000 3.150000 4.990000 0 0 0
7620 2540 3 0 8.290000 1.710000 4.430000 0 0 0
7621 2541 4 0 9.880000 0.630000 5.220000 0 0 0
7622 2541 3 0 10.610000 0.480000 5.110000 0 0 0
7623 2541 3 0 9.150000 0.770000 5.340000 0 0 0
7624 2542 4 0 9.500000 56.300000 6.650000 0 -1 0
7625 2542 3 0 9.290000 55.740000 7.100000 0 -1 0
7626 2542 3 0 9.710000 56.860000 6.200000 0 -1 0
7627 2543 4 0 8.360000 55.640000 8.350000 0 -1 0
7628 2543 3 0 8.220000 55.020000 8.770000 0 -1 0
7629 2543 3 0 8.500000 56.260000 7.940000 0 -1 0
7630 2544 1 0 6.120000 55.450000 8.220000 0 -1 0
7631 2544 3 0 5.810000 54.840000 8.670000 0 -1 0
7632 2544 2 0 6.400000 56.010000 7.800000 0 -1 0
7633 2545 1 0 16.840000 55.730000 20.440000 0 0 0
7634 2545 2 0 17.030000 56.420000 20.670000 0 0 0
7635 2545 3 0 16.640000 54.990000 20.190000 0 0 0
7636 2546 4 0 16.060000 0.520000 20.170000 0 1 0
7637 2546 3 0 15.950000 1.240000 20.450000 0 1 0
7638 2546 3 0 16.170000 57.337600 19.880000 0 0 0
7639 2547 4 0 13.800000 1.100000 19.380000 0 1 0
7640 2547 3 0 14.530000 0.950000 19.270000 0 1 0
7641 2547 3 0 13.070000 1.240000 19.500000 0 1 0
7642 2548 4 0 13.600000 2.020000 17.390000 0 1 0
7643 2548 3 0 13.390000 1.470000 17.840000 0 1 0
7644 2548 3 0 13.810000 2.580000 16.940000 0 1 0
7645 2549 4 0 13.650000 2.520000 15.010000 0 1 0
7646 2549 3 0 13.510000 1.900000 15.420000 0 1 0
7647 2549 3 0 13.790000 3.140000 14.600000 0 1 0
7648 2550 1 0 14.860000 3.320000 13.340000 0 1 0
7649 2550 3 0 14.550000 2.710000 13.790000 0 1 0
7650 2550 2 0 15.140000 3.880000 12.920000 0 1 0
7651 2551 1 0 56.170000 40.470000 50.440000 0 0 0
7652 2551 2 0 56.360000 41.160000 50.670000 0 0 0
7653 2551 3 0 55.970000 39.730000 50.190000 0 0 0
7654 2552 4 0 0.430000 38.970000 51.320000 1 0 0
7655 2552 3 0 0.320000 39.690000 51.600000 1 0 0
7656 2552 3 0 0.540000 38.250000 51.030000 1 0 0
7657 2553 4 0 2.630000 39.320000 50.580000 1 0 0
7658 2553 3 0 3.360000 39.170000 50.460000 1 0 0
7659 2553 3 0 1.900000 39.460000 50.690000 1 0 0
7660 2554 4 0 3.680000 40.670000 49.190000 1 0 0
7661 2554 3 0 3.470000 40.110000 49.640000 1 0 0
7662 2554 3 0 3.890000 41.230000 48.740000 1 0 0
7663 2555 4 0 5.510000 42.460000 48.640000 1 0 0
7664 2555 3 0 5.370000 41.840000 49.050000 1 0 0
7665 2555 3 0 5.660000 43.080000 48.220000 1 0 0
7666 2556 1 0 5.190000 44.590000 49.680000 1 0 0
7667 2556 3 0 4.880000 43.980000 50.130000 1 0 0
7668 2556 2 0 5.470000 45.150000 49.260000 1 0 0
7669 2557 1 0 32.480000 27.000000 41.600000 0 0 0
7670 2557 2 0 32.670000 27.690000 41.830000 0 0 0
7671 2557 3 0 32.280000 26.260000 41.350000 0 0 0
7672 2558 4 0 33.990000 27.070000 39.620000 0 0 0
7673 2558 3 0 33.880000 27.790000 39.900000 0 0 0
7674 2558 3 0 34.100000 26.350000 39.340000 0 0 0
7675 2559 4 0 35.580000 27.160000 37.950000 0 0 0
7676 2559 3 0 36.310000 27.020000 37.840000 0 0 0
7677 2559 3 0 34.850000 27.310000 38.060000 0 0 0
7678 2560 4 0 37.370000 27.210000 36.570000 0 0 0
7679 2560 3 0 37.160000 26.660000 37.020000 0 0 0
7680 2560 3 0 37.580000 27.760000 36.120000 0 0 0
7681 2561 4 0 38.320000 28.060000 34.870000 0 0 0
7682 2561 3 0 38.170000 27.440000 35.290000 0 0 0
7683 2561 3 0 38.460000 28.680000 34.460000 0 0 0
7684 2562 1 0 39.070000 26.340000 33.220000 0 0 0
7685 2562 3 0 38.760000 25.730000 33.670000 0 0 0
7686 2562 2 0 39.350000 26.900000 32.800000 0 0 0
7687 2563 1 0 28.850000 18.720000 39.710000 0 0 0
7688 2563 2 0 29.040000 19.410000 39.940000 0 0 0
7689 2563 3 0 28.650000 17.980000 39.460000 0 0 0
7690 2564 4 0 28.360000 18.100000 37.190000 0 0 0
7691 2564 3 0 28.250000 18.820000 37.470000 0 0 0
7692 2564 3 0 28.470000 17.380000 36.910000 0 0 0
7693 2565 4 0 28.130000 17.580000 34.750000 0 0 0
7694 2565 3 0 28.860000 17.440000 34.640000 0 0 0
7695 2565 3 0 27.400000 17.720000 34.870000 0 0 0
7696 2566 4 0 27.780000 18.380000 32.430000 0 0 0
7697 2566 3 0 27.570000 17.830000 32.880000 0 0 0
7698 2566 3 0 27.990000 18.930000 31.980000 0 0 0
7699 2567 4 0 27.280000 18.800000 30.220000 0 0 0
7700 2567 3 0 27.140000 18.180000 30.630000 0 0 0
7701 2567 3 0 27.430000 19.420000 29.810000 0 0 0
7702 2568 1 0 27.480000 19.790000 27.870000 0 0 0
7703 2568 3 0 27.170000 19.180000 28.320000 0 0 0
7704 2568 2 0 27.760000 20.350000 27.450000 0 0 0
7705 2569 1 0 17.450000 49.740000 34.830000 0 0 0
7706 2569 2 0 17.640000 50.430000 35.060000 0 0 0
7707 2569 3 0 17.250000 49.000000 34.580000 0 0 0
7708 2570 4 0 18.250000 52.030000 35.550000 0 0 0
7709 2570 3 0 18.140000 52.750000 35.830000 0 0 0
7710 2570 3 0 18.360000 51.310000 35.270000 0 0 0
7711 2571 4 0 19.050000 54.390000 36.020000 0 0 0
7712 2571 3 0 19.780000 54.250000 35.910000 0 0 0
7713 2571 3 0 18.320000 54.540000 36.140000 0 0 0
7714 2572 4 0 19.730000 56.770000 36.150000 0 0 0
7715 2572 3 0 19.520000 56.210000 36.600000 0 0 0
7716 2572 3 0 19.940000 57.320000 35.700000 0 0 0
7717 2573 4 0 20.170000 1.740000 36.000000 0 1 0
7718 2573 3 0 20.020000 1.120000 36.420000 0 1 0
7719 2573 3 0 20.310000 2.360000 35.590000 0 1 0
7720 2574 1 0 19.670000 4.120000 36.440000 0 1 0
7721 2574 3 0 19.360000 3.510000 36.890000 0 1 0
7722 2574 2 0 19.950000 4.680000 36.020000 0 1 0
7723 2575 1 0 14.270000 10.340000 7.250000 0 0 0
7724 2575 2 0 14.460000 11.030000 7.480000 0 0 0
7725 2575 3 0 14.070000 9.600000 7.000000 0 0 0
7726 2576 4 0 14.230000 10.160000 9.510000 0 0 0
7727 2576 3 0 14.120000 10.880000 9.790000 0 0 0
7728 2576 3 0 14.340000 9.440000 9.220000 0 0 0
7729 2577 4 0 13.530000 9.130000 11.420000 0 0 0
7730 2577 3 0 14.260000 8.980000 11.310000 0 0 0
7731 2577 3 0 12.800000 9.270000 11.530000 0 0 0
7732 2578 4 0 12.280000 7.620000 12.520000 0 0 0
7733 2578 3 0 12.070000 7.070000 12.970000 0 0 0
7734 2578 3 0 12.490000 8.180000 12.070000 0 0 0
7735 2579 4 0 10.840000 5.980000 12.330000 0 0 0
7736 2579 3 0 10.700000 5.360000 12.750000 0 0 0
7737 2579 3 0 10.990000 6.600000 11.920000 0 0 0
7738 2580 1 0 8.780000 4.940000 12.620000 0 0 0
7739 2580 3 0 8.470000 4.330000 13.070000 0 0 0
7740 2580 2 0 9.060000 5.500000 12.200000 0 0 0
7741 2581 1 0 22.570000 20.400000 29.150000 0 0 0
7742 2581 2 0 22.760000 21.090000 29.380000 0 0 0
7743 2581 3 0 22.370000 19.660000 28.900000 0 0 0
7744 2582 4 0 23.640000 21.410000 30.800000 0 0 0
7745 2582 3 0 23.530000 22.130000 31.090000 0 0 0
7746 2582 3 0 23.750000 20.690000 30.510000 0 0 0
7747 2583 4 0 23.920000 22.220000 32.990000 0 0 0
7748 2583 3 0 24.650000 22.080000 32.880000 0 0 0
7749 2583 3 0 23.190000 22.360000 33.110000 0 0 0
7750 2584 4 0 24.840000 23.680000 34.580000 0 0 0
7751 2584 3 0 24.630000 23.120000 35.030000 0 0 0
7752 2584 3 0 25.050000 24.230000 34.130000 0 0 0
7753 2585 4 0 26.000000 25.220000 36.190000 0 0 0
7754 2585 3 0 25.860000 24.600000 36.610000 0 0 0
7755 2585 3 0 26.150000 25.840000 35.780000 0 0 0
7756 2586 1 0 27.560000 26.380000 37.340000 0 0 0
7757 2586 3 0 27.250000 25.770000 37.790000 0 0 0
7758 2586 2 0 27.840000 26.940000 36.920000 0 0 0
7759 2587 1 0 31.460000 13.740000 28.430000 0 0 0
7760 2587 2 0 31.650000 14.430000 28.660000 0 0 0
7761 2587 3 0 31.260000 13.000000 28.180000 0 0 0
7762 2588 4 0 30.170000 13.740000 30.560000 0 0 0
7763 2588 3 0 30.060000 14.460000 30.850000 0 0 0
7764 2588 3 0 30.280000 13.020000 30.270000 0 0 0
7765 2589 4 0 28.350000 13.460000 31.960000 0 0 0
7766 2589 3 0 29.080000 13.320000 31.850000 0 0 0
7767 2589 3 0 27.620000 13.610000 32.080000 0 0 0
7768 2590 4 0 26.600000 13.150000 33.630000 0 0 0
7769 2590 3 0 26.390000 12.600000 34.080000 0 0 0
7770 2590 3 0 26.810000 13.700000 33.180000 0 0 0
7771 2591 4 0 24.530000 13.650000 35.010000 0 0 0
7772 2591 3 0 24.380000 13.030000 35.420000 0 0 0
7773 2591 3 0 24.670000 14.270000 34.600000 0 0 0
7774 2592 1 0 24.130000 14.740000 37.130000 0 0 0
7775 2592 3 0 23.820000 14.130000 37.580000 0 0 0
7776 2592 2 0 24.410000 15.300000 36.710000 0 0 0
7777 2593 1 0 19.140000 5.970000 43.760000 0 0 0
7778 2593 2 0 19.330000 6.660000 43.990000 0 0 0
7779 2593 3 0 18.940000 5.230000 43.510000 0 0 0
7780 2594 4 0 17.730000 5.010000 41.850000 0 0 0
7781 2594 3 0 17.620000 5.730000 42.130000 0 0 0
7782 2594 3 0 17.840000 4.290000 41.560000 0 0 0
7783 2595 4 0 16.140000 6.270000 41.140000 0 0 0
7784 2595 3 0 16.870000 6.120000 41.030000 0 0 0
7785 2595 3 0 15.410000 6.410000 41.250000 0 0 0
7786 2596 4 0 15.220000 7.680000 39.570000 0 0 0
7787 2596 3 0 15.010000 7.130000 40.020000 0 0 0
7788 2596 3 0 15.430000 8.240000 39.120000 0 0 0
7789 2597 4 0 13.420000 8.610000 38.580000 0 0 0
7790 2597 3 0 13.280000 7.990000 39.000000 0 0 0
7791 2597 3 0 13.570000 9.230000 38.170000 0 0 0
7792 2598 1 0 13.410000 10.750000 38.080000 0 0 0
7793 2598 3 0 13.100000 10.140000 38.530000 0 0 0
7794 2598 2 0 13.690000 11.310000 37.660000 0 0 0
7795 2599 1 0 48.510000 32.020000 56.950000 0 0 0
7796 2599 2 0 48.700000 32.710000 57.180000 0 0 0
7797 2599 3 0 48.310000 31.280000 56.700000 0 0 0
7798 2600 4 0 48.200000 30.470000 55.370000 0 0 0
7799 2600 3 0 48.090000 31.190000 55.660000 0 0 0
7800 2600 3 0 48.310000 29.750000 55.080000 0 0 0
7801 2601 4 0 47.300000 29.200000 53.480000 0 0 0
7802 2601 3 0 48.030000 29.050000 53.370000 0 0 0
7803 2601 3 0 46.570000 29.340000 53.590000 0 0 0
7804 2602 4 0 46.530000 27.530000 51.880000 0 0 0
7805 2602 3 0 46.320000 26.980000 52.330000 0 0 0
7806 2602 3 0 46.740000 28.080000 51.430000 0 0 0
7807 2603 4 0 45.870000 25.640000 52.640000 0 0 0
7808 2603 3 0 45.720000 25.020000 53.060000 0 0 0
7809 2603 3 0 46.010000 26.260000 52.230000 0 0 0
7810 2604 1 0 46.250000 23.450000 53.190000 0 0 0
7811 2604 3 0 45.940000 22.840000 53.640000 0 0 0
7812 2604 2 0 46.530000 24.010000 52.770000 0 0 0
7813 2605 1 0 0.980000 52.320000 56.450000 0 0 0
7814 2605 2 0 1.170000 53.010000 56.680000 0 0 0
7815 2605 3 0 0.780000 51.580000 56.200000 0 0 0
7816 2606 4 0 2.500000 52.960000 0.450000 0 0 1
7817 2606 3 0 2.390000 53.680000 0.730000 0 0 1
7818 2606 3 0 2.610000 52.240000 0.170000 0 0 1
7819 2607 4 0 2.080000 53.820000 2.620000 0 0 1
7820 2607 3 0 2.810000 53.670000 2.510000 0 0 1
7821 2607 3 0 1.350000 53.960000 2.740000 0 0 1
7822 2608 4 0 1.270000 54.540000 4.930000 0 0 1
7823 2608 3 0 1.060000 53.980000 5.380000 0 0 1
7824 2608 3 0 1.480000 55.100000 4.480000 0 0 1
7825 2609 4 0 1.370000 55.030000 7.310000 0 0 1
7826 2609 3 0 1.230000 54.410000 7.730000 0 0 1
7827 2609 3 0 1.510000 55.650000 6.900000 0 0 1
7828 2610 1 0 0.950000 53.680000 9.070000 0 0 1
7829 2610 3 0 0.640000 53.070000 9.520000 0 0 1
7830 2610 2 0 1.230000 54.240000 8.650000 0 0 1
7831 2611 1 0 5.240000 15.460000 54.960000 0 0 0
7832 2611 2 0 5.430000 16.150000 55.190000 0 0 0
7833 2611 3 0 5.040000 14.720000 54.710000 0 0 0
7834 2612 4 0 4.700000 16.820000 56.660000 0 0 0
7835 2612 3 0 4.590000 17.540000 56.950000 0 0 0
7836 2612 3 0 4.810000 16.100000 56.380000 0 0 0
7837 2613 4 0 5.450000 17.900000 0.960000 0 0 1
7838 2613 3 0 6.180000 17.760000 0.850000 0 0 1
7839 2613 3 0 4.720000 18.040000 1.080000 0 0 1
7840 2614 4 0 5.720000 18.880000 2.970000 0 0 1
7841 2614 3 0 5.510000 18.330000 3.420000 0 0 1
7842 2614 3 0 5.930000 19.430000 2.520000 0 0 1
7843 2615 4 0 5.230000 21.070000 4.100000 0 0 1
7844 2615 3 0 5.090000 20.450000 4.520000 0 0 1
7845 2615 3 0 5.370000 21.690000 3.690000 0 0 1
7846 2616 1 0 4.670000 22.870000 5.380000 0 0 1
7847 2616 3 0 4.360000 22.260000 5.830000 0 0 1
7848 2616 2 0 4.950000 23.430000 4.960000 0 0 1
7849 2617 1 0 34.030000 10.860000 38.280000 0 0 0
7850 2617 2 0 34.220000 11.550000 38.510000 0 0 0
7851 2617 3 0 33.830000 10.120000 38.030000 0 0 0
7852 2618 4 0 32.260000 9.880000 39.850000 0 0 0
7853 2618 3 0 32.150000 10.600000 40.130000 0 0 0
7854 2618 3 0 32.370000 9.160000 39.570000 0 0 0
7855 2619 4 0 30.610000 8.650000 40.630000 0 0 0
7856 2619 3 0 31.340000 8.500000 40.510000 0 0 0
7857 2619 3 0 29.880000 8.790000 40.740000 0 0 0
7858 2620 4 0 28.760000 7.010000 41.550000 0 0 0
7859 2620 3 0 28.550000 6.450000 42.000000 0 0 0
7860 2620 3 0 28.970000 7.560000 41.100000 0 0 0
7861 2621 4 0 27.210000 5.570000 42.130000 0 0 0
7862 2621 3 0 27.070000 4.950000 42.550000 0 0 0
7863 2621 3 0 27.360000 6.190000 41.710000 0 0 0
7864 2622 1 0 27.300000 3.330000 41.380000 0 0 0
7865 2622 3 0 26.990000 2.720000 41.830000 0 0 0
7866 2622 2 0 27.580000 3.890000 40.960000 0 0 0
7867 2623 1 0 50.500000 3.970000 56.580000 0 0 0
7868 2623 2 0 50.690000 4.660000 56.810000 0 0 0
7869 2623 3 0 50.300000 3.230000 56.330000 0 0 0
7870 2624 4 0 48.690000 4.060000 0.750000 0 0 1
7871 2624 3 0 48.580000 4.780000 1.030000 0 0 1
7872 2624 3 0 48.800000 3.340000 0.470000 0 0 1
7873 2625 4 0 47.430000 3.100000 2.720000 0 0 1
7874 2625 3 0 48.160000 2.950000 2.610000 0 0 1
7875 2625 3 0 46.700000 3.240000 2.840000 0 0 1
7876 2626 4 0 46.990000 1.720000 4.720000 0 0 1
7877 2626 3 0 46.780000 1.160000 5.170000 0 0 1
7878 2626 3 0 47.200000 2.270000 4.270000 0 0 1
7879 2627 4 0 46.590000 0.100000 6.640000 0 0 1
7880 2627 3 0 46.440000 57.017600 7.060000 0 -1 1
7881 2627 3 0 46.730000 0.720000 6.230000 0 0 1
7882 2628 1 0 46.540000 55.470000 7.940000 0 -1 1
7883 2628 3 0 46.230000 54.860000 8.390000 0 -1 1
7884 2628 2 0 46.820000 56.030000 7.520000 0 -1 1
7885 2629 1 0 1.780000 52.950000 47.560000 0 0 0
7886 2629 2 0 1.970000 53.640000 47.790000 0 0 0
7887 2629 3 0 1.580000 52.210000 47.310000 0 0 0
7888 2630 4 0 3.970000 54.170000 47.890000 0 0 0
7889 2630 3 0 3.860000 54.890000 48.170000 0 0 0
7890 2630 3 0 4.080000 53.450000 47.600000 0 0 0
7891 2631 4 0 6.300000 55.150000 48.510000 0 0 0
7892 2631 3 0 7.030000 55.000000 48.400000 0 0 0
7893 2631 3 0 5.570000 55.290000 48.620000 0 0 0
7894 2632 4 0 7.970000 56.530000 49.480000 0 0 0
7895 2632 3 0 7.760000 55.970000 49.930000 0 0 0
7896 2632 3 0 8.180000 57.080000 49.030000 0 0 0
7897 2633 4 0 8.460000 56.890000 51.630000 0 0 0
7898 2633 3 0 8.320000 56.270000 52.050000 0 0 0
7899 2633 3 0 8.600000 57.510000 51.220000 0 0 0
7900 2634 1 0 7.720000 56.990000 54.000000 0 0 0
7901 2634 3 0 7.410000 56.380000 54.450000 0 0 0
7902 2634 2 0 8.000000 0.012400 53.580000 0 1 0
7903 2635 1 0 44.300000 4.270000 49.560000 0 0 0
7904 2635 2 0 44.490000 4.960000 49.790000 0 0 0
7905 2635 3 0 44.100000 3.530000 49.310000 0 0 0
7906 2636 4 0 42.170000 5.400000 48.990000 0 0 0
7907 2636 3 0 42.060000 6.120000 49.280000 0 0 0
7908 2636 3 0 42.280000 4.680000 48.700000 0 0 0
7909 2637 4 0 40.230000 7.020000 48.340000 0 0 0
7910 2637 3 0 40.960000 6.870000 48.220000 0 0 0
7911 2637 3 0 39.500000 7.160000 48.450000 0 0 0
7912 2638 4 0 38.350000 8.600000 47.890000 0 0 0
7913 2638 3 0 38.140000 8.040000 48.340000 0 0 0
7914 2638 3 0 38.560000 9.150000 47.440000 0 0 0
7915 2639 4 0 37.580000 10.710000 47.920000 0 0 0
7916 2639 3 0 37.440000 10.090000 48.330000 0 0 0
7917 2639 3 0 37.720000 11.330000 47.500000 0 0 0
7918 2640 1 0 36.010000 11.700000 49.760000 0 0 0
7919 2640 3 0 35.700000 11.090000 50.210000 0 0 0
7920 2640 2 0 36.290000 12.260000 49.340000 0 0 0
7921 2641 1 0 16.070000 52.760000 12.600000 0 0 0
7922 2641 2 0 16.260000 53.450000 12.830000 0 0 0
7923 2641 3 0 15.870000 52.020000 12.350000 0 0 0
7924 2642 4 0 18.330000 52.440000 12.700000 0 0 0
7925 2642 3 0 18.220000 53.160000 12.980000 0 0 0
7926 2642 3 0 18.440000 51.720000 12.420000 0 0 0
7927 2643 4 0 20.840000 52.490000 12.510000 0 0 0
7928 2643 3 0 21.570000 52.340000 12.400000 0 0 0
7929 2643 3 0 20.110000 52.630000 12.620000 0 0 0
7930 2644 4 0 23.350000 52.770000 12.240000 0 0 0
7931 2644 3 0 23.140000 52.210000 12.690000 0 0 0
7932 2644 3 0 23.560000 53.330000 11.790000 0 0 0
7933 2645 4 0 24.810000 51.270000 11.470000 0 0 0
7934 2645 3 0 24.660000 50.650000 11.890000 0 0 0
7935 2645 3 0 24.950000 51.890000 11.060000 0 0 0
7936 2646 1 0 25.110000 49.060000 11.710000 0 0 0
7937 2646 3 0 24.800000 48.450000 12.160000 0 0 0
7938 2646 2 0 25.390000 49.620000 11.290000 0 0 0
7939 2647 1 0 32.380000 42.210000 16.750000 0 0 0
7940 2647 2 0 32.570000 42.900000 16.980000 0 0 0
7941 2647 3 0 32.180000 41.470000 16.500000 0 0 0
7942 2648 4 0 30.610000 43.530000 17.170000 0 0 0
7943 2648 3 0 30.500000 44.250000 17.460000 0 0 0
7944 2648 3 0 30.720000 42.810000 16.890000 0 0 0
7945 2649 4 0 28.580000 42.250000 16.640000 0 0 0
7946 2649 3 0 29.310000 42.100000 16.530000 0 0 0
7947 2649 3 0 27.850000 42.390000 16.750000 0 0 0
7948 2650 4 0 26.690000 40.420000 16.190000 0 0 0
7949 2650 3 0 26.480000 39.860000 16.640000 0 0 0
7950 2650 3 0 26.900000 40.980000 15.740000 0 0 0
7951 2651 4 0 24.770000 38.780000 15.430000 0 0 0
7952 2651 3 0 24.620000 38.160000 15.850000 0 0 0
7953 2651 3 0 24.910000 39.400000 15.020000 0 0 0
7954 2652 1 0 23.680000 36.560000 15.420000 0 0 0
7955 2652 3 0 23.370000 35.950000 15.870000 0 0 0
7956 2652 2 0 23.960000 37.120000 15.000000 0 0 0
7957 2653 1 0 6.580000 53.660000 43.670000 0 0 0
7958 2653 2 0 6.770000 54.350000 43.900000 0 0 0
7959 2653 3 0 6.380000 52.920000 43.420000 0 0 0
7960 2654 4 0 6.620000 51.160000 43.970000 0 0 0
7961 2654 3 0 6.510000 51.880000 44.260000 0 0 0
7962 2654 3 0 6.730000 50.440000 43.690000 0 0 0
7963 2655 4 0 6.910000 49.440000 45.400000 0 0 0
7964 2655 3 0 7.640000 49.290000 45.290000 0 0 0
7965 2655 3 0 6.180000 49.580000 45.510000 0 0 0
7966 2656 4 0 6.970000 48.580000 47.780000 0 0 0
7967 2656 3 0 6.760000 48.020000 48.230000 0 0 0
7968 2656 3 0 7.180000 49.130000 47.330000 0 0 0
7969 2657 4 0 7.500000 50.160000 49.410000 0 0 0
7970 2657 3 0 7.360000 49.540000 49.820000 0 0 0
7971 2657 3 0 7.640000 50.780000 48.990000 0 0 0
7972 2658 1 0 7.980000 51.720000 51.370000 0 0 0
7973 2658 3 0 7.670000 51.110000 51.820000 0 0 0
7974 2658 2 0 8.260000 52.280000 50.950000 0 0 0
7975 2659 1 0 2.590000 17.740000 52.690000 0 0 0
7976 2659 2 0 2.780000 18.430000 52.920000 0 0 0
7977 2659 3 0 2.390000 17.000000 52.440000 0 0 0
7978 2660 4 0 2.950000 16.760000 50.720000 0 0 0
7979 2660 3 0 2.840000 17.480000 51.010000 0 0 0
7980 2660 3 0 3.060000 16.040000 50.430000 0 0 0
7981 2661 4 0 3.920000 14.850000 50.820000 0 0 0
7982 2661 3 0 4.650000 14.700000 50.710000 0 0 0
7983 2661 3 0 3.190000 15.000000 50.930000 0 0 0
7984 2662 4 0 3.860000 13.170000 49.290000 0 0 0
7985 2662 3 0 3.650000 12.610000 49.740000 0 0 0
7986 2662 3 0 4.070000 13.730000 48.840000 0 0 0
7987 2663 4 0 2.690000 11.360000 47.930000 0 0 0
7988 2663 3 0 2.550000 10.740000 48.350000 0 0 0
7989 2663 3 0 2.830000 11.980000 47.520000 0 0 0
7990 2664 1 0 1.040000 10.910000 46.070000 0 0 0
7991 2664 3 0 0.730000 10.300000 46.520000 0 0 0
7992 2664 2 0 1.320000 11.470000 45.650000 0 0 0
7993 2665 1 0 15.430000 15.450000 19.190000 0 0 0
7994 2665 2 0 15.620000 16.140000 19.420000 0 0 0
7995 2665 3 0 15.230000 14.710000 18.940000 0 0 0
7996 2666 4 0 13.360000 14.580000 19.640000 0 0 0
7997 2666 3 0 13.250000 15.300000 19.920000 0 0 0
7998 2666 3 0 13.470000 13.860000 19.350000 0 0 0
7999 2667 4 0 11.050000 14.140000 19.190000 0 0 0
8000 2667 3 0 11.780000 13.990000 19.080000 0 0 0
8001 2667 3 0 10.320000 14.280000 19.310000 0 0 0
8002 2668 4 0 9.400000 15.020000 17.500000 0 0 0
8003 2668 3 0 9.190000 14.460000 17.950000 0 0 0
8004 2668 3 0 9.610000 15.580000 17.050000 0 0 0
8005 2669 4 0 7.850000 16.050000 15.690000 0 0 0
8006 2669 3 0 7.710000 15.430000 16.110000 0 0 0
8007 2669 3 0 7.990000 16.670000 15.280000 0 0 0
8008 2670 1 0 6.200000 16.410000 13.820000 0 0 0
8009 2670 3 0 5.890000 15.800000 14.270000 0 0 0
8010 2670 2 0 6.480000 16.970000 13.400000 0 0 0
8011 2671 1 0 29.690000 4.760000 0.750000 0 0 0
8012 2671 2 0 29.880000 5.450000 0.980000 0 0 0
8013 2671 3 0 29.490000 4.020000 0.500000 0 0 0
8014 2672 4 0 31.330000 3.960000 2.510000 0 0 0
8015 2672 3 0 31.220000 4.680000 2.790000 0 0 0
8016 2672 3 0 31.440000 3.240000 2.230000 0 0 0
8017 2673 4 0 33.020000 3.010000 4.000000 0 0 0
8018 2673 3 0 33.750000 2.860000 3.890000 0 0 0
8019 2673 3 0 32.290000 3.150000 4.120000 0 0 0
8020 2674 4 0 34.640000 2.290000 5.750000 0 0 0
8021 2674 3 0 34.430000 1.740000 6.200000 0 0 0
8022 2674 3 0 34.850000 2.840000 5.300000 0 0 0
8023 2675 4 0 36.970000 3.040000 5.840000 0 0 0
8024 2675 3 0 36.830000 2.420000 6.260000 0 0 0
8025 2675 3 0 37.120000 3.660000 5.430000 0 0 0
8026 2676 1 0 38.910000 3.940000 6.080000 0 0 0
8027 2676 3 0 38.600000 3.330000 6.530000 0 0 0
8028 2676 2 0 39.190000 4.500000 5.660000 0 0 0
8029 2677 1 0 32.090000 47.350000 55.510000 0 0 0
8030 2677 2 0 32.280000 48.040000 55.740000 0 0 0
8031 2677 3 0 31.890000 46.610000 55.260000 0 0 0
8032 2678 4 0 32.710000 46.910000 53.420000 0 0 0
8033 2678 3 0 32.600000 47.630000 53.700000 0 0 0
8034 2678 3 0 32.820000 46.190000 53.130000 0 0 0
8035 2679 4 0 33.520000 46.460000 51.100000 0 0 0
8036 2679 3 0 34.250000 46.310000 50.990000 0 0 0
8037 2679 3 0 32.790000 46.600000 51.220000 0 0 0
8038 2680 4 0 34.270000 44.980000 49.390000 0 0 0
8039 2680 3 0 34.060000 44.420000 49.840000 0 0 0
8040 2680 3 0 34.480000 45.540000 48.940000 0 0 0
8041 2681 4 0 34.660000 43.850000 47.160000 0 0 0
8042 2681 3 0 34.520000 43.230000 47.580000 0 0 0
8043 2681 3 0 34.810000 44.470000 46.750000 0 0 0
8044 2682 1 0 36.040000 43.280000 45.200000 0 0 0
8045 2682 3 0 35.730000 42.670000 45.650000 0 0 0
8046 2682 2 0 36.320000 43.840000 44.780000 0 0 0
8047 2683 1 0 9.150000 0.470000 14.710000 0 0 0
8048 2683 2 0 9.340000 1.160000 14.940000 0 0 0
8049 2683 3 0 8.950000 57.267600 14.460000 0 -1 0
8050 2684 4 0 10.650000 56.750000 16.210000 0 -1 0
8051 2684 3 0 10.540000 57.470000 16.490000 0 -1 0
8052 2684 3 0 10.760000 56.030000 15.930000 0 -1 0
8053 2685 4 0 10.860000 55.430000 18.050000 0 -1 0
8054 2685 3 0 11.590000 55.290000 17.940000 0 -1 0
8055 2685 3 0 10.130000 55.580000 18.170000 0 -1 0
8056 2686 4 0 11.210000 54.330000 20.020000 0 -1 0
8057 2686 3 0 11.000000 53.770000 20.470000 0 -1 0
8058 2686 3 0 11.420000 54.890000 19.570000 0 -1 0
8059 2687 4 0 11.340000 52.970000 21.750000 0 -1 0
8060 2687 3 0 11.190000 52.350000 22.160000 0 -1 0
8061 2687 3 0 11.480000 53.590000 21.330000 0 -1 0
8062 2688 1 0 10.840000 51.180000 23.150000 0 -1 0
8063 2688 3 0 10.530000 50.570000 23.600000 0 -1 0
8064 2688 2 0 11.120000 51.740000 22.730000 0 -1 0
8065 2689 1 0 11.870000 53.390000 49.660000 0 0 0
8066 2689 2 0 12.060000 54.080000 49.890000 0 0 0
8067 2689 3 0 11.670000 52.650000 49.410000 0 0 0
8068 2690 4 0 12.730000 51.860000 48.210000 0 0 0
8069 2690 3 0 12.620000 52.580000 48.490000 0 0 0
8070 2690 3 0 12.840000 51.140000 47.920000 0 0 0
8071 2691 4 0 14.010000 50.530000 46.830000 0 0 0
8072 2691 3 0 14.740000 50.380000 46.710000 0 0 0
8073 2691 3 0 13.280000 50.670000 46.940000 0 0 0
8074 2692 4 0 15.180000 49.210000 44.900000 0 0 0
8075 2692 3 0 14.970000 48.650000 45.350000 0 0 0
8076 2692 3 0 15.390000 49.770000 44.450000 0 0 0
8077 2693 4 0 15.760000 47.850000 43.200000 0 0 0
8078 2693 3 0 15.620000 47.230000 43.620000 0 0 0
8079 2693 3 0 15.910000 48.470000 42.790000 0 0 0
8080 2694 1 0 16.530000 45.680000 42.180000 0 0 0
8081 2694 3 0 16.220000 45.070000 42.630000 0 0 0
8082 2694 2 0 16.810000 46.240000 41.760000 0 0 0
8083 2695 1 0 0.940000 54.460000 42.230000 0 0 0
8084 2695 2 0 1.130000 55.150000 42.460000 0 0 0
8085 2695 3 0 0.740000 53.720000 41.980000 0 0 0
8086 2696 4 0 0.040000 52.410000 42.420000 0 0 0
8087 2696 3 0 57.467600 53.130000 42.710000 -1 0 0
8088 2696 3 0 0.150000 51.690000 42.130000 0 0 0
8089 2697 4 0 56.080000 51.750000 44.280000 -1 0 0
8090 2697 3 0 56.810000 51.600000 44.170000 -1 0 0
8091 2697 3 0 55.350000 51.890000 44.390000 -1 0 0
8092 2698 4 0 53.540000 51.910000 43.870000 -1 0 0
8093 2698 3 0 53.330000 51.350000 44.320000 -1 0 0
8094 2698 3 0 53.750000 52.470000 43.420000 -1 0 0
8095 2699 4 0 52.130000 53.500000 44.860000 -1 0 0
8096 2699 3 0 51.990000 52.880000 45.270000 -1 0 0
8097 2699 3 0 52.280000 54.120000 44.440000 -1 0 0
8098 2700 1 0 50.560000 54.790000 46.170000 -1 0 0
8099 2700 3 0 50.250000 54.180000 46.620000 -1 0 0
8100 2700 2 0 50.840000 55.350000 45.750000 -1 0 0
8101 2701 1 0 43.550000 9.990000 23.890000 0 0 0
8102 2701 2 0 43.740000 10.680000 24.120000 0 0 0
8103 2701 3 0 43.350000 9.250000 23.640000 0 0 0
8104 2702 4 0 44.670000 10.550000 26.150000 0 0 0
8105 2702 3 0 44.560000 11.270000 26.440000 0 0 0
8106 2702 3 0 44.780000 9.830000 25.870000 0 0 0
8107 2703 4 0 46.170000 10.810000 28.210000 0 0 0
8108 2703 3 0 46.900000 10.670000 28.100000 0 0 0
8109 2703 3 0 45.440000 10.950000 28.330000 0 0 0
8110 2704 4 0 47.740000 11.180000 29.830000 0 0 0
8111 2704 3 0 47.530000 10.620000 30.280000 0 0 0
8112 2704 3 0 47.950000 11.740000 29.380000 0 0 0
8113 2705 4 0 49.590000 11.400000 31.500000 0 0 0
8114 2705 3 0 49.440000 10.780000 31.920000 0 0 0
8115 2705 3 0 49.730000 12.020000 31.090000 0 0 0
8116 2706 1 0 51.230000 11.800000 32.940000 0 0 0
8117 2706 3 0 50.920000 11.190000 33.390000 0 0 0
8118 2706 2 0 51.510000 12.360000 32.520000 0 0 0
8119 2707 1 0 54.540000 37.860000 29.010000 0 0 0
8120 2707 2 0 54.730000 38.550000 29.240000 0 0 0
8121 2707 3 0 54.340000 37.120000 28.760000 0 0 0
8122 2708 4 0 55.840000 35.900000 28.220000 0 0 0
8123 2708 3 0 55.730000 36.620000 28.510000 0 0 0
8124 2708 3 0 55.950000 35.180000 27.930000 0 0 0
8125 2709 4 0 0.170000 34.610000 27.490000 1 0 0
8126 2709 3 0 0.900000 34.460000 27.380000 1 0 0
8127 2709 3 0 56.977600 34.750000 27.610000 0 0 0
8128 2710 4 0 2.060000 33.050000 27.880000 1 0 0
8129 2710 3 0 1.850000 32.500000 28.330000 1 0 0
8130 2710 3 0 2.270000 33.610000 27.430000 1 0 0
8131 2711 4 0 3.860000 31.410000 28.400000 1 0 0
8132 2711 3 0 3.720000 30.790000 28.810000 1 0 0
8133 2711 3 0 4.000000 32.030000 27.980000 1 0 0
8134 2712 1 0 5.700000 30.070000 29.370000 1 0 0
8135 2712 3 0 5.390000 29.460000 29.820000 1 0 0
8136 2712 2 0 5.980000 30.630000 28.950000 1 0 0
8137 2713 1 0 39.220000 11.360000 10.230000 0 0 0
8138 2713 2 0 39.410000 12.050000 10.460000 0 0 0
8139 2713 3 0 39.020000 10.620000 9.980000 0 0 0
8140 2714 4 0 41.390000 12.110000 9.190000 0 0 0
8141 2714 3 0 41.280000 12.830000 9.480000 0 0 0
8142 2714 3 0 41.500000 11.390000 8.910000 0 0 0
8143 2715 4 0 43.470000 12.630000 8.320000 0 0 0
8144 2715 3 0 44.200000 12.480000 8.210000 0 0 0
8145 2715 3 0 42.740000 12.770000 8.440000 0 0 0
8146 2716 4 0 44.080000 12.170000 6.220000 0 0 0
8147 2716 3 0 43.870000 11.620000 6.670000 0 0 0
8148 2716 3 0 44.290000 12.720000 5.770000 0 0 0
8149 2717 4 0 44.340000 10.430000 4.370000 0 0 0
8150 2717 3 0 44.200000 9.810000 4.790000 0 0 0
8151 2717 3 0 44.490000 11.050000 3.960000 0 0 0
8152 2718 1 0 44.730000 8.970000 2.570000 0 0 0
8153 2718 3 0 44.420000 8.360000 3.020000 0 0 0
8154 2718 2 0 45.010000 9.530000 2.150000 0 0 0
8155 2719 1 0 9.260000 0.590000 23.290000 0 0 0
8156 2719 2 0 9.450000 1.280000 23.520000 0 0 0
8157 2719 3 0 9.060000 57.387600 23.040000 0 -1 0
8158 2720 4 0 10.260000 1.430000 21.240000 0 0 0
8159 2720 3 0 10.150000 2.150000 21.520000 0 0 0
8160 2720 3 0 10.370000 0.710000 20.960000 0 0 0
8161 2721 4 0 9.290000 2.940000 19.520000 0 0 0
8162 2721 3 0 10.020000 2.790000 19.410000 0 0 0
8163 2721 3 0 8.560000 3.080000 19.640000 0 0 0
8164 2722 4 0 8.960000 3.990000 17.340000 0 0 0
8165 2722 3 0 8.750000 3.440000 17.790000 0 0 0
8166 2722 3 0 9.170000 4.550000 16.890000 0 0 0
8167 2723 4 0 7.190000 5.410000 16.980000 0 0 0
8168 2723 3 0 7.050000 4.790000 17.400000 0 0 0
8169 2723 3 0 7.330000 6.030000 16.570000 0 0 0
8170 2724 1 0 5.290000 7.080000 16.920000 0 0 0
8171 2724 3 0 4.980000 6.470000 17.370000 0 0 0
8172 2724 2 0 5.570000 7.640000 16.500000 0 0 0
8173 2725 1 0 54.460000 56.790000 57.380000 0 0 0
8174 2725 2 0 54.650000 57.480000 0.072400 0 0 1
8175 2725 3 0 54.260000 56.050000 57.130000 0 0 0
8176 2726 4 0 54.560000 55.230000 1.460000 0 0 1
8177 2726 3 0 54.450000 55.950000 1.740000 0 0 1
8178 2726 3 0 54.670000 54.510000 1.180000 0 0 1
8179 2727 4 0 54.690000 54.260000 3.740000 0 0 1
8180 2727 3 0 55.420000 54.120000 3.630000 0 0 1
8181 2727 3 0 53.960000 54.410000 3.860000 0 0 1
8182 2728 4 0 54.050000 52.720000 5.470000 0 0 1
8183 2728 3 0 53.840000 52.160000 5.920000 0 0 1
8184 2728 3 0 54.260000 53.280000 5.020000 0 0 1
8185 2729 4 0 54.620000 51.830000 7.410000 0 0 1
8186 2729 3 0 54.470000 51.210000 7.830000 0 0 1
8187 2729 3 0 54.760000 52.450000 7.000000 0 0 1
8188 2730 1 0 54.940000 51.150000 9.670000 0 0 1
8189 2730 3 0 54.630000 50.540000 10.120000 0 0 1
8190 2730 2 0 55.220000 51.710000 9.250000 0 0 1
8191 2731 1 0 47.120000 9.150000 41.260000 0 0 0
8192 2731 2 0 47.310000 9.840000 41.490000 0 0 0
8193 2731 3 0 46.920000 8.410000 41.010000 0 0 0
8194 2732 4 0 48.720000 9.360000 43.250000 0 0 0
8195 2732 3 0 48.610000 10.080000 43.540000 0 0 0
8196 2732 3 0 48.830000 8.640000 42.960000 0 0 0
8197 2733 4 0 48.470000 10.630000 45.440000 0 0 0
8198 2733 3 0 49.200000 10.480000 45.320000 0 0 0
8199 2733 3 0 47.740000 10.770000 45.550000 0 0 0
8200 2734 4 0 47.890000 11.690000 47.640000 0 0 0
8201 2734 3 0 47.680000 11.140000 48.090000 0 0 0
8202 2734 3 0 48.100000 12.240000 47.190000 0 0 0
8203 2735 4 0 47.180000 12.440000 49.670000 0 0 0
8204 2735 3 0 47.040000 11.820000 50.080000 0 0 0
8205 2735 3 0 47.320000 13.060000 49.250000 0 0 0
8206 2736 1 0 47.360000 12.120000 51.840000 0 0 0
8207 2736 3 0 47.050000 11.510000 52.290000 0 0 0
8208 2736 2 0 47.640000 12.680000 51.420000 0 0 0
8209 2737 1 0 23.610000 27.920000 10.140000 0 0 0
8210 2737 2 0 23.800000 28.610000 10.370000 0 0 0
8211 2737 3 0 23.410000 27.180000 9.890000 0 0 0
8212 2738 4 0 24.340000 30.310000 9.700000 0 0 0
8213 2738 3 0 24.230000 31.030000 9.980000 0 0 0
8214 2738 3 0 24.450000 29.590000 9.420000 0 0 0
8215 2739 4 0 25.050000 32.720000 9.820000 0 0 0
8216 2739 3 0 25.780000 32.570000 9.710000 0 0 0
8217 2739 3 0 24.320000 32.860000 9.940000 0 0 0
8218 2740 4 0 23.810000 34.450000 10.350000 0 0 0
8219 2740 3 0 23.600000 33.890000 10.800000 0 0 0
8220 2740 3 0 24.020000 35.000000 9.900000 0 0 0
8221 2741 4 0 21.910000 35.750000 11.540000 0 0 0
8222 2741 3 0 21.760000 35.130000 11.960000 0 0 0
8223 2741 3 0 22.050000 36.370000 11.130000 0 0 0
8224 2742 1 0 19.720000 34.770000 12.190000 0 0 0
8225 2742 3 0 19.410000 34.160000 12.640000 0 0 0
8226 2742 2 0 20.000000 35.330000 11.770000 0 0 0
8227 2743 1 0 27.540000 51.930000 34.430000 0 0 0
8228 2743 2 0 27.730000 52.620000 34.660000 0 0 0
8229 2743 3 0 27.340000 51.190000 34.180000 0 0 0
8230 2744 4 0 25.550000 50.340000 34.540000 0 0 0
8231 2744 3 0 25.440000 51.060000 34.820000 0 0 0
8232 2744 3 0 25.660000 49.620000 34.260000 0 0 0
8233 2745 4 0 24.380000 48.370000 35.000000 0 0 0
8234 2745 3 0 25.110000 48.220000 34.890000 0 0 0
8235 2745 3 0 23.650000 48.510000 35.110000 0 0 0
8236 2746 4 0 23.500000 46.400000 35.370000 0 0 0
8237 2746 3 0 23.290000 45.840000 35.820000 0 0 0
8238 2746 3 0 23.710000 46.960000 34.920000 0 0 0
8239 2747 4 0 22.660000 44.330000 34.460000 0 0 0
8240 2747 3 0 22.520000 43.710000 34.880000 0 0 0
8241 2747 3 0 22.800000 44.950000 34.050000 0 0 0
8242 2748 1 0 21.960000 42.510000 33.220000 0 0 0
8243 2748 3 0 21.650000 41.900000 33.670000 0 0 0
8244 2748 2 0 22.240000 43.070000 32.800000 0 0 0
8245 2749 1 0 38.800000 24.420000 18.210000 0 0 0
8246 2749 2 0 38.990000 25.110000 18.440000 0 0 0
8247 2749 3 0 38.600000 23.680000 17.960000 0 0 0
8248 2750 4 0 40.350000 24.030000 16.220000 0 0 0
8249 2750 3 0 40.240000 24.750000 16.510000 0 0 0
8250 2750 3 0 40.460000 23.310000 15.940000 0 0 0
8251 2751 4 0 41.580000 24.200000 14.040000 0 0 0
8252 2751 3 0 42.310000 24.050000 13.930000 0 0 0
8253 2751 3 0 40.850000 24.340000 14.150000 0 0 0
8254 2752 4 0 44.110000 24.020000 13.700000 0 0 0
8255 2752 3 0 43.900000 23.470000 14.150000 0 0 0
8256 2752 3 0 44.320000 24.580000 13.250000 0 0 0
8257 2753 4 0 45.610000 23.710000 11.790000 0 0 0
8258 2753 3 0 45.460000 23.090000 12.210000 0 0 0
8259 2753 3 0 45.750000 24.330000 11.380000 0 0 0
8260 2754 1 0 45.530000 22.260000 9.960000 0 0 0
8261 2754 3 0 45.220000 21.650000 10.410000 0 0 0
8262 2754 2 0 45.810000 22.820000 9.540000 0 0 0
8263 2755 1 0 20.380000 3.160000 19.220000 0 0 0
8264 2755 2 0 20.570000 3.850000 19.450000 0 0 0
8265 2755 3 0 20.180000 2.420000 18.970000 0 0 0
8266 2756 4 0 20.200000 1.620000 17.770000 0 0 0
8267 2756 3 0 20.090000 2.340000 18.050000 0 0 0
8268 2756 3 0 20.310000 0.900000 17.480000 0 0 0
8269 2757 4 0 22.030000 0.390000 16.490000 0 0 0
8270 2757 3 0 22.760000 0.240000 16.380000 0 0 0
8271 2757 3 0 21.300000 0.530000 16.610000 0 0 0
8272 2758 4 0 23.420000 56.420000 15.100000 0 -1 0
8273 2758 3 0 23.210000 55.870000 15.550000 0 -1 0
8274 2758 3 0 23.630000 56.980000 14.650000 0 -1 0
8275 2759 4 0 25.670000 55.410000 14.850000 0 -1 0
8276 2759 3 0 25.530000 54.790000 15.270000 0 -1 0
8277 2759 3 0 25.820000 56.030000 14.440000 0 -1 0
8278 2760 1 0 27.940000 55.640000 14.590000 0 -1 0
8279 2760 3 0 27.630000 55.030000 15.040000 0 -1 0
8280 2760 2 0 28.220000 56.200000 14.170000 0 -1 0
8281 2761 1 0 8.620000 33.720000 40.310000 0 0 0
8282 2761 2 0 8.810000 34.410000 40.540000 0 0 0
8283 2761 3 0 8.420000 32.980000 40.060000 0 0 0
8284 2762 4 0 9.340000 32.210000 42.210000 0 0 0
8285 2762 3 0 9.230000 32.930000 42.500000 0 0 0
8286 2762 3 0 9.450000 31.490000 41.920000 0 0 0
8287 2763 4 0 10.590000 31.330000 44.270000 0 0 0
8288 2763 3 0 11.320000 31.190000 44.150000 0 0 0
8289 2763 3 0 9.860000 31.470000 44.380000 0 0 0
8290 2764 4 0 12.430000 30.020000 45.170000 0 0 0
8291 2764 3 0 12.220000 29.460000 45.620000 0 0 0
8292 2764 3 0 12.640000 30.570000 44.720000 0 0 0
8293 2765 4 0 13.340000 28.110000 46.440000 0 0 0
8294 2765 3 0 13.200000 27.490000 46.860000 0 0 0
8295 2765 3 0 13.490000 28.730000 46.030000 0 0 0
8296 2766 1 0 14.700000 27.670000 48.140000 0 0 0
8297 2766 3 0 14.390000 27.060000 48.590000 0 0 0
8298 2766 2 0 14.980000 28.230000 47.720000 0 0 0
8299 2767 1 0 29.220000 34.600000 29.930000 0 0 0
8300 2767 2 0 29.410000 35.290000 30.160000 0 0 0
8301 2767 3 0 29.020000 33.860000 29.680000 0 0 0
8302 2768 4 0 27.500000 36.430000 29.590000 0 0 0
8303 2768 3 0 27.390000 37.150000 29.870000 0 0 0
8304 2768 3 0 27.610000 35.710000 29.310000 0 0 0
8305 2769 4 0 26.960000 38.560000 29.240000 0 0 0
8306 2769 3 0 27.690000 38.410000 29.130000 0 0 0
8307 2769 3 0 26.230000 38.700000 29.360000 0 0 0
8308 2770 4 0 25.840000 40.740000 28.970000 0 0 0
8309 2770 3 0 25.630000 40.180000 29.420000 0 0 0
8310 2770 3 0 26.050000 41.300000 28.520000 0 0 0
8311 2771 4 0 24.490000 42.930000 28.660000 0 0 0
8312 2771 3 0 24.340000 42.310000 29.080000 0 0 0
8313 2771 3 0 24.630000 43.550000 28.250000 0 0 0
8314 2772 1 0 22.080000 42.910000 28.400000 0 0 0
8315 2772 3 0 21.770000 42.300000 28.850000 0 0 0
8316 2772 2 0 22.360000 43.470000 27.980000 0 0 0
8317 2773 1 0 40.350000 18.300000 0.200000 0 0 0
8318 2773 2 0 40.540000 18.990000 0.430000 0 0 0
8319 2773 3 0 40.150000 17.560000 57.487600 0 0 -1
8320 2774 4 0 41.790000 16.600000 1.350000 0 0 0
8321 2774 3 0 41.680000 17.320000 1.630000 0 0 0
8322 2774 3 0 41.900000 15.880000 1.070000 0 0 0
8323 2775 4 0 42.650000 15.090000 2.770000 0 0 0
8324 2775 3 0 43.380000 14.940000 2.660000 0 0 0
8325 2775 3 0 41.920000 15.230000 2.890000 0 0 0
8326 2776 4 0 44.370000 13.670000 1.430000 0 0 0
8327 2776 3 0 44.160000 13.120000 1.880000 0 0 0
8328 2776 3 0 44.580000 14.220000 0.980000 0 0 0
8329 2777 4 0 45.290000 14.100000 56.790000 0 0 -1
8330 2777 3 0 45.140000 13.480000 57.210000 0 0 -1
8331 2777 3 0 45.430000 14.720000 56.380000 0 0 -1
8332 2778 1 0 44.070000 14.330000 54.830000 0 0 -1
8333 2778 3 0 43.760000 13.720000 55.280000 0 0 -1
8334 2778 2 0 44.350000 14.890000 54.410000 0 0 -1
8335 2779 1 0 16.410000 28.800000 8.040000 0 0 0
8336 2779 2 0 16.600000 29.490000 8.270000 0 0 0
8337 2779 3 0 16.210000 28.060000 7.790000 0 0 0
8338 2780 4 0 16.140000 30.910000 7.220000 0 0 0
8339 2780 3 0 16.030000 31.630000 7.500000 0 0 0
8340 2780 3 0 16.250000 30.190000 6.940000 0 0 0
8341 2781 4 0 14.390000 32.360000 6.790000 0 0 0
8342 2781 3 0 15.120000 32.220000 6.680000 0 0 0
8343 2781 3 0 13.660000 32.510000 6.910000 0 0 0
8344 2782 4 0 12.760000 33.940000 6.650000 0 0 0
8345 2782 3 0 12.550000 33.390000 7.100000 0 0 0
8346 2782 3 0 12.970000 34.500000 6.200000 0 0 0
8347 2783 4 0 11.550000 36.040000 6.860000 0 0 0
8348 2783 3 0 11.410000 35.420000 7.280000 0 0 0
8349 2783 3 0 11.690000 36.660000 6.450000 0 0 0
8350 2784 1 0 10.360000 38.280000 6.830000 0 0 0
8351 2784 3 0 10.050000 37.670000 7.280000 0 0 0
8352 2784 2 0 10.640000 38.840000 6.410000 0 0 0
8353 2785 1 0 34.510000 3.460000 25.570000 0 0 0
8354 2785 2 0 34.700000 4.150000 25.800000 0 0 0
8355 2785 3 0 34.310000 2.720000 25.320000 0 0 0
8356 2786 4 0 32.950000 4.380000 23.810000 0 0 0
8357 2786 3 0 32.840000 5.100000 24.090000 0 0 0
8358 2786 3 0 33.060000 3.660000 23.530000 0 0 0
8359 2787 4 0 30.900000 3.020000 23.340000 0 0 0
8360 2787 3 0 31.630000 2.870000 23.230000 0 0 0
8361 2787 3 0 30.170000 3.160000 23.460000 0 0 0
8362 2788 4 0 28.780000 1.690000 23.030000 0 0 0
8363 2788 3 0 28.570000 1.140000 23.480000 0 0 0
8364 2788 3 0 28.990000 2.250000 22.580000 0 0 0
8365 2789 4 0 27.360000 0.720000 21.130000 0 0 0
8366 2789 3 0 27.220000 0.100000 21.550000 0 0 0
8367 2789 3 0 27.510000 1.340000 20.720000 0 0 0
8368 2790 1 0 25.820000 0.860000 19.060000 0 0 0
8369 2790 3 0 25.510000 0.250000 19.510000 0 0 0
8370 2790 2 0 26.100000 1.420000 18.640000 0 0 0
8371 2791 1 0 50.580000 8.230000 19.980000 0 0 0
8372 2791 2 0 50.770000 8.920000 20.210000 0 0 0
8373 2791 3 0 50.380000 7.490000 19.730000 0 0 0
8374 2792 4 0 51.680000 9.880000 21.210000 0 0 0
8375 2792 3 0 51.570000 10.600000 21.490000 0 0 0
8376 2792 3 0 51.790000 9.160000 20.930000 0 0 0
8377 2793 4 0 52.970000 11.310000 22.420000 0 0 0
8378 2793 3 0 53.700000 11.160000 22.310000 0 0 0
8379 2793 3 0 52.240000 11.450000 22.530000 0 0 0
8380 2794 4 0 54.570000 12.580000 23.450000 0 0 0
8381 2794 3 0 54.360000 12.030000 23.900000 0 0 0
8382 2794 3 0 54.780000 13.130000 23.000000 0 0 0
8383 2795 4 0 56.210000 12.100000 24.940000 0 0 0
8384 2795 3 0 56.070000 11.480000 25.360000 0 0 0
8385 2795 3 0 56.360000 12.720000 24.530000 0 0 0
8386 2796 1 0 0.660000 11.800000 26.370000 1 0 0
8387 2796 3 0 0.350000 11.190000 26.820000 1 0 0
8388 2796 2 0 0.940000 12.360000 25.950000 1 0 0
8389 2797 1 0 20.730000 14.760000 45.560000 0 0 0
8390 2797 2 0 20.920000 15.450000 45.790000 0 0 0
8391 2797 3 0 20.530000 14.020000 45.310000 0 0 0
8392 2798 4 0 18.490000 14.640000 44.700000 0 0 0
8393 2798 3 0 18.380000 15.360000 44.980000 0 0 0
8394 2798 3 0 18.600000 13.920000 44.410000 0 0 0
8395 2799 4 0 16.720000 13.280000 43.790000 0 0 0
8396 2799 3 0 17.450000 13.130000 43.670000 0 0 0
8397 2799 3 0 15.990000 13.430000 43.900000 0 0 0
8398 2800 4 0 15.220000 11.710000 43.630000 0 0 0
8399 2800 3 0 15.010000 11.150000 44.080000 0 0 0
8400 2800 3 0 15.430000 12.270000 43.180000 0 0 0
8401 2801 4 0 13.100000 11.610000 42.300000 0 0 0
8402 2801 3 0 12.960000 10.990000 42.720000 0 0 0
8403 2801 3 0 13.250000 12.230000 41.890000 0 0 0
8404 2802 1 0 10.970000 11.850000 41.660000 0 0 0
8405 2802 3 0 10.660000 11.240000 42.110000 0 0 0
8406 2802 2 0 11.250000 12.410000 41.240000 0 0 0
8407 2803 1 0 49.790000 0.450000 41.280000 0 0 0
8408 2803 2 0 49.980000 1.140000 41.510000 0 0 0
8409 2803 3 0 49.590000 57.247600 41.030000 0 -1 0
8410 2804 4 0 47.740000 0.700000 42.510000 0 0 0
8411 2804 3 0 47.630000 1.420000 42.800000 0 0 0
8412 2804 3 0 47.850000 57.517600 42.230000 0 -1 0
8413 2805 4 0 46.560000 0.380000 44.620000 0 0 0
8414 2805 3 0 47.290000 0.230000 44.500000 0 0 0
8415 2805 3 0 45.830000 0.520000 44.730000 0 0 0
8416 2806 4 0 44.830000 1.110000 46.420000 0 0 0
8417 2806 3 0 44.620000 0.560000 46.870000 0 0 0
8418 2806 3 0 45.040000 1.660000 45.970000 0 0 0
8419 2807 4 0 42.470000 1.330000 47.100000 0 0 0
8420 2807 3 0 42.320000 0.710000 47.520000 0 0 0
8421 2807 3 0 42.610000 1.950000 46.680000 0 0 0
8422 2808 1 0 40.100000 1.400000 47.700000 0 0 0
8423 2808 3 0 39.790000 0.790000 48.150000 0 0 0
8424 2808 2 0 40.380000 1.960000 47.280000 0 0 0
8425 2809 1 0 23.170000 37.290000 55.570000 0 0 0
8426 2809 2 0 23.360000 37.980000 55.800000 0 0 0
8427 2809 3 0 22.970000 36.550000 55.320000 0 0 0
8428 2810 4 0 23.750000 36.250000 0.190000 0 0 1
8429 2810 3 0 23.640000 36.970000 0.470000 0 0 1
8430 2810 3 0 23.860000 35.530000 57.447600 0 0 0
8431 2811 4 0 22.420000 34.580000 0.950000 0 0 1
8432 2811 3 0 23.150000 34.440000 0.840000 0 0 1
8433 2811 3 0 21.690000 34.730000 1.070000 0 0 1
8434 2812 4 0 23.350000 32.410000 1.530000 0 0 1
8435 2812 3 0 23.140000 31.860000 1.980000 0 0 1
8436 2812 3 0 23.560000 32.960000 1.080000 0 0 1
8437 2813 4 0 23.590000 30.180000 0.420000 0 0 1
8438 2813 3 0 23.450000 29.560000 0.840000 0 0 1
8439 2813 3 0 23.730000 30.800000 0.010000 0 0 1
8440 2814 1 0 22.630000 28.580000 56.400000 0 0 0
8441 2814 3 0 22.320000 27.970000 56.850000 0 0 0
8442 2814 2 0 22.910000 29.140000 55.980000 0 0 0
8443 2815 1 0 46.940000 2.900000 23.210000 0 0 0
8444 2815 2 0 47.130000 3.590000 23.440000 0 0 0
8445 2815 3 0 46.740000 2.160000 22.960000 0 0 0
8446 2816 4 0 49.130000 3.230000 21.920000 0 0 0
8447 2816 3 0 49.020000 3.950000 22.210000 0 0 0
8448 2816 3 0 49.240000 2.510000 21.630000 0 0 0
8449 2817 4 0 49.910000 3.900000 19.520000 0 0 0
8450 2817 3 0 50.640000 3.750000 19.410000 0 0 0
8451 2817 3 0 49.180000 4.040000 19.640000 0 0 0
8452 2818 4 0 49.930000 4.380000 17.260000 0 0 0
8453 2818 3 0 49.720000 3.830000 17.710000 0 0 0
8454 2818 3 0 50.140000 4.930000 16.810000 0 0 0
8455 2819 4 0 49.280000 4.940000 14.970000 0 0 0
8456 2819 3 0 49.130000 4.320000 15.390000 0 0 0
8457 2819 3 0 49.420000 5.560000 14.560000 0 0 0
8458 2820 1 0 47.950000 4.390000 12.910000 0 0 0
8459 2820 3 0 47.640000 3.780000 13.360000 0 0 0
8460 2820 2 0 48.230000 4.950000 12.490000 0 0 0
8461 2821 1 0 23.990000 44.020000 52.540000 0 0 0
8462 2821 2 0 24.180000 44.710000 52.770000 0 0 0
8463 2821 3 0 23.790000 43.280000 52.290000 0 0 0
8464 2822 4 0 26.050000 43.110000 51.960000 0 0 0
8465 2822 3 0 25.940000 43.830000 52.240000 0 0 0
8466 2822 3 0 26.160000 42.390000 51.670000 0 0 0
8467 2823 4 0 27.920000 42.950000 53.580000 0 0 0
8468 2823 3 0 28.650000 42.800000 53.460000 0 0 0
8469 2823 3 0 27.190000 43.090000 53.690000 0 0 0
8470 2824 4 0 29.920000 43.160000 55.140000 0 0 0
8471 2824 3 0 29.710000 42.600000 55.590000 0 0 0
8472 2824 3 0 30.130000 43.720000 54.690000 0 0 0
8473 2825 4 0 31.640000 42.470000 56.560000 0 0 0
8474 2825 3 0 31.500000 41.850000 56.970000 0 0 0
8475 2825 3 0 31.790000 43.090000 56.140000 0 0 0
8476 2826 1 0 33.610000 41.590000 0.150000 0 0 1
8477 2826 3 0 33.300000 40.980000 0.600000 0 0 1
8478 2826 2 0 33.890000 42.150000 57.267600 0 0 0
8479 2827 1 0 55.560000 9.970000 51.540000 0 0 0
8480 2827 2 0 55.750000 10.660000 51.770000 0 0 0
8481 2827 3 0 55.360000 9.230000 51.290000 0 0 0
8482 2828 4 0 55.520000 11.600000 49.880000 0 0 0
8483 2828 3 0 55.410000 12.320000 50.170000 0 0 0
8484 2828 3 0 55.630000 10.880000 49.600000 0 0 0
8485 2829 4 0 56.140000 14.000000 50.380000 0 0 0
8486 2829 3 0 56.870000 13.850000 50.270000 0 0 0
8487 2829 3 0 55.410000 14.140000 50.500000 0 0 0
8488 2830 4 0 55.750000 16.180000 50.970000 0 0 0
8489 2830 3 0 55.540000 15.620000 51.420000 0 0 0
8490 2830 3 0 55.960000 16.740000 50.520000 0 0 0
8491 2831 4 0 54.610000 18.440000 51.040000 0 0 0
8492 2831 3 0 54.470000 17.820000 51.460000 0 0 0
8493 2831 3 0 54.760000 19.060000 50.620000 0 0 0
8494 2832 1 0 54.180000 20.610000 49.930000 0 0 0
8495 2832 3 0 53.870000 20.000000 50.380000 0 0 0
8496 2832 2 0 54.460000 21.170000 49.510000 0 0 0
8497 2833 1 0 6.950000 14.730000 30.080000 0 0 0
8498 2833 2 0 7.140000 15.420000 30.310000 0 0 0
8499 2833 3 0 6.750000 13.990000 29.830000 0 0 0
8500 2834 4 0 7.820000 14.930000 32.070000 0 0 0
8501 2834 3 0 7.710000 15.650000 32.360000 0 0 0
8502 2834 3 0 7.930000 14.210000 31.780000 0 0 0
8503 2835 4 0 7.200000 16.770000 33.200000 0 0 0
8504 2835 3 0 7.930000 16.630000 33.080000 0 0 0
8505 2835 3 0 6.470000 16.920000 33.320000 0 0 0
8506 2836 4 0 5.390000 17.030000 35.040000 0 0 0
8507 2836 3 0 5.180000 16.470000 35.490000 0 0 0
8508 2836 3 0 5.600000 17.590000 34.590000 0 0 0
8509 2837 4 0 3.970000 16.090000 36.610000 0 0 0
8510 2837 3 0 3.830000 15.470000 37.030000 0 0 0
8511 2837 3 0 4.110000 16.710000 36.200000 0 0 0
8512 2838 1 0 2.240000 16.050000 38.090000 0 0 0
8513 2838 3 0 1.930000 15.440000 38.540000 0 0 0
8514 2838 2 0 2.520000 16.610000 37.670000 0 0 0
8515 2839 1 0 6.670000 29.800000 45.280000 0 0 0
8516 2839 2 0 6.860000 30.490000 45.510000 0 0 0
8517 2839 3 0 6.470000 29.060000 45.030000 0 0 0
8518 2840 4 0 4.830000 31.200000 44.780000 0 0 0
8519 2840 3 0 4.720000 31.920000 45.060000 0 0 0
8520 2840 3 0 4.940000 30.480000 44.490000 0 0 0
8521 2841 4 0 4.810000 33.200000 43.690000 0 0 0
8522 2841 3 0 5.540000 33.050000 43.570000 0 0 0
8523 2841 3 0 4.080000 33.340000 43.800000 0 0 0
8524 2842 4 0 3.210000 33.830000 41.820000 0 0 0
8525 2842 3 0 3.000000 33.280000 42.270000 0 0 0
8526 2842 3 0 3.420000 34.380000 41.370000 0 0 0
8527 2843 4 0 0.960000 34.070000 40.760000 0 0 0
8528 2843 3 0 0.820000 33.450000 41.170000 0 0 0
8529 2843 3 0 1.100000 34.690000 40.340000 0 0 0
8530 2844 1 0 56.070000 34.080000 40.590000 -1 0 0
8531 2844 3 0 55.760000 33.470000 41.040000 -1 0 0
8532 2844 2 0 56.350000 34.640000 40.170000 -1 0 0
8533 2845 1 0 51.320000 36.230000 56.800000 0 0 0
8534 2845 2 0 51.510000 36.920000 57.030000 0 0 0
8535 2845 3 0 51.120000 35.490000 56.550000 0 0 0
8536 2846 4 0 52.090000 37.870000 0.510000 0 0 1
8537 2846 3 0 51.980000 38.590000 0.790000 0 0 1
8538 2846 3 0 52.200000 37.150000 0.230000 0 0 1
8539 2847 4 0 50.590000 39.800000 0.970000 0 0 1
8540 2847 3 0 51.320000 39.660000 0.860000 0 0 1
8541 2847 3 0 49.860000 39.940000 1.090000 0 0 1
8542 2848 4 0 49.060000 41.400000 1.440000 0 0 1
8543 2848 3 0 48.850000 40.840000 1.890000 0 0 1
8544 2848 3 0 49.270000 41.960000 0.990000 0 0 1
8545 2849 4 0 47.560000 43.200000 2.520000 0 0 1
8546 2849 3 0 47.420000 42.580000 2.940000 0 0 1
8547 2849 3 0 47.710000 43.820000 2.110000 0 0 1
8548 2850 1 0 47.090000 45.070000 4.040000 0 0 1
8549 2850 3 0 46.780000 44.460000 4.490000 0 0 1
8550 2850 2 0 47.370000 45.630000 3.620000 0 0 1
8551 2851 1 0 30.610000 23.440000 13.500000 0 0 0
8552 2851 2 0 30.800000 24.130000 13.730000 0 0 0
8553 2851 3 0 30.410000 22.700000 13.250000 0 0 0
8554 2852 4 0 32.650000 23.060000 12.700000 0 0 0
8555 2852 3 0 32.540000 23.780000 12.980000 0 0 0
8556 2852 3 0 32.760000 22.340000 12.420000 0 0 0
8557 2853 4 0 34.670000 23.380000 11.700000 0 0 0
8558 2853 3 0 35.400000 23.240000 11.590000 0 0 0
8559 2853 3 0 33.940000 23.530000 11.810000 0 0 0
8560 2854 4 0 36.800000 22.720000 11.150000 0 0 0
8561 2854 3 0 36.590000 22.160000 11.600000 0 0 0
8562 2854 3 0 37.010000 23.270000 10.700000 0 0 0
8563 2855 4 0 39.200000 22.210000 10.400000 0 0 0
8564 2855 3 0 39.050000 21.590000 10.820000 0 0 0
8565 2855 3 0 39.340000 22.830000 9.990000 0 0 0
8566 2856 1 0 41.240000 21.600000 9.340000 0 0 0
8567 2856 3 0 40.930000 20.990000 9.790000 0 0 0
8568 2856 2 0 41.520000 22.160000 8.920000 0 0 0
8569 2857 1 0 32.530000 1.020000 50.830000 0 0 0
8570 2857 2 0 32.720000 1.710000 51.060000 0 0 0
8571 2857 3 0 32.330000 0.280000 50.580000 0 0 0
8572 2858 4 0 33.630000 2.320000 52.770000 0 0 0
8573 2858 3 0 33.520000 3.040000 53.060000 0 0 0
8574 2858 3 0 33.740000 1.600000 52.480000 0 0 0
8575 2859 4 0 33.750000 3.540000 54.770000 0 0 0
8576 2859 3 0 34.480000 3.390000 54.660000 0 0 0
8577 2859 3 0 33.020000 3.680000 54.890000 0 0 0
8578 2860 4 0 34.750000 4.710000 56.680000 0 0 0
8579 2860 3 0 34.540000 4.150000 57.130000 0 0 0
8580 2860 3 0 34.960000 5.260000 56.230000 0 0 0
8581 2861 4 0 35.730000 5.250000 1.390000 0 0 1
8582 2861 3 0 35.580000 4.630000 1.810000 0 0 1
8583 2861 3 0 35.870000 5.870000 0.980000 0 0 1
8584 2862 1 0 38.090000 5.220000 2.160000 0 0 1
8585 2862 3 0 37.780000 4.610000 2.610000 0 0 1
8586 2862 2 0 38.370000 5.780000 1.740000 0 0 1
8587 2863 1 0 2.730000 54.340000 30.930000 0 0 0
8588 2863 2 0 2.920000 55.030000 31.160000 0 0 0
8589 2863 3 0 2.530000 53.600000 30.680000 0 0 0
8590 2864 4 0 2.670000 53.570000 28.780000 0 0 0
8591 2864 3 0 2.560000 54.290000 29.070000 0 0 0
8592 2864 3 0 2.780000 52.850000 28.490000 0 0 0
8593 2865 4 0 1.770000 53.950000 26.450000 0 0 0
8594 2865 3 0 2.500000 53.800000 26.340000 0 0 0
8595 2865 3 0 1.040000 54.090000 26.570000 0 0 0
8596 2866 4 0 1.220000 54.470000 24.010000 0 0 0
8597 2866 3 0 1.010000 53.910000 24.460000 0 0 0
8598 2866 3 0 1.430000 55.030000 23.560000 0 0 0
8599 2867 4 0 0.630000 55.380000 21.750000 0 0 0
8600 2867 3 0 0.490000 54.760000 22.160000 0 0 0
8601 2867 3 0 0.770000 56.000000 21.330000 0 0 0
8602 2868 1 0 1.750000 54.420000 19.750000 0 0 0
8603 2868 3 0 1.440000 53.810000 20.200000 0 0 0
8604 2868 2 0 2.030000 54.980000 19.330000 0 0 0
8605 2869 1 0 15.200000 25.950000 27.250000 0 0 0
8606 2869 2 0 15.390000 26.640000 27.480000 0 0 0
8607 2869 3 0 15.000000 25.210000 27.000000 0 0 0
8608 2870 4 0 15.850000 26.380000 25.120000 0 0 0
8609 2870 3 0 15.740000 27.100000 25.400000 0 0 0
8610 2870 3 0 15.960000 25.660000 24.840000 0 0 0
8611 2871 4 0 16.630000 25.870000 22.930000 0 0 0
8612 2871 3 0 17.360000 25.730000 22.820000 0 0 0
8613 2871 3 0 15.900000 26.020000 23.040000 0 0 0
8614 2872 4 0 16.840000 24.500000 20.880000 0 0 0
8615 2872 3 0 16.630000 23.950000 21.330000 0 0 0
8616 2872 3 0 17.050000 25.060000 20.430000 0 0 0
8617 2873 4 0 17.030000 23.030000 19.220000 0 0 0
8618 2873 3 0 16.890000 22.410000 19.640000 0 0 0
8619 2873 3 0 17.180000 23.650000 18.810000 0 0 0
8620 2874 1 0 19.070000 23.420000 18.370000 0 0 0
8621 2874 3 0 18.760000 22.810000 18.820000 0 0 0
8622 2874 2 0 19.350000 23.980000 17.950000 0 0 0
8623 2875 1 0 35.770000 6.410000 15.530000 0 0 0
8624 2875 2 0 35.960000 7.100000 15.760000 0 0 0
8625 2875 3 0 35.570000 5.670000 15.280000 0 0 0
8626 2876 4 0 35.700000 4.160000 15.900000 0 0 0
8627 2876 3 0 35.590000 4.880000 16.190000 0 0 0
8628 2876 3 0 35.810000 3.440000 15.620000 0 0 0
8629 2877 4 0 37.310000 2.690000 14.660000 0 0 0
8630 2877 3 0 38.040000 2.540000 14.550000 0 0 0
8631 2877 3 0 36.580000 2.830000 14.780000 0 0 0
8632 2878 4 0 39.410000 3.190000 13.780000 0 0 0
8633 2878 3 0 39.200000 2.640000 14.230000 0 0 0
8634 2878 3 0 39.620000 3.740000 13.330000 0 0 0
8635 2879 4 0 41.550000 4.160000 13.090000 0 0 0
8636 2879 3 0 41.410000 3.540000 13.510000 0 0 0
8637 2879 3 0 41.700000 4.780000 12.680000 0 0 0
8638 2880 1 0 43.820000 3.770000 12.730000 0 0 0
8639 2880 3 0 43.510000 3.160000 13.180000 0 0 0
8640 2880 2 0 44.100000 4.330000 12.310000 0 0 0
8641 2881 1 0 45.150000 51.690000 53.430000 0 0 0
8642 2881 2 0 45.340000 52.380000 53.660000 0 0 0
8643 2881 3 0 44.950000 50.950000 53.180000 0 0 0
8644 2882 4 0 47.290000 50.950000 54.450000 0 0 0
8645 2882 3 0 47.180000 51.670000 54.740000 0 0 0
8646 2882 3 0 47.400000 50.230000 54.170000 0 0 0
8647 2883 4 0 49.720000 50.220000 54.800000 0 0 0
8648 2883 3 0 50.450000 50.080000 54.690000 0 0 0
8649 2883 3 0 48.990000 50.370000 54.920000 0 0 0
8650 2884 4 0 51.400000 49.530000 53.660000 0 0 0
8651 2884 3 0 51.190000 48.970000 54.110000 0 0 0
8652 2884 3 0 51.610000 50.090000 53.210000 0 0 0
8653 2885 4 0 53.580000 48.670000 52.640000 0 0 0
8654 2885 3 0 53.430000 48.050000 53.060000 0 0 0
8655 2885 3 0 53.720000 49.290000 52.230000 0 0 0
8656 2886 1 0 55.360000 47.620000 51.540000 0 0 0
8657 2886 3 0 55.050000 47.010000 51.990000 0 0 0
8658 2886 2 0 55.640000 48.180000 51.120000 0 0 0
8659 2887 1 0 28.410000 26.570000 44.120000 0 0 0
8660 2887 2 0 28.600000 27.260000 44.350000 0 0 0
8661 2887 3 0 28.210000 25.830000 43.870000 0 0 0
8662 2888 4 0 29.610000 28.010000 45.790000 0 0 0
8663 2888 3 0 29.500000 28.730000 46.070000 0 0 0
8664 2888 3 0 29.720000 27.290000 45.500000 0 0 0
8665 2889 4 0 29.850000 30.340000 46.220000 0 0 0
8666 2889 3 0 30.580000 30.190000 46.110000 0 0 0
8667 2889 3 0 29.120000 30.480000 46.330000 0 0 0
8668 2890 4 0 29.920000 32.720000 47.010000 0 0 0
8669 2890 3 0 29.710000 32.160000 47.460000 0 0 0
8670 2890 3 0 30.130000 33.270000 46.560000 0 0 0
8671 2891 4 0 29.690000 34.790000 47.880000 0 0 0
8672 2891 3 0 29.540000 34.170000 48.300000 0 0 0
8673 2891 3 0 29.830000 35.410000 47.470000 0 0 0
8674 2892 1 0 29.550000 37.050000 48.740000 0 0 0
8675 2892 3 0 29.240000 36.440000 49.190000 0 0 0
8676 2892 2 0 29.830000 37.610000 48.320000 0 0 0
8677 2893 1 0 17.330000 5.540000 30.920000 0 0 0
8678 2893 2 0 17.520000 6.230000 31.150000 0 0 0
8679 2893 3 0 17.130000 4.800000 30.670000 0 0 0
8680 2894 4 0 19.490000 5.540000 31.130000 0 0 0
8681 2894 3 0 19.380000 6.260000 31.410000 0 0 0
8682 2894 3 0 19.600000 4.820000 30.850000 0 0 0
8683 2895 4 0 21.630000 6.100000 32.130000 0 0 0
8684 2895 3 0 22.360000 5.950000 32.020000 0 0 0
8685 2895 3 0 20.900000 6.240000 32.240000 0 0 0
8686 2896 4 0 22.690000 7.120000 33.780000 0 0 0
8687 2896 3 0 22.480000 6.560000 34.230000 0 0 0
8688 2896 3 0 22.900000 7.670000 33.330000 0 0 0
8689 2897 4 0 23.600000 8.640000 35.530000 0 0 0
8690 2897 3 0 23.450000 8.020000 35.950000 0 0 0
8691 2897 3 0 23.740000 9.260000 35.110000 0 0 0
8692 2898 1 0 23.750000 10.270000 37.510000 0 0 0
8693 2898 3 0 23.440000 9.660000 37.960000 0 0 0
8694 2898 2 0 24.030000 10.830000 37.090000 0 0 0
8695 2899 1 0 38.510000 52.550000 2.310000 0 0 0
8696 2899 2 0 38.700000 53.240000 2.540000 0 0 0
8697 2899 3 0 38.310000 51.810000 2.060000 0 0 0
8698 2900 4 0 38.270000 54.490000 3.910000 0 0 0
8699 2900 3 0 38.160000 55.210000 4.190000 0 0 0
8700 2900 3 0 38.380000 53.770000 3.630000 0 0 0
8701 2901 4 0 37.430000 55.110000 6.200000 0 0 0
8702 2901 3 0 38.160000 54.970000 6.090000 0 0 0
8703 2901 3 0 36.700000 55.260000 6.320000 0 0 0
8704 2902 4 0 37.300000 56.420000 8.420000 0 0 0
8705 2902 3 0 37.090000 55.870000 8.870000 0 0 0
8706 2902 3 0 37.510000 56.980000 7.970000 0 0 0
8707 2903 4 0 36.590000 56.610000 10.670000 0 0 0
8708 2903 3 0 36.440000 55.990000 11.090000 0 0 0
8709 2903 3 0 36.730000 57.230000 10.260000 0 0 0
8710 2904 1 0 35.810000 56.590000 12.890000 0 0 0
8711 2904 3 0 35.500000 55.980000 13.340000 0 0 0
8712 2904 2 0 36.090000 57.150000 12.470000 0 0 0
8713 2905 1 0 34.790000 27.570000 53.500000 0 0 0
8714 2905 2 0 34.980000 28.260000 53.730000 0 0 0
8715 2905 3 0 34.590000 26.830000 53.250000 0 0 0
8716 2906 4 0 34.370000 26.970000 55.960000 0 0 0
8717 2906 3 0 34.260000 27.690000 56.250000 0 0 0
8718 2906 3 0 34.480000 26.250000 55.670000 0 0 0
8719 2907 4 0 34.260000 27.410000 0.940000 0 0 1
8720 2907 3 0 34.990000 27.270000 0.830000 0 0 1
8721 2907 3 0 33.530000 27.560000 1.060000 0 0 1
8722 2908 4 0 34.720000 27.600000 3.460000 0 0 1
8723 2908 3 0 34.510000 27.040000 3.910000 0 0 1
8724 2908 3 0 34.930000 28.150000 3.010000 0 0 1
8725 2909 4 0 34.450000 26.940000 5.850000 0 0 1
8726 2909 3 0 34.300000 26.320000 6.270000 0 0 1
8727 2909 3 0 34.590000 27.560000 5.440000 0 0 1
8728 2910 1 0 35.550000 25.080000 6.470000 0 0 1
8729 2910 3 0 35.240000 24.470000 6.920000 0 0 1
8730 2910 2 0 35.830000 25.640000 6.050000 0 0 1
8731 2911 1 0 4.390000 18.510000 8.900000 0 0 0
8732 2911 2 0 4.580000 19.200000 9.130000 0 0 0
8733 2911 3 0 4.190000 17.770000 8.650000 0 0 0
8734 2912 4 0 4.900000 16.790000 7.120000 0 0 0
8735 2912 3 0 4.790000 17.510000 7.400000 0 0 0
8736 2912 3 0 5.010000 16.070000 6.830000 0 0 0
8737 2913 4 0 4.190000 15.540000 5.500000 0 0 0
8738 2913 3 0 4.920000 15.390000 5.390000 0 0 0
8739 2913 3 0 3.460000 15.690000 5.620000 0 0 0
8740 2914 4 0 3.990000 13.630000 3.810000 0 0 0
8741 2914 3 0 3.780000 13.080000 4.260000 0 0 0
8742 2914 3 0 4.200000 14.180000 3.360000 0 0 0
8743 2915 4 0 5.530000 13.380000 1.730000 0 0 0
8744 2915 3 0 5.390000 12.760000 2.150000 0 0 0
8745 2915 3 0 5.680000 14.000000 1.320000 0 0 0
8746 2916 1 0 8.010000 12.940000 1.860000 0 0 0
8747 2916 3 0 7.700000 12.330000 2.310000 0 0 0
8748 2916 2 0 8.290000 13.500000 1.440000 0 0 0
8749 2917 1 0 47.040000 19.260000 21.290000 0 0 0
8750 2917 2 0 47.230000 19.950000 21.520000 0 0 0
8751 2917 3 0 46.840000 18.520000 21.040000 0 0 0
8752 2918 4 0 47.800000 18.070000 19.270000 0 0 0
8753 2918 3 0 47.690000 18.790000 19.560000 0 0 0
8754 2918 3 0 47.910000 17.350000 18.990000 0 0 0
8755 2919 4 0 47.660000 17.220000 17.180000 0 0 0
8756 2919 3 0 48.390000 17.080000 17.070000 0 0 0
8757 2919 3 0 46.930000 17.360000 17.300000 0 0 0
8758 2920 4 0 46.460000 15.650000 15.680000 0 0 0
8759 2920 3 0 46.250000 15.100000 16.130000 0 0 0
8760 2920 3 0 46.670000 16.200000 15.230000 0 0 0
8761 2921 4 0 45.380000 13.420000 16.380000 0 0 0
8762 2921 3 0 45.240000 12.800000 16.790000 0 0 0
8763 2921 3 0 45.530000 14.040000 15.970000 0 0 0
8764 2922 1 0 44.020000 11.680000 16.650000 0 0 0
8765 2922 3 0 43.710000 11.070000 17.100000 0 0 0
8766 2922 2 0 44.300000 12.240000 16.230000 0 0 0
8767 2923 1 0 18.300000 33.730000 2.750000 0 0 0
8768 2923 2 0 18.490000 34.420000 2.980000 0 0 0
8769 2923 3 0 18.100000 32.990000 2.500000 0 0 0
8770 2924 4 0 17.970000 35.330000 1.260000 0 0 0
8771 2924 3 0 17.860000 36.050000 1.540000 0 0 0
8772 2924 3 0 18.080000 34.610000 0.980000 0 0 0
8773 2925 4 0 17.250000 36.580000 57.150000 0 0 -1
8774 2925 3 0 17.980000 36.430000 57.040000 0 0 -1
8775 2925 3 0 16.520000 36.720000 57.260000 0 0 -1
8776 2926 4 0 16.860000 38.390000 55.950000 0 0 -1
8777 2926 3 0 16.650000 37.840000 56.400000 0 0 -1
8778 2926 3 0 17.070000 38.940000 55.500000 0 0 -1
8779 2927 4 0 18.390000 38.440000 53.940000 0 0 -1
8780 2927 3 0 18.250000 37.820000 54.360000 0 0 -1
8781 2927 3 0 18.530000 39.060000 53.530000 0 0 -1
8782 2928 1 0 20.140000 39.490000 52.410000 0 0 -1
8783 2928 3 0 19.830000 38.880000 52.860000 0 0 -1
8784 2928 2 0 20.420000 40.050000 51.990000 0 0 -1
8785 2929 1 0 21.050000 50.490000 26.500000 0 0 0
8786 2929 2 0 21.240000 51.180000 26.730000 0 0 0
8787 2929 3 0 20.850000 49.750000 26.250000 0 0 0
8788 2930 4 0 19.310000 51.390000 27.670000 0 0 0
8789 2930 3 0 19.200000 52.110000 27.950000 0 0 0
8790 2930 3 0 19.420000 50.670000 27.390000 0 0 0
8791 2931 4 0 17.560000 51.230000 29.370000 0 0 0
8792 2931 3 0 18.290000 51.090000 29.250000 0 0 0
8793 2931 3 0 16.830000 51.380000 29.490000 0 0 0
8794 2932 4 0 15.690000 51.480000 30.680000 0 0 0
8795 2932 3 0 15.480000 50.920000 31.130000 0 0 0
8796 2932 3 0 15.900000 52.040000 30.230000 0 0 0
8797 2933 4 0 13.660000 52.570000 31.220000 0 0 0
8798 2933 3 0 13.520000 51.950000 31.630000 0 0 0
8799 2933 3 0 13.810000 53.190000 30.800000 0 0 0
8800 2934 1 0 12.790000 54.440000 30.330000 0 0 0
8801 2934 3 0 12.480000 53.830000 30.780000 0 0 0
8802 2934 2 0 13.070000 55.000000 29.910000 0 0 0
8803 2935 1 0 37.890000 47.620000 49.110000 0 0 0
8804 2935 2 0 38.080000 48.310000 49.340000 0 0 0
8805 2935 3 0 37.690000 46.880000 48.860000 0 0 0
8806 2936 4 0 39.470000 45.730000 49.370000 0 0 0
8807 2936 3 0 39.360000 46.450000 49.660000 0 0 0
8808 2936 3 0 39.580000 45.010000 49.090000 0 0 0
8809 2937 4 0 41.080000 44.170000 50.490000 0 0 0
8810 2937 3 0 41.810000 44.020000 50.380000 0 0 0
8811 2937 3 0 40.350000 44.310000 50.610000 0 0 0
8812 2938 4 0 42.040000 42.720000 52.260000 0 0 0
8813 2938 3 0 41.830000 42.160000 52.710000 0 0 0
8814 2938 3 0 42.250000 43.280000 51.810000 0 0 0
8815 2939 4 0 41.900000 40.510000 53.590000 0 0 0
8816 2939 3 0 41.760000 39.890000 54.010000 0 0 0
8817 2939 3 0 42.050000 41.130000 53.170000 0 0 0
8818 2940 1 0 41.270000 38.090000 53.820000 0 0 0
8819 2940 3 0 40.960000 37.480000 54.270000 0 0 0
8820 2940 2 0 41.550000 38.650000 53.400000 0 0 0
8821 2941 1 0 27.000000 21.100000 3.140000 0 0 0
8822 2941 2 0 27.190000 21.790000 3.370000 0 0 0
8823 2941 3 0 26.800000 20.360000 2.890000 0 0 0
8824 2942 4 0 27.040000 22.570000 1.140000 0 0 0
8825 2942 3 0 26.930000 23.290000 1.420000 0 0 0
8826 2942 3 0 27.150000 21.850000 0.860000 0 0 0
8827 2943 4 0 28.770000 22.450000 56.950000 0 0 -1
8828 2943 3 0 29.500000 22.310000 56.840000 0 0 -1
8829 2943 3 0 28.040000 22.600000 57.070000 0 0 -1
8830 2944 4 0 30.970000 22.770000 56.330000 0 0 -1
8831 2944 3 0 30.760000 22.220000 56.780000 0 0 -1
8832 2944 3 0 31.180000 23.330000 55.880000 0 0 -1
8833 2945 4 0 32.670000 23.170000 54.830000 0 0 -1
8834 2945 3 0 32.520000 22.550000 55.240000 0 0 -1
8835 2945 3 0 32.810000 23.790000 54.410000 0 0 -1
8836 2946 1 0 34.660000 22.610000 53.400000 0 0 -1
8837 2946 3 0 34.350000 22.000000 53.850000 0 0 -1
8838 2946 2 0 34.940000 23.170000 52.980000 0 0 -1
8839 2947 1 0 7.330000 43.340000 17.860000 0 0 0
8840 2947 2 0 7.520000 44.030000 18.090000 0 0 0
8841 2947 3 0 7.130000 42.600000 17.610000 0 0 0
8842 2948 4 0 8.400000 42.680000 15.790000 0 0 0
8843 2948 3 0 8.290000 43.400000 16.070000 0 0 0
8844 2948 3 0 8.510000 41.960000 15.500000 0 0 0
8845 2949 4 0 10.410000 42.200000 14.700000 0 0 0
8846 2949 3 0 11.140000 42.050000 14.590000 0 0 0
8847 2949 3 0 9.680000 42.340000 14.820000 0 0 0
8848 2950 4 0 12.370000 41.340000 14.050000 0 0 0
8849 2950 3 0 12.160000 40.790000 14.500000 0 0 0
8850 2950 3 0 12.580000 41.900000 13.600000 0 0 0
8851 2951 4 0 14.320000 39.740000 13.940000 0 0 0
8852 2951 3 0 14.170000 39.120000 14.350000 0 0 0
8853 2951 3 0 14.460000 40.360000 13.530000 0 0 0
8854 2952 1 0 16.360000 38.820000 13.270000 0 0 0
8855 2952 3 0 16.050000 38.210000 13.720000 0 0 0
8856 2952 2 0 16.640000 39.380000 12.850000 0 0 0
8857 2953 1 0 34.240000 1.860000 39.050000 0 0 0
8858 2953 2 0 34.430000 2.550000 39.280000 0 0 0
8859 2953 3 0 34.040000 1.120000 38.800000 0 0 0
8860 2954 4 0 34.380000 1.780000 36.540000 0 0 0
8861 2954 3 0 34.270000 2.500000 36.830000 0 0 0
8862 2954 3 0 34.490000 1.060000 36.250000 0 0 0
8863 2955 4 0 34.120000 2.800000 34.620000 0 0 0
8864 2955 3 0 34.850000 2.650000 34.510000 0 0 0
8865 2955 3 0 33.390000 2.940000 34.740000 0 0 0
8866 2956 4 0 34.440000 2.900000 32.120000 0 0 0
8867 2956 3 0 34.230000 2.340000 32.570000 0 0 0
8868 2956 3 0 34.650000 3.450000 31.670000 0 0 0
8869 2957 4 0 34.570000 2.780000 29.960000 0 0 0
8870 2957 3 0 34.420000 2.160000 30.380000 0 0 0
8871 2957 3 0 34.710000 3.400000 29.550000 0 0 0
8872 2958 1 0 35.190000 0.640000 28.970000 0 0 0
8873 2958 3 0 34.880000 0.030000 29.420000 0 0 0
8874 2958 2 0 35.470000 1.200000 28.550000 0 0 0
8875 2959 1 0 48.490000 39.460000 20.850000 0 0 0
8876 2959 2 0 48.680000 40.150000 21.080000 0 0 0
8877 2959 3 0 48.290000 38.720000 20.600000 0 0 0
8878 2960 4 0 46.980000 40.210000 19.440000 0 0 0
8879 2960 3 0 46.870000 40.930000 19.720000 0 0 0
8880 2960 3 0 47.090000 39.490000 19.150000 0 0 0
8881 2961 4 0 45.320000 40.710000 18.030000 0 0 0
8882 2961 3 0 46.050000 40.560000 17.920000 0 0 0
8883 2961 3 0 44.590000 40.850000 18.150000 0 0 0
8884 2962 4 0 43.990000 39.590000 16.350000 0 0 0
8885 2962 3 0 43.780000 39.040000 16.800000 0 0 0
8886 2962 3 0 44.200000 40.140000 15.900000 0 0 0
8887 2963 4 0 42.380000 37.650000 16.520000 0 0 0
8888 2963 3 0 42.240000 37.030000 16.940000 0 0 0
8889 2963 3 0 42.530000 38.270000 16.110000 0 0 0
8890 2964 1 0 40.460000 36.790000 17.750000 0 0 0
8891 2964 3 0 40.150000 36.180000 18.200000 0 0 0
8892 2964 2 0 40.740000 37.350000 17.330000 0 0 0
8893 2965 1 0 28.110000 27.900000 21.300000 0 0 0
8894 2965 2 0 28.300000 28.590000 21.530000 0 0 0
8895 2965 3 0 27.910000 27.160000 21.050000 0 0 0
8896 2966 4 0 26.920000 30.060000 21.450000 0 0 0
8897 2966 3 0 26.810000 30.780000 21.730000 0 0 0
8898 2966 3 0 27.030000 29.340000 21.170000 0 0 0
8899 2967 4 0 26.730000 32.610000 21.480000 0 0 0
8900 2967 3 0 27.460000 32.470000 21.370000 0 0 0
8901 2967 3 0 26.000000 32.760000 21.600000 0 0 0
8902 2968 4 0 26.980000 35.010000 21.840000 0 0 0
8903 2968 3 0 26.770000 34.460000 22.290000 0 0 0
8904 2968 3 0 27.190000 35.560000 21.390000 0 0 0
8905 2969 4 0 28.310000 36.770000 20.690000 0 0 0
8906 2969 3 0 28.170000 36.150000 21.110000 0 0 0
8907 2969 3 0 28.450000 37.390000 20.270000 0 0 0
8908 2970 1 0 29.080000 38.490000 19.380000 0 0 0
8909 2970 3 0 28.770000 37.880000 19.830000 0 0 0
8910 2970 2 0 29.360000 39.050000 18.960000 0 0 0
8911 2971 1 0 54.720000 51.060000 23.430000 0 0 0
8912 2971 2 0 54.910000 51.750000 23.660000 0 0 0
8913 2971 3 0 54.520000 50.320000 23.180000 0 0 0
8914 2972 4 0 56.560000 50.070000 22.070000 0 0 0
8915 2972 3 0 56.450000 50.790000 22.360000 0 0 0
8916 2972 3 0 56.670000 49.350000 21.780000 0 0 0
8917 2973 4 0 0.110000 49.070000 20.020000 1 0 0
8918 2973 3 0 0.840000 48.930000 19.900000 1 0 0
8919 2973 3 0 56.917600 49.210000 20.130000 0 0 0
8920 2974 4 0 1.610000 49.200000 18.380000 1 0 0
8921 2974 3 0 1.400000 48.640000 18.830000 1 0 0
8922 2974 3 0 1.820000 49.760000 17.930000 1 0 0
8923 2975 4 0 3.490000 49.360000 16.990000 1 0 0
8924 2975 3 0 3.350000 48.740000 17.410000 1 0 0
8925 2975 3 0 3.630000 49.980000 16.580000 1 0 0
8926 2976 1 0 5.090000 47.470000 16.240000 1 0 0
8927 2976 3 0 4.780000 46.860000 16.690000 1 0 0
8928 2976 2 0 5.370000 48.030000 15.820000 1 0 0
8929 2977 1 0 13.780000 52.250000 35.730000 0 0 0
8930 2977 2 0 13.970000 52.940000 35.960000 0 0 0
8931 2977 3 0 13.580000 51.510000 35.480000 0 0 0
8932 2978 4 0 12.570000 54.420000 35.730000 0 0 0
8933 2978 3 0 12.460000 55.140000 36.010000 0 0 0
8934 2978 3 0 12.680000 53.700000 35.450000 0 0 0
8935 2979 4 0 11.530000 56.810000 35.690000 0 0 0
8936 2979 3 0 12.260000 56.670000 35.580000 0 0 0
8937 2979 3 0 10.800000 56.960000 35.800000 0 0 0
8938 2980 4 0 11.330000 0.520000 33.520000 0 1 0
8939 2980 3 0 11.120000 57.507600 33.970000 0 0 0
8940 2980 3 0 11.540000 1.070000 33.070000 0 1 0
8941 2981 4 0 12.510000 1.820000 31.910000 0 1 0
8942 2981 3 0 12.360000 1.200000 32.320000 0 1 0
8943 2981 3 0 12.650000 2.440000 31.490000 0 1 0
8944 2982 1 0 12.890000 3.950000 30.660000 0 1 0
8945 2982 3 0 12.580000 3.340000 31.110000 0 1 0
8946 2982 2 0 13.170000 4.510000 30.240000 0 1 0
8947 2983 1 0 5.380000 29.170000 40.900000 0 0 0
8948 2983 2 0 5.570000 29.860000 41.130000 0 0 0
8949 2983 3 0 5.180000 28.430000 40.650000 0 0 0
8950 2984 4 0 7.470000 28.300000 39.780000 0 0 0
8951 2984 3 0 7.360000 29.020000 40.060000 0 0 0
8952 2984 3 0 7.580000 27.580000 39.500000 0 0 0
8953 2985 4 0 7.930000 26.190000 38.630000 0 0 0
8954 2985 3 0 8.660000 26.050000 38.520000 0 0 0
8955 2985 3 0 7.200000 26.340000 38.750000 0 0 0
8956 2986 4 0 8.180000 23.810000 37.740000 0 0 0
8957 2986 3 0 7.970000 23.250000 38.190000 0 0 0
8958 2986 3 0 8.390000 24.360000 37.290000 0 0 0
8959 2987 4 0 9.340000 22.980000 35.870000 0 0 0
8960 2987 3 0 9.200000 22.360000 36.290000 0 0 0
8961 2987 3 0 9.490000 23.600000 35.460000 0 0 0
8962 2988 1 0 11.080000 23.160000 34.010000 0 0 0
8963 2988 3 0 10.770000 22.550000 34.460000 0 0 0
8964 2988 2 0 11.360000 23.720000 33.590000 0 0 0
8965 2989 1 0 9.950000 35.060000 37.140000 0 0 0
8966 2989 2 0 10.140000 35.750000 37.370000 0 0 0
8967 2989 3 0 9.750000 34.320000 36.890000 0 0 0
8968 2990 4 0 9.590000 35.090000 34.650000 0 0 0
8969 2990 3 0 9.480000 35.810000 34.940000 0 0 0
8970 2990 3 0 9.700000 34.370000 34.360000 0 0 0
8971 2991 4 0 9.040000 35.460000 32.230000 0 0 0
8972 2991 3 0 9.770000 35.310000 32.120000 0 0 0
8973 2991 3 0 8.310000 35.600000 32.340000 0 0 0
8974 2992 4 0 7.720000 34.080000 30.640000 0 0 0
8975 2992 3 0 7.510000 33.530000 31.090000 0 0 0
8976 2992 3 0 7.930000 34.630000 30.190000 0 0 0
8977 2993 4 0 6.650000 35.150000 28.570000 0 0 0
8978 2993 3 0 6.510000 34.530000 28.990000 0 0 0
8979 2993 3 0 6.790000 35.770000 28.160000 0 0 0
8980 2994 1 0 7.100000 37.600000 28.410000 0 0 0
8981 2994 3 0 6.790000 36.990000 28.860000 0 0 0
8982 2994 2 0 7.380000 38.160000 27.990000 0 0 0
8983 2995 1 0 49.300000 32.850000 45.270000 0 0 0
8984 2995 2 0 49.490000 33.540000 45.500000 0 0 0
8985 2995 3 0 49.100000 32.110000 45.020000 0 0 0
8986 2996 4 0 48.140000 32.580000 43.390000 0 0 0
8987 2996 3 0 48.030000 33.300000 43.680000 0 0 0
8988 2996 3 0 48.250000 31.860000 43.110000 0 0 0
8989 2997 4 0 47.960000 31.610000 41.290000 0 0 0
8990 2997 3 0 48.690000 31.470000 41.170000 0 0 0
8991 2997 3 0 47.230000 31.750000 41.400000 0 0 0
8992 2998 4 0 47.860000 29.950000 39.350000 0 0 0
8993 2998 3 0 47.650000 29.400000 39.800000 0 0 0
8994 2998 3 0 48.070000 30.500000 38.900000 0 0 0
8995 2999 4 0 48.140000 27.850000 38.010000 0 0 0
8996 2999 3 0 48.000000 27.230000 38.430000 0 0 0
8997 2999 3 0 48.290000 28.470000 37.600000 0 0 0
8998 3000 1 0 47.950000 26.430000 36.190000 0 0 0
8999 3000 3 0 47.640000 25.820000 36.640000 0 0 0
9000 3000 2 0 48.230000 26.990000 35.770000 0 0 0

Bonds

1 1 2 3
2 1 5 6
3 1 8 9
4 1 11 12
5 1 14 15
6 1 17 18
7 1 20 21
8 1 23 24
9 1 26 27
10 1 29 30
11 1 32 33
12 1 35 36
13 1 38 39
14 1 41 42
15 1 44 45
16 1 47 48
17 1 50 51
18 1 53 54
19 1 56 57
20 1 59 60
21 1 62 63
22 1 65 66
23 1 68 69
24 1 71 72
25 1 74 75
26 1 77 78
27 1 80 81
28 1 83 84
29 1 86 87
30 1 89 90
31 1 92 93
32 1 95 96
33 1 98 99
34 1 101 102
35 1 104 105
36 1 107 108
37 1 110 111
38 1 113 114
39 1 116 117
40 1 119 120
41 1 122 123
42 1 125 126
43 1 128 129
44 1 131 132
45 1 134 135
46 1 137 138
47 1 140 141
48 1 143 144
49 1 146 147
50 1 149 150
51 1 152 153
52 1 155 156
53 1 158 159
54 1 161 162
55 1 164 165
56 1 167 168
57 1 170 171
58 1 173 174
59 1 176 177
60 1 179 180
61 1 182 183
62 1 185 186
63 1 188 189
64 1 191 192
65 1 194 195
66 1 197 198
67 1 200 201
68 1 203 204
69 1 206 207
70 1 209 210
71 1 212 213
72 1 215 216
73 1 218 219
74 1 221 222
75 1 224 225
76 1 227 228
77 1 230 231
78 1 233 234
79 1 236 237
80 1 239 240
81 1 242 243
82 1 245 246
83 1 248 249
84 1 251 252
85 1 254 255
86 1 257 258
87 1 260 261
88 1 263 264
89 1 266 267
90 1 269 270
91 1 272 273
92 1 275 276
93 1 278 279
94 1 281 282
95 1 284 285
96 1 287 288
97 1 290 291
98 1 293 294
99 1 296 297
100 1 299 300
101 1 302 303
102 1 305 306
103 1 308 309
104 1 311 312
105 1 314 315
106 1 317 318
107 1 320 321
108 1 323 324
109 1 326 327
110 1 329 330
111 1 332 333
112 1 335 336
113 1 338 339
114 1 341 342
115 1 344 345
116 1 347 348
117 1 350 351
118 1 353 354
119 1 356 357
120 1 359 360
121 1 362 363
122 1 365 366
123 1 368 369
124 1 371 372
125 1 374 375
126 1 377 378
127 1 380 381
128 1 383 384
129 1 386 387
130 1 389 390
131 1 392 393
132 1 395 396
133 1 398 399
134 1 401 402
135 1 404 405
136 1 407 408
137 1 410 411
138 1 413 414
139 1 416 417
140 1 419 420
141 1 422 423
142 1 425 426
143 1 428 429
144 1 431 432
145 1 434 435
146 1 437 438
147 1 440 441
148 1 443 444
149 1 446 447
150 1 449 450
151 1 452 453
152 1 455 456
153 1 458 459
154 1 461 462
155 1 464 465
156 1 467 468
157 1 470 471
158 1 473 474
159 1 476 477
160 1 479 480
161 1 482 483
162 1 485 486
163 1 488 489
164 1 491 492
165 1 494 495
166 1 497 498
167 1 500 501
168 1 503 504
169 1 506 507
170 1 509 510
171 1 512 513
172 1 515 516
173 1 518 519
174 1 521 522
175 1 524 525
176 1 527 528
177 1 530 531
178 1 533 534
179 1 536 537
180 1 539 540
181 1 542 543
182 1 545 546
183 1 548 549
184 1 551 552
185 1 554 555
186 1 557 558
187 1 560 561
188 1 563 564
189 1 566 567
190 1 569 570
191 1 572 573
192 1 575 576
193 1 578 579
194 1 581 582
195 1 584 585
196 1 587 588
197 1 590 591
198 1 593 594
199 1 596 597
200 1 599 600
201 1 602 603
202 1 605 606
203 1 608 609
204 1 611 612
205 1 614 615
206 1 617 618
207 1 620 621
208 1 623 624
209 1 626 627
210 1 629 630
211 1 632 633
212 1 635 636
213 1 638 639
214 1 641 642
215 1 644 645
216 1 647 648
217 1 650 651
218 1 653 654
219 1 656 657
220 1 659 660
221 1 662 663
222 1 665 666
223 1 668 669
224 1 671 672
225 1 674 675
226 1 677 678
227 1 680 681
228 1 683 684
229 1 686 687
230 1 689 690
231 1 692 693
232 1 695 696
233 1 698 699
234 1 701 702
235 1 704 705
236 1 707 708
237 1 710 711
238 1 713 714
239 1 716 717
240 1 719 720
241 1 722 723
242 1 725 726
243 1 728 729
244 1 731 732
245 1 734 735
246 1 737 738
247 1 740 741
248 1 743 744
249 1 746 747
250 1 749 750
251 1 752 753
252 1 755 756
253 1 758 759
254 1 761 762
255 1 764 765
256 1 767 768
257 1 770 771
258 1 773 774
259 1 776 777
260 1 779 780
261 1 782 783
262 1 785 786
263 1 788 789
264 1 791 792
265 1 794 795
266 1 797 798
267 1 800 801
268 1 803 804
269 1 806 807
270 1 809 810
271 1 812 813
272 1 815 816
273 1 818 819
274 1 821 822
275 1 824 825
276 1 827 828
277 1 830 831
278 1 833 834
279 1 836 837
280 1 839 840
281 1 842 843
282 1 845 846
283 1 848 849
284 1 851 852
285 1 854 855
286 1 857 858
287 1 860 861
288 1 863 864
289 1 866 867
290 1 869 870
291 1 872 873
292 1 875 876
293 1 878 879
294 1 881 882
295 1 884 885
296 1 887 888
297 1 890 891
298 1 893 894
299 1 896 897
300 1 899 900
301 1 902 903
302 1 905 906
303 1 908 909
304 1 911 912
305 1 914 915
306 1 917 918
307 1 920 921
308 1 923 924
309 1 926 927
310 1 929 930
311 1 932 933
312 1 935 936
313 1 938 939
314 1 941 942
315 1 944 945
316 1 947 948
317 1 950 951
318 1 953 954
319 1 956 957
320 1 959 960
321 1 962 963
322 1 965 966
323 1 968 969
324 1 971 972
325 1 974 975
326 1 977 978
327 1 980 981
328 1 983 984
329 1 986 987
330 1 989 990
331 1 992 993
332 1 995 996
333 1 998 999
334 1 1001 1002
335 1 1004 1005
336 1 1007 1008
337 1 1010 1011
338 1 1013 1014
339 1 1016 1017
340 1 1019 1020
341 1 1022 1023
342 1 1025 1026
343 1 1028 1029
344 1 1031 1032
345 1 1034 1035
346 1 1037 1038
347 1 1040 1041
348 1 1043 1044
349 1 1046 1047
350 1 1049 1050
351 1 1052 1053
352 1 1055 1056
353 1 1058 1059
354 1 1061 1062
355 1 1064 1065
356 1 1067 1068
357 1 1070 1071
358 1 1073 1074
359 1 1076 1077
360 1 1079 1080
361 1 1082 1083
362 1 1085 1086
363 1 1088 1089
364 1 1091 1092
365 1 1094 1095
366 1 1097 1098
367 1 1100 1101
368 1 1103 1104
369 1 1106 1107
370 1 1109 1110
371 1 1112 1113
372 1 1115 1116
373 1 1118 1119
374 1 1121 1122
375 1 1124 1125
376 1 1127 1128
377 1 1130 1131
378 1 1133 1134
379 1 1136 1137
380 1 1139 1140
381 1 1142 1143
382 1 1145 1146
383 1 1148 1149
384 1 1151 1152
385 1 1154 1155
386 1 1157 1158
387 1 1160 1161
388 1 1163 1164
389 1 1166 1167
390 1 1169 1170
391 1 1172 1173
392 1 1175 1176
393 1 1178 1179
394 1 1181 1182
395 1 1184 1185
396 1 1187 1188
397 1 1190 1191
398 1 1193 1194
399 1 1196 1197
400 1 1199 1200
401 1 1202 1203
402 1 1205 1206
403 1 1208 1209
404 1 1211 1212
405 1 1214 1215
406 1 1217 1218
407 1 1220 1221
408 1 1223 1224
409 1 1226 1227
410 1 1229 1230
411 1 1232 1233
412 1 1235 1236
413 1 1238 1239
414 1 1241 1242
415 1 1244 1245
416 1 1247 1248
417 1 1250 1251
418 1 1253 1254
419 1 1256 1257
420 1 1259 1260
421 1 1262 1263
422 1 1265 1266
423 1 1268 1269
424 1 1271 1272
425 1 1274 1275
426 1 1277 1278
427 1 1280 1281
428 1 1283 1284
429 1 1286 1287
430 1 1289 1290
431 1 1292 1293
432 1 1295 1296
433 1 1298 1299
434 1 1301 1302
435 1 1304 1305
436 1 1307 1308
437 1 1310 1311
438 1 1313 1314
439 1 1316 1317
440 1 1319 1320
441 1 1322 1323
442 1 1325 1326
443 1 1328 1329
444 1 1331 1332
445 1 1334 1335
446 1 1337 1338
447 1 1340 1341
448 1 1343 1344
449 1 1346 1347
450 1 1349 1350
451 1 1352 1353
452 1 1355 1356
453 1 1358 1359
454 1 1361 1362
455 1 1364 1365
456 1 1367 1368
457 1 1370 1371
458 1 1373 1374
459 1 1376 1377
460 1 1379 1380
461 1 1382 1383
462 1 1385 1386
463 1 1388 1389
464 1 1391 1392
465 1 1394 1395
466 1 1397 1398
467 1 1400 1401
468 1 1403 1404
469 1 1406 1407
470 1 1409 1410
471 1 1412 1413
472 1 1415 1416
473 1 1418 1419
474 1 1421 1422
475 1 1424 1425
476 1 1427 1428
477 1 1430 1431
478 1 1433 1434
479 1 1436 1437
480 1 1439 1440
481 1 1442 1443
482 1 1445 1446
483 1 1448 1449
484 1 1451 1452
485 1 1454 1455
486 1 1457 1458
487 1 1460 1461
488 1 1463 1464
489 1 1466 1467
490 1 1469 1470
491 1 1472 1473
492 1 1475 1476
493 1 1478 1479
494 1 1481 1482
495 1 1484 1485
496 1 1487 1488
497 1 1490 1491
498 1 1493 1494
499 1 1496 1497
500 1 1499 1500
501 1 1502 1503
502 1 1505 1506
503 1 1508 1509
504 1 1511 1512
505 1 1514 1515
506 1 1517 1518
507 1 1520 1521
508 1 1523 1524
509 1 1526 1527
510 1 1529 1530
511 1 1532 1533
512 1 1535 1536
513 1 1538 1539
514 1 1541 1542
515 1 1544 1545
516 1 1547 1548
517 1 1550 1551
518 1 1553 1554
519 1 1556 1557
520 1 1559 1560
521 1 1562 1563
522 1 1565 1566
523 1 1568 1569
524 1 1571 1572
525 1 1574 1575
526 1 1577 1578
527 1 1580 1581
528 1 1583 1584
529 1 1586 1587
530 1 1589 1590
531 1 1592 1593
532 1 1595 1596
533 1 1598 1599
534 1 1601 1602
535 1 1604 1605
536 1 1607 1608
537 1 1610 1611
538 1 1613 1614
539 1 1616 1617
540 1 1619 1620
541 1 1622 1623
542 1 1625 1626
543 1 1628 1629
544 1 1631 1632
545 1 1634 1635
546 1 1637 1638
547 1 1640 1641
548 1 1643 1644
549 1 1646 1647
550 1 1649 1650
551 1 1652 1653
552 1 1655 1656
553 1 1658 1659
554 1 1661 1662
555 1 1664 1665
556 1 1667 1668
557 1 1670 1671
558 1 1673 1674
559 1 1676 1677
560 1 1679 1680
561 1 1682 1683
562 1 1685 1686
563 1 1688 1689
564 1 1691 1692
565 1 1694 1695
566 1 1697 1698
567 1 1700 1701
568 1 1703 1704
569 1 1706 1707
570 1 1709 1710
571 1 1712 1713
572 1 1715 1716
573 1 1718 1719
574 1 1721 1722
575 1 1724 1725
576 1 1727 1728
577 1 1730 1731
578 1 1733 1734
579 1 1736 1737
580 1 1739 1740
581 1 1742 1743
582 1 1745 1746
583 1 1748 1749
584 1 1751 1752
585 1 1754 1755
586 1 1757 1758
587 1 1760 1761
588 1 1763 1764
589 1 1766 1767
590 1 1769 1770
591 1 1772 1773
592 1 1775 1776
593 1 1778 1779
594 1 1781 1782
595 1 1784 1785
596 1 1787 1788
597 1 1790 1791
598 1 1793 1794
599 1 1796 1797
600 1 1799 1800
601 1 1802 1803
602 1 1805 1806
603 1 1808 1809
604 1 1811 1812
605 1 1814 1815
606 1 1817 1818
607 1 1820 1821
608 1 1823 1824
609 1 1826 1827
610 1 1829 1830
611 1 1832 1833
612 1 1835 1836
613 1 1838 1839
614 1 1841 1842
615 1 1844 1845
616 1 1847 1848
617 1 1850 1851
618 1 1853 1854
619 1 1856 1857
620 1 1859 1860
621 1 1862 1863
622 1 1865 1866
623 1 1868 1869
624 1 1871 1872
625 1 1874 1875
626 1 1877 1878
627 1 1880 1881
628 1 1883 1884
629 1 1886 1887
630 1 1889 1890
631 1 1892 1893
632 1 1895 1896
633 1 1898 1899
634 1 1901 1902
635 1 1904 1905
636 1 1907 1908
637 1 1910 1911
638 1 1913 1914
639 1 1916 1917
640 1 1919 1920
641 1 1922 1923
642 1 1925 1926
643 1 1928 1929
644 1 1931 1932
645 1 1934 1935
646 1 1937 1938
647 1 1940 1941
648 1 1943 1944
649 1 1946 1947
650 1 1949 1950
651 1 1952 1953
652 1 1955 1956
653 1 1958 1959
654 1 1961 1962
655 1 1964 1965
656 1 1967 1968
657 1 1970 1971
658 1 1973 1974
659 1 1976 1977
660 1 1979 1980
661 1 1982 1983
662 1 1985 1986
663 1 1988 1989
664 1 1991 1992
665 1 1994 1995
666 1 1997 1998
667 1 2000 2001
668 1 2003 2004
669 1 2006 2007
670 1 2009 2010
671 1 2012 2013
672 1 2015 2016
673 1 2018 2019
674 1 2021 2022
675 1 2024 2025
676 1 2027 2028
677 1 2030 2031
678 1 2033 2034
679 1 2036 2037
680 1 2039 2040
681 1 2042 2043
682 1 2045 2046
683 1 2048 2049
684 1 2051 2052
685 1 2054 2055
686 1 2057 2058
687 1 2060 2061
688 1 2063 2064
689 1 2066 2067
690 1 2069 2070
691 1 2072 2073
692 1 2075 2076
693 1 2078 2079
694 1 2081 2082
695 1 2084 2085
696 1 2087 2088
697 1 2090 2091
698 1 2093 2094
699 1 2096 2097
700 1 2099 2100
701 1 2102 2103
702 1 2105 2106
703 1 2108 2109
704 1 2111 2112
705 1 2114 2115
706 1 2117 2118
707 1 2120 2121
708 1 2123 2124
709 1 2126 2127
710 1 2129 2130
711 1 2132 2133
712 1 2135 2136
713 1 2138 2139
714 1 2141 2142
715 1 2144 2145
716 1 2147 2148
717 1 2150 2151
718 1 2153 2154
719 1 2156 2157
720 1 2159 2160
721 1 2162 2163
722 1 2165 2166
723 1 2168 2169
724 1 2171 2172
725 1 2174 2175
726 1 2177 2178
727 1 2180 2181
728 1 2183 2184
729 1 2186 2187
730 1 2189 2190
731 1 2192 2193
732 1 2195 2196
733 1 2198 2199
734 1 2201 2202
735 1 2204 2205
736 1 2207 2208
737 1 2210 2211
738 1 2213 2214
739 1 2216 2217
740 1 2219 2220
741 1 2222 2223
742 1 2225 2226
743 1 2228 2229
744 1 2231 2232
745 1 2234 2235
746 1 2237 2238
747 1 2240 2241
748 1 2243 2244
749 1 2246 2247
750 1 2249 2250
751 1 2252 2253
752 1 2255 2256
753 1 2258 2259
754 1 2261 2262
755 1 2264 2265
756 1 2267 2268
757 1 2270 2271
758 1 2273 2274
759 1 2276 2277
760 1 2279 2280
761 1 2282 2283
762 1 2285 2286
763 1 2288 2289
764 1 2291 2292
765 1 2294 2295
766 1 2297 2298
767 1 2300 2301
768 1 2303 2304
769 1 2306 2307
770 1 2309 2310
771 1 2312 2313
772 1 2315 2316
773 1 2318 2319
774 1 2321 2322
775 1 2324 2325
776 1 2327 2328
777 1 2330 2331
778 1 2333 2334
779 1 2336 2337
780 1 2339 2340
781 1 2342 2343
782 1 2345 2346
783 1 2348 2349
784 1 2351 2352
785 1 2354 2355
786 1 2357 2358
787 1 2360 2361
788 1 2363 2364
789 1 2366 2367
790 1 2369 2370
791 1 2372 2373
792 1 2375 2376
793 1 2378 2379
794 1 2381 2382
795 1 2384 2385
796 1 2387 2388
797 1 2390 2391
798 1 2393 2394
799 1 2396 2397
800 1 2399 2400
801 1 2402 2403
802 1 2405 2406
803 1 2408 2409
804 1 2411 2412
805 1 2414 2415
806 1 2417 2418
807 1 2420 2421
808 1 2423 2424
809 1 2426 2427
810 1 2429 2430
811 1 2432 2433
812 1 2435 2436
813 1 2438 2439
814 1 2441 2442
815 1 2444 2445
816 1 2447 2448
817 1 2450 2451
818 1 2453 2454
819 1 2456 2457
820 1 2459 2460
821 1 2462 2463
822 1 2465 2466
823 1 2468 2469
824 1 2471 2472
825 1 2474 2475
826 1 2477 2478
827 1 2480 2481
828 1 2483 2484
829 1 2486 2487
830 1 2489 2490
831 1 2492 2493
832 1 2495 2496
833 1 2498 2499
834 1 2501 2502
835 1 2504 2505
836 1 2507 2508
837 1 2510 2511
838 1 2513 2514
839 1 2516 2517
840 1 2519 2520
841 1 2522 2523
842 1 2525 2526
843 1 2528 2529
844 1 2531 2532
845 1 2534 2535
846 1 2537 2538
847 1 2540 2541
848 1 2543 2544
849 1 2546 2547
850 1 2549 2550
851 1 2552 2553
852 1 2555 2556
853 1 2558 2559
854 1 2561 2562
855 1 2564 2565
856 1 2567 2568
857 1 2570 2571
858 1 2573 2574
859 1 2576 2577
860 1 2579 2580
861 1 2582 2583
862 1 2585 2586
863 1 2588 2589
864 1 2591 2592
865 1 2594 2595
866 1 2597 2598
867 1 2600 2601
868 1 2603 2604
869 1 2606 2607
870 1 2609 2610
871 1 2612 2613
872 1 2615 2616
873 1 2618 2619
874 1 2621 2622
875 1 2624 2625
876 1 2627 2628
877 1 2630 2631
878 1 2633 2634
879 1 2636 2637
880 1 2639 2640
881 1 2642 2643
882 1 2645 2646
883 1 2648 2649
884 1 2651 2652
885 1 2654 2655
886 1 2657 2658
887 1 2660 2661
888 1 2663 2664
889 1 2666 2667
890 1 2669 2670
891 1 2672 2673
892 1 2675 2676
893 1 2678 2679
894 1 2681 2682
895 1 2684 2685
896 1 2687 2688
897 1 2690 2691
898 1 2693 2694
899 1 2696 2697
900 1 2699 2700
901 1 2702 2703
902 1 2705 2706
903 1 2708 2709
904 1 2711 2712
905 1 2714 2715
906 1 2717 2718
907 1 2720 2721
908 1 2723 2724
909 1 2726 2727
910 1 2729 2730
911 1 2732 2733
912 1 2735 2736
913 1 2738 2739
914 1 2741 2742
915 1 2744 2745
916 1 2747 2748
917 1 2750 2751
918 1 2753 2754
919 1 2756 2757
920 1 2759 2760
921 1 2762 2763
922 1 2765 2766
923 1 2768 2769
924 1 2771 2772
925 1 2774 2775
926 1 2777 2778
927 1 2780 2781
928 1 2783 2784
929 1 2786 2787
930 1 2789 2790
931 1 2792 2793
932 1 2795 2796
933 1 2798 2799
934 1 2801 2802
935 1 2804 2805
936 1 2807 2808
937 1 2810 2811
938 1 2813 2814
939 1 2816 2817
940 1 2819 2820
941 1 2822 2823
942 1 2825 2826
943 1 2828 2829
944 1 2831 2832
945 1 2834 2835
946 1 2837 2838
947 1 2840 2841
948 1 2843 2844
949 1 2846 2847
950 1 2849 2850
951 1 2852 2853
952 1 2855 2856
953 1 2858 2859
954 1 2861 2862
955 1 2864 2865
956 1 2867 2868
957 1 2870 2871
958 1 2873 2874
959 1 2876 2877
960 1 2879 2880
961 1 2882 2883
962 1 2885 2886
963 1 2888 2889
964 1 2891 2892
965 1 2894 2895
966 1 2897 2898
967 1 2900 2901
968 1 2903 2904
969 1 2906 2907
970 1 2909 2910
971 1 2912 2913
972 1 2915 2916
973 1 2918 2919
974 1 2921 2922
975 1 2924 2925
976 1 2927 2928
977 1 2930 2931
978 1 2933 2934
979 1 2936 2937
980 1 2939 2940
981 1 2942 2943
982 1 2945 2946
983 1 2948 2949
984 1 2951 2952
985 1 2954 2955
986 1 2957 2958
987 1 2960 2961
988 1 2963 2964
989 1 2966 2967
990 1 2969 2970
991 1 2972 2973
992 1 2975 2976
993 1 2978 2979
994 1 2981 2982
995 1 2984 2985
996 1 2987 2988
997 1 2990 2991
998 1 2993 2994
999 1 2996 2997
1000 1 2999 3000
1001 1 3002 3003
1002 1 3005 3006
1003 1 3008 3009
1004 1 3011 3012
1005 1 3014 3015
1006 1 3017 3018
1007 1 3020 3021
1008 1 3023 3024
1009 1 3026 3027
1010 1 3029 3030
1011 1 3032 3033
1012 1 3035 3036
1013 1 3038 3039
1014 1 3041 3042
1015 1 3044 3045
1016 1 3047 3048
1017 1 3050 3051
1018 1 3053 3054
1019 1 3056 3057
1020 1 3059 3060
1021 1 3062 3063
1022 1 3065 3066
1023 1 3068 3069
1024 1 3071 3072
1025 1 3074 3075
1026 1 3077 3078
1027 1 3080 3081
1028 1 3083 3084
1029 1 3086 3087
1030 1 3089 3090
1031 1 3092 3093
1032 1 3095 3096
1033 1 3098 3099
1034 1 3101 3102
1035 1 3104 3105
1036 1 3107 3108
1037 1 3110 3111
1038 1 3113 3114
1039 1 3116 3117
1040 1 3119 3120
1041 1 3122 3123
1042 1 3125 3126
1043 1 3128 3129
1044 1 3131 3132
1045 1 3134 3135
1046 1 3137 3138
1047 1 3140 3141
1048 1 3143 3144
1049 1 3146 3147
1050 1 3149 3150
1051 1 3152 3153
1052 1 3155 3156
1053 1 3158 3159
1054 1 3161 3162
1055 1 3164 3165
1056 1 3167 3168
1057 1 3170 3171
1058 1 3173 3174
1059 1 3176 3177
1060 1 3179 3180
1061 1 3182 3183
1062 1 3185 3186
1063 1 3188 3189
1064 1 3191 3192
1065 1 3194 3195
1066 1 3197 3198
1067 1 3200 3201
1068 1 3203 3204
1069 1 3206 3207
1070 1 3209 3210
1071 1 3212 3213
1072 1 3215 3216
1073 1 3218 3219
1074 1 3221 3222
1075 1 3224 3225
1076 1 3227 3228
1077 1 3230 3231
1078 1 3233 3234
1079 1 3236 3237
1080 1 3239 3240
1081 1 3242 3243
1082 1 3245 3246
1083 1 3248 3249
1084 1 3251 3252
1085 1 3254 3255
1086 1 3257 3258
1087 1 3260 3261
1088 1 3263 3264
1089 1 3266 3267
1090 1 3269 3270
1091 1 3272 3273
1092 1 3275 3276
1093 1 3278 3279
1094 1 3281 3282
1095 1 3284 3285
1096 1 3287 3288
1097 1 3290 3291
1098 1 3293 3294
1099 1 3296 3297
1100 1 3299 3300
1101 1 3302 3303
1102 1 3305 3306
1103 1 3308 3309
1104 1 3311 3312
1105 1 3314 3315
1106 1 3317 3318
1107 1 3320 3321
1108 1 3323 3324
1109 1 3326 3327
1110 1 3329 3330
1111 1 3332 3333
1112 1 3335 3336
1113 1 3338 3339
1114 1 3341 3342
1115 1 3344 3345
1116 1 3347 3348
1117 1 3350 3351
1118 1 3353 3354
1119 1 3356 3357
1120 1 3359 3360
1121 1 3362 3363
1122 1 3365 3366
1123 1 3368 3369
1124 1 3371 3372
1125 1 3374 3375
1126 1 3377 3378
1127 1 3380 3381
1128 1 3383 3384
1129 1 3386 3387
1130 1 3389 3390
1131 1 3392 3393
1132 1 3395 3396
1133 1 3398 3399
1134 1 3401 3402
1135 1 3404 3405
1136 1 3407 3408
1137 1 3410 3411
1138 1 3413 3414
1139 1 3416 3417
1140 1 3419 3420
1141 1 3422 3423
1142 1 3425 3426
1143 1 3428 3429
1144 1 3431 3432
1145 1 3434 3435
1146 1 3437 3438
1147 1 3440 3441
1148 1 3443 3444
1149 1 3446 3447
1150 1 3449 3450
1151 1 3452 3453
1152 1 3455 3456
1153 1 3458 3459
1154 1 3461 3462
1155 1 3464 3465
1156 1 3467 3468
1157 1 3470 3471
1158 1 3473 3474
1159 1 3476 3477
1160 1 3479 3480
1161 1 3482 3483
1162 1 3485 3486
1163 1 3488 3489
1164 1 3491 3492
1165 1 3494 3495
1166 1 3497 3498
1167 1 3500 3501
1168 1 3503 3504
1169 1 3506 3507
1170 1 3509 3510
1171 1 3512 3513
1172 1 3515 3516
1173 1 3518 3519
1174 1 3521 3522
1175 1 3524 3525
1176 1 3527 3528
1177 1 3530 3531
1178 1 3533 3534
1179 1 3536 3537
1180 1 3539 3540
1181 1 3542 3543
1182 1 3545 3546
1183 1 3548 3549
1184 1 3551 3552
1185 1 3554 3555
1186 1 3557 3558
1187 1 3560 3561
1188 1 3563 3564
1189 1 3566 3567
1190 1 3569 3570
1191 1 3572 3573
1192 1 3575 3576
1193 1 3578 3579
1194 1 3581 3582
1195 1 3584 3585
1196 1 3587 3588
1197 1 3590 3591
1198 1 3593 3594
1199 1 3596 3597
1200 1 3599 3600
1201 1 3602 3603
1202 1 3605 3606
1203 1 3608 3609
1204 1 3611 3612
1205 1 3614 3615
1206 1 3617 3618
1207 1 3620 3621
1208 1 3623 3624
1209 1 3626 3627
1210 1 3629 3630
1211 1 3632 3633
1212 1 3635 3636
1213 1 3638 3639
1214 1 3641 3642
1215 1 3644 3645
1216 1 3647 3648
1217 1 3650 3651
1218 1 3653 3654
1219 1 3656 3657
1220 1 3659 3660
1221 1 3662 3663
1222 1 3665 3666
1223 1 3668 3669
1224 1 3671 3672
1225 1 3674 3675
1226 1 3677 3678
1227 1 3680 3681
1228 1 3683 3684
1229 1 3686 3687
1230 1 3689 3690
1231 1 3692 3693
1232 1 3695 3696
1233 1 3698 3699
1234 1 3701 3702
1235 1 3704 3705
1236 1 3707 3708
1237 1 3710 3711
1238 1 3713 3714
1239 1 3716 3717
1240 1 3719 3720
1241 1 3722 3723
1242 1 3725 3726
1243 1 3728 3729
1244 1 3731 3732
1245 1 3734 3735
1246 1 3737 3738
1247 1 3740 3741
1248 1 3743 3744
1249 1 3746 3747
1250 1 3749 3750
1251 1 3752 3753
1252 1 3755 3756
1253 1 3758 3759
1254 1 3761 3762
1255 1 3764 3765
1256 1 3767 3768
1257 1 3770 3771
1258 1 3773 3774
1259 1 3776 3777
1260 1 3779 3780
1261 1 3782 3783
1262 1 3785 3786
1263 1 3788 3789
1264 1 3791 3792
1265 1 3794 3795
1266 1 3797 3798
1267 1 3800 3801
1268 1 3803 3804
1269 1 3806 3807
1270 1 3809 3810
1271 1 3812 3813
1272 1 3815 3816
1273 1 3818 3819
1274 1 3821 3822
1275 1 3824 3825
1276 1 3827 3828
1277 1 3830 3831
1278 1 3833 3834
1279 1 3836 3837
1280 1 3839 3840
1281 1 3842 3843
1282 1 3845 3846
1283 1 3848 3849
1284 1 3851 3852
1285 1 3854 3855
1286 1 3857 3858
1287 1 3860 3861
1288 1 3863 3864
1289 1 3866 3867
1290 1 3869 3870
1291 1 3872 3873
1292 1 3875 3876
1293 1 3878 3879
1294 1 3881 3882
1295 1 3884 3885
1296 1 3887 3888
1297 1 3890 3891
1298 1 3893 3894
1299 1 3896 3897
1300 1 3899 3900
1301 1 3902 3903
1302 1 3905 3906
1303 1 3908 3909
1304 1 3911 3912
1305 1 3914 3915
1306 1 3917 3918
1307 1 3920 3921
1308 1 3923 3924
1309 1 3926 3927
1310 1 3929 3930
1311 1 3932 3933
1312 1 3935 3936
1313 1 3938 3939
1314 1 3941 3942
1315 1 3944 3945
1316 1 3947 3948
1317 1 3950 3951
1318 1 3953 3954
1319 1 3956 3957
1320 1 3959 3960
1321 1 3962 3963
1322 1 3965 3966
1323 1 3968 3969
1324 1 3971 3972
1325 1 3974 3975
1326 1 3977 3978
1327 1 3980 3981
1328 1 3983 3984
1329 1 3986 3987
1330 1 3989 3990
1331 1 3992 3993
1332 1 3995 3996
1333 1 3998 3999
1334 1 4001 4002
1335 1 4004 4005
1336 1 4007 4008
1337 1 4010 4011
1338 1 4013 4014
1339 1 4016 4017
1340 1 4019 4020
1341 1 4022 4023
1342 1 4025 4026
1343 1 4028 4029
1344 1 4031 4032
1345 1 4034 4035
1346 1 4037 4038
1347 1 4040 4041
1348 1 4043 4044
1349 1 4046 4047
1350 1 4049 4050
1351 1 4052 4053
1352 1 4055 4056
1353 1 4058 4059
1354 1 4061 4062
1355 1 4064 4065
1356 1 4067 4068
1357 1 4070 4071
1358 1 4073 4074
1359 1 4076 4077
1360 1 4079 4080
1361 1 4082 4083
1362 1 4085 4086
1363 1 4088 4089
1364 1 4091 4092
1365 1 4094 4095
1366 1 4097 4098
1367 1 4100 4101
1368 1 4103 4104
1369 1 4106 4107
1370 1 4109 4110
1371 1 4112 4113
1372 1 4115 4116
1373 1 4118 4119
1374 1 4121 4122
1375 1 4124 4125
1376 1 4127 4128
1377 1 4130 4131
1378 1 4133 4134
1379 1 4136 4137
1380 1 4139 4140
1381 1 4142 4143
1382 1 4145 4146
1383 1 4148 4149
1384 1 4151 4152
1385 1 4154 4155
1386 1 4157 4158
1387 1 4160 4161
1388 1 4163 4164
1389 1 4166 4167
1390 1 4169 4170
1391 1 4172 4173
1392 1 4175 4176
1393 1 4178 4179
1394 1 4181 4182
1395 1 4184 4185
1396 1 4187 4188
1397 1 4190 4191
1398 1 4193 4194
1399 1 4196 4197
1400 1 4199 4200
1401 1 4202 4203
1402 1 4205 4206
1403 1 4208 4209
1404 1 4211 4212
1405 1 4214 4215
1406 1 4217 4218
1407 1 4220 4221
1408 1 4223 4224
1409 1 4226 4227
1410 1 4229 4230
1411 1 4232 4233
1412 1 4235 4236
1413 1 4238 4239
1414 1 4241 4242
1415 1 4244 4245
1416 1 4247 4248
1417 1 4250 4251
1418 1 4253 4254
1419 1 4256 4257
1420 1 4259 4260
1421 1 4262 4263
1422 1 4265 4266
1423 1 4268 4269
1424 1 4271 4272
1425 1 4274 4275
1426 1 4277 4278
1427 1 4280 4281
1428 1 4283 4284
1429 1 4286 4287
1430 1 4289 4290
1431 1 4292 4293
1432 1 4295 4296
1433 1 4298 4299
1434 1 4301 4302
1435 1 4304 4305
1436 1 4307 4308
1437 1 4310 4311
1438 1 4313 4314
1439 1 4316 4317
1440 1 4319 4320
1441 1 4322 4323
1442 1 4325 4326
1443 1 4328 4329
1444 1 4331 4332
1445 1 4334 4335
1446 1 4337 4338
1447 1 4340 4341
1448 1 4343 4344
1449 1 4346 4347
1450 1 4349 4350
1451 1 4352 4353
1452 1 4355 4356
1453 1 4358 4359
1454 1 4361 4362
1455 1 4364 4365
1456 1 4367 4368
1457 1 4370 4371
1458 1 4373 4374
1459 1 4376 4377
1460 1 4379 4380
1461 1 4382 4383
1462 1 4385 4386
1463 1 4388 4389
1464 1 4391 4392
1465 1 4394 4395
1466 1 4397 4398
1467 1 4400 4401
1468 1 4403 4404
1469 1 4406 4407
1470 1 4409 4410
1471 1 4412 4413
1472 1 4415 4416
1473 1 4418 4419
1474 1 4421 4422
1475 1 4424 4425
1476 1 4427 4428
1477 1 4430 4431
1478 1 4433 4434
1479 1 4436 4437
1480 1 4439 4440
1481 1 4442 4443
1482 1 4445 4446
1483 1 4448 4449
1484 1 4451 4452
1485 1 4454 4455
1486 1 4457 4458
1487 1 4460 4461
1488 1 4463 4464
1489 1 4466 4467
1490 1 4469 4470
1491 1 4472 4473
1492 1 4475 4476
1493 1 4478 4479
1494 1 4481 4482
1495 1 4484 4485
1496 1 4487 4488
1497 1 4490 4491
1498 1 4493 4494
1499 1 4496 4497
1500 1 4499 4500
1501 1 4502 4503
1502 1 4505 4506
1503 1 4508 4509
1504 1 4511 4512
1505 1 4514 4515
1506 1 4517 4518
1507 1 4520 4521
1508 1 4523 4524
1509 1 4526 4527
1510 1 4529 4530
1511 1 4532 4533
1512 1 4535 4536
1513 1 4538 4539
1514 1 4541 4542
1515 1 4544 4545
1516 1 4547 4548
1517 1 4550 4551
1518 1 4553 4554
1519 1 4556 4557
1520 1 4559 4560
1521 1 4562 4563
1522 1 4565 4566
1523 1 4568 4569
1524 1 4571 4572
1525 1 4574 4575
1526 1 4577 4578
1527 1 4580 4581
1528 1 4583 4584
1529 1 4586 4587
1530 1 4589 4590
1531 1 4592 4593
1532 1 4595 4596
1533 1 4598 4599
1534 1 4601 4602
1535 1 4604 4605
1536 1 4607 4608
1537 1 4610 4611
1538 1 4613 4614
1539 1 4616 4617
1540 1 4619 4620
1541 1 4622 4623
1542 1 4625 4626
1543 1 4628 4629
1544 1 4631 4632
1545 1 4634 4635
1546 1 4637 4638
1547 1 4640 4641
1548 1 4643 4644
1549 1 4646 4647
1550 1 4649 4650
1551 1 4652 4653
1552 1 4655 4656
1553 1 4658 4659
1554 1 4661 4662
1555 1 4664 4665
1556 1 4667 4668
1557 1 4670 4671
1558 1 4673 4674
1559 1 4676 4677
1560 1 4679 4680
1561 1 4682 4683
1562 1 4685 4686
1563 1 4688 4689
1564 1 4691 4692
1565 1 4694 4695
1566 1 4697 4698
1567 1 4700 4701
1568 1 4703 4704
1569 1 4706 4707
1570 1 4709 4710
1571 1 4712 4713
1572 1 4715 4716
1573 1 4718 4719
1574 1 4721 4722
1575 1 4724 4725
1576 1 4727 4728
1577 1 4730 4731
1578 1 4733 4734
1579 1 4736 4737
1580 1 4739 4740
1581 1 4742 4743
1582 1 4745 4746
1583 1 4748 4749
1584 1 4751 4752
1585 1 4754 4755
1586 1 4757 4758
1587 1 4760 4761
1588 1 4763 4764
1589 1 4766 4767
1590 1 4769 4770
1591 1 4772 4773
1592 1 4775 4776
1593 1 4778 4779
1594 1 4781 4782
1595 1 4784 4785
1596 1 4787 4788
1597 1 4790 4791
1598 1 4793 4794
1599 1 4796 4797
1600 1 4799 4800
1601 1 4802 4803
1602 1 4805 4806
1603 1 4808 4809
1604 1 4811 4812
1605 1 4814 4815
1606 1 4817 4818
1607 1 4820 4821
1608 1 4823 4824
1609 1 4826 4827
1610 1 4829 4830
1611 1 4832 4833
1612 1 4835 4836
1613 1 4838 4839
1614 1 4841 4842
1615 1 4844 4845
1616 1 4847 4848
1617 1 4850 4851
1618 1 4853 4854
1619 1 4856 4857
1620 1 4859 4860
1621 1 4862 4863
1622 1 4865 4866
1623 1 4868 4869
1624 1 4871 4872
1625 1 4874 4875
1626 1 4877 4878
1627 1 4880 4881
1628 1 4883 4884
1629 1 4886 4887
1630 1 4889 4890
1631 1 4892 4893
1632 1 4895 4896
1633 1 4898 4899
1634 1 4901 4902
1635 1 4904 4905
1636 1 4907 4908
1637 1 4910 4911
1638 1 4913 4914
1639 1 4916 4917
1640 1 4919 4920
1641 1 4922 4923
1642 1 4925 4926
1643 1 4928 4929
1644 1 4931 4932
1645 1 4934 4935
1646 1 4937 4938
1647 1 4940 4941
1648 1 4943 4944
1649 1 4946 4947
1650 1 4949 4950
1651 1 4952 4953
1652 1 4955 4956
1653 1 4958 4959
1654 1 4961 4962
1655 1 4964 4965
1656 1 4967 4968
1657 1 4970 4971
1658 1 4973 4974
1659 1 4976 4977
1660 1 4979 4980
1661 1 4982 4983
1662 1 4985 4986
1663 1 4988 4989
1664 1 4991 4992
1665 1 4994 4995
1666 1 4997 4998
1667 1 5000 5001
1668 1 5003 5004
1669 1 5006 5007
1670 1 5009 5010
1671 1 5012 5013
1672 1 5015 5016
1673 1 5018 5019
1674 1 5021 5022
1675 1 5024 5025
1676 1 5027 5028
1677 1 5030 5031
1678 1 5033 5034
1679 1 5036 5037
1680 1 5039 5040
1681 1 5042 5043
1682 1 5045 5046
1683 1 5048 5049
1684 1 5051 5052
1685 1 5054 5055
1686 1 5057 5058
1687 1 5060 5061
1688 1 5063 5064
1689 1 5066 5067
1690 1 5069 5070
1691 1 5072 5073
1692 1 5075 5076
1693 1 5078 5079
1694 1 5081 5082
1695 1 5084 5085
1696 1 5087 5088
1697 1 5090 5091
1698 1 5093 5094
1699 1 5096 5097
1700 1 5099 5100
1701 1 5102 5103
1702 1 5105 5106
1703 1 5108 5109
1704 1 5111 5112
1705 1 5114 5115
1706 1 5117 5118
1707 1 5120 5121
1708 1 5123 5124
1709 1 5126 5127
1710 1 5129 5130
1711 1 5132 5133
1712 1 5135 5136
1713 1 5138 5139
1714 1 5141 5142
1715 1 5144 5145
1716 1 5147 5148
1717 1 5150 5151
1718 1 5153 5154
1719 1 5156 5157
1720 1 5159 5160
1721 1 5162 5163
1722 1 5165 5166
1723 1 5168 5169
1724 1 5171 5172
1725 1 5174 5175
1726 1 5177 5178
1727 1 5180 5181
1728 1 5183 5184
1729 1 5186 5187
1730 1 5189 5190
1731 1 5192 5193
1732 1 5195 5196
1733 1 5198 5199
1734 1 5201 5202
1735 1 5204 5205
1736 1 5207 5208
1737 1 5210 5211
1738 1 5213 5214
1739 1 5216 5217
1740 1 5219 5220
1741 1 5222 5223
1742 1 5225 5226
1743 1 5228 5229
1744 1 5231 5232
1745 1 5234 5235
1746 1 5237 5238
1747 1 5240 5241
1748 1 5243 5244
1749 1 5246 5247
1750 1 5249 5250
1751 1 5252 5253
1752 1 5255 5256
1753 1 5258 5259
1754 1 5261 5262
1755 1 5264 5265
1756 1 5267 5268
1757 1 5270 5271
1758 1 5273 5274
1759 1 5276 5277
1760 1 5279 5280
1761 1 5282 5283
1762 1 5285 5286
1763 1 5288 5289
1764 1 5291 5292
1765 1 5294 5295
1766 1 5297 5298
1767 1 5300 5301
1768 1 5303 5304
1769 1 5306 5307
1770 1 5309 5310
1771 1 5312 5313
1772 1 5315 5316
1773 1 5318 5319
1774 1 5321 5322
1775 1 5324 5325
1776 1 5327 5328
1777 1 5330 5331
1778 1 5333 5334
1779 1 5336 5337
1780 1 5339 5340
1781 1 5342 5343
1782 1 5345 5346
1783 1 5348 5349
1784 1 5351 5352
1785 1 5354 5355
1786 1 5357 5358
1787 1 5360 5361
1788 1 5363 5364
1789 1 5366 5367
1790 1 5369 5370
1791 1 5372 5373
1792 1 5375 5376
1793 1 5378 5379
1794 1 5381 5382
1795 1 5384 5385
1796 1 5387 5388
1797 1 5390 5391
1798 1 5393 5394
1799 1 5396 5397
1800 1 5399 5400
1801 1 5402 5403
1802 1 5405 5406
1803 1 5408 5409
1804 1 5411 5412
1805 1 5414 5415
1806 1 5417 5418
1807 1 5420 5421
1808 1 5423 5424
1809 1 5426 5427
1810 1 5429 5430
1811 1 5432 5433
1812 1 5435 5436
1813 1 5438 5439
1814 1 5441 5442
1815 1 5444 5445
1816 1 5447 5448
1817 1 5450 5451
1818 1 5453 5454
1819 1 5456 5457
1820 1 5459 5460
1821 1 5462 5463
1822 1 5465 5466
1823 1 5468 5469
1824 1 5471 5472
1825 1 5474 5475
1826 1 5477 5478
1827 1 5480 5481
1828 1 5483 5484
1829 1 5486 5487
1830 1 5489 5490
1831 1 5492 5493
1832 1 5495 5496
1833 1 5498 5499
1834 1 5501 5502
1835 1 5504 5505
1836 1 5507 5508
1837 1 5510 5511
1838 1 5513 5514
1839 1 5516 5517
1840 1 5519 5520
1841 1 5522 5523
1842 1 5525 5526
1843 1 5528 5529
1844 1 5531 5532
1845 1 5534 5535
1846 1 5537 5538
1847 1 5540 5541
1848 1 5543 5544
1849 1 5546 5547
1850 1 5549 5550
1851 1 5552 5553
1852 1 5555 5556
1853 1 5558 5559
1854 1 5561 5562
1855 1 5564 5565
1856 1 5567 5568
1857 1 5570 5571
1858 1 5573 5574
1859 1 5576 5577
1860 1 5579 5580
1861 1 5582 5583
1862 1 5585 5586
1863 1 5588 5589
1864 1 5591 5592
1865 1 5594 5595
1866 1 5597 5598
1867 1 5600 5601
1868 1 5603 5604
1869 1 5606 5607
1870 1 5609 5610
1871 1 5612 5613
1872 1 5615 5616
1873 1 5618 5619
1874 1 5621 5622
1875 1 5624 5625
1876 1 5627 5628
1877 1 5630 5631
1878 1 5633 5634
1879 1 5636 5637
1880 1 5639 5640
1881 1 5642 5643
1882 1 5645 5646
1883 1 5648 5649
1884 1 5651 5652
1885 1 5654 5655
1886 1 5657 5658
1887 1 5660 5661
1888 1 5663 5664
1889 1 5666 5667
1890 1 5669 5670
1891 1 5672 5673
1892 1 5675 5676
1893 1 5678 5679
1894 1 5681 5682
1895 1 5684 5685
1896 1 5687 5688
1897 1 5690 5691
1898 1 5693 5694
1899 1 5696 5697
1900 1 5699 5700
1901 1 5702 5703
1902 1 5705 5706
1903 1 5708 5709
1904 1 5711 5712
1905 1 5714 5715
1906 1 5717 5718
1907 1 5720 5721
1908 1 5723 5724
1909 1 5726 5727
1910 1 5729 5730
1911 1 5732 5733
1912 1 5735 5736
1913 1 5738 5739
1914 1 5741 5742
1915 1 5744 5745
1916 1 5747 5748
1917 1 5750 5751
1918 1 5753 5754
1919 1 5756 5757
1920 1 5759 5760
1921 1 5762 5763
1922 1 5765 5766
1923 1 5768 5769
1924 1 5771 5772
1925 1 5774 5775
1926 1 5777 5778
1927 1 5780 5781
1928 1 5783 5784
1929 1 5786 5787
1930 1 5789 5790
1931 1 5792 5793
1932 1 5795 5796
1933 1 5798 5799
1934 1 5801 5802
1935 1 5804 5805
1936 1 5807 5808
1937 1 5810 5811
1938 1 5813 5814
1939 1 5816 5817
1940 1 5819 5820
1941 1 5822 5823
1942 1 5825 5826
1943 1 5828 5829
1944 1 5831 5832
1945 1 5834 5835
1946 1 5837 5838
1947 1 5840 5841
1948 1 5843 5844
1949 1 5846 5847
1950 1 5849 5850
1951 1 5852 5853
1952 1 5855 5856
1953 1 5858 5859
1954 1 5861 5862
1955 1 5864 5865
1956 1 5867 5868
1957 1 5870 5871
1958 1 5873 5874
1959 1 5876 5877
1960 1 5879 5880
1961 1 5882 5883
1962 1 5885 5886
1963 1 5888 5889
1964 1 5891 5892
1965 1 5894 5895
1966 1 5897 5898
1967 1 5900 5901
1968 1 5903 5904
1969 1 5906 5907
1970 1 5909 5910
1971 1 5912 5913
1972 1 5915 5916
1973 1 5918 5919
1974 1 5921 5922
1975 1 5924 5925
1976 1 5927 5928
1977 1 5930 5931
1978 1 5933 5934
1979 1 5936 5937
1980 1 5939 5940
1981 1 5942 5943
1982 1 5945 5946
1983 1 5948 5949
1984 1 5951 5952
1985 1 5954 5955
1986 1 5957 5958
1987 1 5960 5961
1988 1 5963 5964
1989 1 5966 5967
1990 1 5969 5970
1991 1 5972 5973
1992 1 5975 5976
1993 1 5978 5979
1994 1 5981 5982
1995 1 5984 5985
1996 1 5987 5988
1997 1 5990 5991
1998 1 5993 5994
1999 1 5996 5997
2000 1 5999 6000
2001 1 6002 6003
2002 1 6005 6006
2003 1 6008 6009
2004 1 6011 6012
2005 1 6014 6015
2006 1 6017 6018
2007 1 6020 6021
2008 1 6023 6024
2009 1 6026 6027
2010 1 6029 6030
2011 1 6032 6033
2012 1 6035 6036
2013 1 6038 6039
2014 1 6041 6042
2015 1 6044 6045
2016 1 6047 6048
2017 1 6050 6051
2018 1 6053 6054
2019 1 6056 6057
2020 1 6059 6060
2021 1 6062 6063
2022 1 6065 6066
2023 1 6068 6069
2024 1 6071 6072
2025 1 6074 6075
2026 1 6077 6078
2027 1 6080 6081
2028 1 6083 6084
2029 1 6086 6087
2030 1 6089 6090
2031 1 6092 6093
2032 1 6095 6096
2033 1 6098 6099
2034 1 6101 6102
2035 1 6104 6105
2036 1 6107 6108
2037 1 6110 6111
2038 1 6113 6114
2039 1 6116 6117
2040 1 6119 6120
2041 1 6122 6123
2042 1 6125 6126
2043 1 6128 6129
2044 1 6131 6132
2045 1 6134 6135
2046 1 6137 6138
2047 1 6140 6141
2048 1 6143 6144
2049 1 6146 6147
2050 1 6149 6150
2051 1 6152 6153
2052 1 6155 6156
2053 1 6158 6159
2054 1 6161 6162
2055 1 6164 6165
2056 1 6167 6168
2057 1 6170 6171
2058 1 6173 6174
2059 1 6176 6177
2060 1 6179 6180
2061 1 6182 6183
2062 1 6185 6186
2063 1 6188 6189
2064 1 6191 6192
2065 1 6194 6195
2066 1 6197 6198
2067 1 6200 6201
2068 1 6203 6204
2069 1 6206 6207
2070 1 6209 6210
2071 1 6212 6213
2072 1 6215 6216
2073 1 6218 6219
2074 1 6221 6222
2075 1 6224 6225
2076 1 6227 6228
2077 1 6230 6231
2078 1 6233 6234
2079 1 6236 6237
2080 1 6239 6240
2081 1 6242 6243
2082 1 6245 6246
2083 1 6248 6249
2084 1 6251 6252
2085 1 6254 6255
2086 1 6257 6258
2087 1 6260 6261
2088 1 6263 6264
2089 1 6266 6267
2090 1 6269 6270
2091 1 6272 6273
2092 1 6275 6276
2093 1 6278 6279
2094 1 6281 6282
2095 1 6284 6285
2096 1 6287 6288
2097 1 6290 6291
2098 1 6293 6294
2099 1 6296 6297
2100 1 6299 6300
2101 1 6302 6303
2102 1 6305 6306
2103 1 6308 6309
2104 1 6311 6312
2105 1 6314 6315
2106 1 6317 6318
2107 1 6320 6321
2108 1 6323 6324
2109 1 6326 6327
2110 1 6329 6330
2111 1 6332 6333
2112 1 6335 6336
2113 1 6338 6339
2114 1 6341 6342
2115 1 6344 6345
2116 1 6347 6348
2117 1 6350 6351
2118 1 6353 6354
2119 1 6356 6357
2120 1 6359 6360
2121 1 6362 6363
2122 1 6365 6366
2123 1 6368 6369
2124 1 6371 6372
2125 1 6374 6375
2126 1 6377 6378
2127 1 6380 6381
2128 1 6383 6384
2129 1 6386 6387
2130 1 6389 6390
2131 1 6392 6393
2132 1 6395 6396
2133 1 6398 6399
2134 1 6401 6402
2135 1 6404 6405
2136 1 6407 6408
2137 1 6410 6411
2138 1 6413 6414
2139 1 6416 6417
2140 1 6419 6420
2141 1 6422 6423
2142 1 6425 6426
2143 1 6428 6429
2144 1 6431 6432
2145 1 6434 6435
2146 1 6437 6438
2147 1 6440 6441
2148 1 6443 6444
2149 1 6446 6447
2150 1 6449 6450
2151 1 6452 6453
2152 1 6455 6456
2153 1 6458 6459
2154 1 6461 6462
2155 1 6464 6465
2156 1 6467 6468
2157 1 6470 6471
2158 1 6473 6474
2159 1 6476 6477
2160 1 6479 6480
2161 1 6482 6483
2162 1 6485 6486
2163 1 6488 6489
2164 1 6491 6492
2165 1 6494 6495
2166 1 6497 6498
2167 1 6500 6501
2168 1 6503 6504
2169 1 6506 6507
2170 1 6509 6510
2171 1 6512 6513
2172 1 6515 6516
2173 1 6518 6519
2174 1 6521 6522
2175 1 6524 6525
2176 1 6527 6528
2177 1 6530 6531
2178 1 6533 6534
2179 1 6536 6537
2180 1 6539 6540
2181 1 6542 6543
2182 1 6545 6546
2183 1 6548 6549
2184 1 6551 6552
2185 1 6554 6555
2186 1 6557 6558
2187 1 6560 6561
2188 1 6563 6564
2189 1 6566 6567
2190 1 6569 6570
2191 1 6572 6573
2192 1 6575 6576
2193 1 6578 6579
2194 1 6581 6582
2195 1 6584 6585
2196 1 6587 6588
2197 1 6590 6591
2198 1 6593 6594
2199 1 6596 6597
2200 1 6599 6600
2201 1 6602 6603
2202 1 6605 6606
2203 1 6608 6609
2204 1 6611 6612
2205 1 6614 6615
2206 1 6617 6618
2207 1 6620 6621
2208 1 6623 6624
2209 1 6626 6627
2210 1 6629 6630
2211 1 6632 6633
2212 1 6635 6636
2213 1 6638 6639
2214 1 6641 6642
2215 1 6644 6645
2216 1 6647 6648
2217 1 6650 6651
2218 1 6653 6654
2219 1 6656 6657
2220 1 6659 6660
2221 1 6662 6663
2222 1 6665 6666
2223 1 6668 6669
2224 1 6671 6672
2225 1 6674 6675
2226 1 6677 6678
2227 1 6680 6681
2228 1 6683 6684
2229 1 6686 6687
2230 1 6689 6690
2231 1 6692 6693
2232 1 6695 6696
2233 1 6698 6699
2234 1 6701 6702
2235 1 6704 6705
2236 1 6707 6708
2237 1 6710 6711
2238 1 6713 6714
2239 1 6716 6717
2240 1 6719 6720
2241 1 6722 6723
2242 1 6725 6726
2243 1 6728 6729
2244 1 6731 6732
2245 1 6734 6735
2246 1 6737 6738
2247 1 6740 6741
2248 1 6743 6744
2249 1 6746 6747
2250 1 6749 6750
2251 1 6752 6753
2252 1 6755 6756
2253 1 6758 6759
2254 1 6761 6762
2255 1 6764 6765
2256 1 6767 6768
2257 1 6770 6771
2258 1 6773 6774
2259 1 6776 6777
2260 1 6779 6780
2261 1 6782 6783
2262 1 6785 6786
2263 1 6788 6789
2264 1 6791 6792
2265 1 6794 6795
2266 1 6797 6798
2267 1 6800 6801
2268 1 6803 6804
2269 1 6806 6807
2270 1 6809 6810
2271 1 6812 6813
2272 1 6815 6816
2273 1 6818 6819
2274 1 6821 6822
2275 1 6824 6825
2276 1 6827 6828
2277 1 6830 6831
2278 1 6833 6834
2279 1 6836 6837
2280 1 6839 6840
2281 1 6842 6843
2282 1 6845 6846
2283 1 6848 6849
2284 1 6851 6852
2285 1 6854 6855
2286 1 6857 6858
2287 1 6860 6861
2288 1 6863 6864
2289 1 6866 6867
2290 1 6869 6870
2291 1 6872 6873
2292 1 6875 6876
2293 1 6878 6879
2294 1 6881 6882
2295 1 6884 6885
2296 1 6887 6888
2297 1 6890 6891
2298 1 6893 6894
2299 1 6896 6897
2300 1 6899 6900
2301 1 6902 6903
2302 1 6905 6906
2303 1 6908 6909
2304 1 6911 6912
2305 1 6914 6915
2306 1 6917 6918
2307 1 6920 6921
2308 1 6923 6924
2309 1 6926 6927
2310 1 6929 6930
2311 1 6932 6933
2312 1 6935 6936
2313 1 6938 6939
2314 1 6941 6942
2315 1 6944 6945
2316 1 6947 6948
2317 1 6950 6951
2318 1 6953 6954
2319 1 6956 6957
2320 1 6959 6960
2321 1 6962 6963
2322 1 6965 6966
2323 1 6968 6969
2324 1 6971 6972
2325 1 6974 6975
2326 1 6977 6978
2327 1 6980 6981
2328 1 6983 6984
2329 1 6986 6987
2330 1 6989 6990
2331 1 6992 6993
2332 1 6995 6996
2333 1 6998 6999
2334 1 7001 7002
2335 1 7004 7005
2336 1 7007 7008
2337 1 7010 7011
2338 1 7013 7014
2339 1 7016 7017
2340 1 7019 7020
2341 1 7022 7023
2342 1 7025 7026
2343 1 7028 7029
2344 1 7031 7032
2345 1 7034 7035
2346 1 7037 7038
2347 1 7040 7041
2348 1 7043 7044
2349 1 7046 7047
2350 1 7049 7050
2351 1 7052 7053
2352 1 7055 7056
2353 1 7058 7059
2354 1 7061 7062
2355 1 7064 7065
2356 1 7067 7068
2357 1 7070 7071
2358 1 7073 7074
2359 1 7076 7077
2360 1 7079 7080
2361 1 7082 7083
2362 1 7085 7086
2363 1 7088 7089
2364 1 7091 7092
2365 1 7094 7095
2366 1 7097 7098
2367 1 7100 7101
2368 1 7103 7104
2369 1 7106 7107
2370 1 7109 7110
2371 1 7112 7113
2372 1 7115 7116
2373 1 7118 7119
2374 1 7121 7122
2375 1 7124 7125
2376 1 7127 7128
2377 1 7130 7131
2378 1 7133 7134
2379 1 7136 7137
2380 1 7139 7140
2381 1 7142 7143
2382 1 7145 7146
2383 1 7148 7149
2384 1 7151 7152
2385 1 7154 7155
2386 1 7157 7158
2387 1 7160 7161
2388 1 7163 7164
2389 1 7166 7167
2390 1 7169 7170
2391 1 7172 7173
2392 1 7175 7176
2393 1 7178 7179
2394 1 7181 7182
2395 1 7184 7185
2396 1 7187 7188
2397 1 7190 7191
2398 1 7193 7194
2399 1 7196 7197
2400 1 7199 7200
2401 1 7202 7203
2402 1 7205 7206
2403 1 7208 7209
2404 1 7211 7212
2405 1 7214 7215
2406 1 7217 7218
2407 1 7220 7221
2408 1 7223 7224
2409 1 7226 7227
2410 1 7229 7230
2411 1 7232 7233
2412 1 7235 7236
2413 1 7238 7239
2414 1 7241 7242
2415 1 7244 7245
2416 1 7247 7248
2417 1 7250 7251
2418 1 7253 7254
2419 1 7256 7257
2420 1 7259 7260
2421 1 7262 7263
2422 1 7265 7266
2423 1 7268 7269
2424 1 7271 7272
2425 1 7274 7275
2426 1 7277 7278
2427 1 7280 7281
2428 1 7283 7284
2429 1 7286 7287
2430 1 7289 7290
2431 1 7292 7293
2432 1 7295 7296
2433 1 7298 7299
2434 1 7301 7302
2435 1 7304 7305
2436 1 7307 7308
2437 1 7310 7311
2438 1 7313 7314
2439 1 7316 7317
2440 1 7319 7320
2441 1 7322 7323
2442 1 7325 7326
2443 1 7328 7329
2444 1 7331 7332
2445 1 7334 7335
2446 1 7337 7338
2447 1 7340 7341
2448 1 7343 7344
2449 1 7346 7347
2450 1 7349 7350
2451 1 7352 7353
2452 1 7355 7356
2453 1 7358 7359
2454 1 7361 7362
2455 1 7364 7365
2456 1 7367 7368
2457 1 7370 7371
2458 1 7373 7374
2459 1 7376 7377
2460 1 7379 7380
2461 1 7382 7383
2462 1 7385 7386
2463 1 7388 7389
2464 1 7391 7392
2465 1 7394 7395
2466 1 7397 7398
2467 1 7400 7401
2468 1 7403 7404
2469 1 7406 7407
2470 1 7409 7410
2471 1 7412 7413
2472 1 7415 7416
2473 1 7418 7419
2474 1 7421 7422
2475 1 7424 7425
2476 1 7427 7428
2477 1 7430 7431
2478 1 7433 7434
2479 1 7436 7437
2480 1 7439 7440
2481 1 7442 7443
2482 1 7445 7446
2483 1 7448 7449
2484 1 7451 7452
2485 1 7454 7455
2486 1 7457 7458
2487 1 7460 7461
2488 1 7463 7464
2489 1 7466 7467
2490 1 7469 7470
2491 1 7472 7473
2492 1 7475 7476
2493 1 7478 7479
2494 1 7481 7482
2495 1 7484 7485
2496 1 7487 7488
2497 1 7490 7491
2498 1 7493 7494
2499 1 7496 7497
2500 1 7499 7500
2501 1 7502 7503
2502 1 7505 7506
2503 1 7508 7509
2504 1 7511 7512
2505 1 7514 7515
2506 1 7517 7518
2507 1 7520 7521
2508 1 7523 7524
2509 1 7526 7527
2510 1 7529 7530
2511 1 7532 7533
2512 1 7535 7536
2513 1 7538 7539
2514 1 7541 7542
2515 1 7544 7545
2516 1 7547 7548
2517 1 7550 7551
2518 1 7553 7554
2519 1 7556 7557
2520 1 7559 7560
2521 1 7562 7563
2522 1 7565 7566
2523 1 7568 7569
2524 1 7571 7572
2525 1 7574 7575
2526 1 7577 7578
2527 1 7580 7581
2528 1 7583 7584
2529 1 7586 7587
2530 1 7589 7590
2531 1 7592 7593
2532 1 7595 7596
2533 1 7598 7599
2534 1 7601 7602
2535 1 7604 7605
2536 1 7607 7608
2537 1 7610 7611
2538 1 7613 7614
2539 1 7616 7617
2540 1 7619 7620
2541 1 7622 7623
2542 1 7625 7626
2543 1 7628 7629
2544 1 7631 7632
2545 1 7634 7635
2546 1 7637 7638
2547 1 7640 7641
2548 1 7643 7644
2549 1 7646 7647
2550 1 7649 7650
2551 1 7652 7653
2552 1 7655 7656
2553 1 7658 7659
2554 1 7661 7662
2555 1 7664 7665
2556 1 7667 7668
2557 1 7670 7671
2558 1 7673 7674
2559 1 7676 7677
2560 1 7679 7680
2561 1 7682 7683
2562 1 7685 7686
2563 1 7688 7689
2564 1 7691 7692
2565 1 7694 7695
2566 1 7697 7698
2567 1 7700 7701
2568 1 7703 7704
2569 1 7706 7707
2570 1 7709 7710
2571 1 7712 7713
2572 1 7715 7716
2573 1 7718 7719
2574 1 7721 7722
2575 1 7724 7725
2576 1 7727 7728
2577 1 7730 7731
2578 1 7733 7734
2579 1 7736 7737
2580 1 7739 7740
2581 1 7742 7743
2582 1 7745 7746
2583 1 7748 7749
2584 1 7751 7752
2585 1 7754 7755
2586 1 7757 7758
2587 1 7760 7761
2588 1 7763 7764
2589 1 7766 7767
2590 1 7769 7770
2591 1 7772 7773
2592 1 7775 7776
2593 1 7778 7779
2594 1 7781 7782
2595 1 7784 7785
2596 1 7787 7788
2597 1 7790 7791
2598 1 7793 7794
2599 1 7796 7797
2600 1 7799 7800
2601 1 7802 7803
2602 1 7805 7806
2603 1 7808 7809
2604 1 7811 7812
2605 1 7814 7815
2606 1 7817 7818
2607 1 7820 7821
2608 1 7823 7824
2609 1 7826 7827
2610 1 7829 7830
2611 1 7832 7833
2612 1 7835 7836
2613 1 7838 7839
2614 1 7841 7842
2615 1 7844 7845
2616 1 7847 7848
2617 1 7850 7851
2618 1 7853 7854
2619 1 7856 7857
2620 1 7859 7860
2621 1 7862 7863
2622 1 7865 7866
2623 1 7868 7869
2624 1 7871 7872
2625 1 7874 7875
2626 1 7877 7878
2627 1 7880 7881
2628 1 7883 7884
2629 1 7886 7887
2630 1 7889 7890
2631 1 7892 7893
2632 1 7895 7896
2633 1 7898 7899
2634 1 7901 7902
2635 1 7904 7905
2636 1 7907 7908
2637 1 7910 7911
2638 1 7913 7914
2639 1 7916 7917
2640 1 7919 7920
2641 1 7922 7923
2642 1 7925 7926
2643 1 7928 7929
2644 1 7931 7932
2645 1 7934 7935
2646 1 7937 7938
2647 1 7940 7941
2648 1 7943 7944
2649 1 7946 7947
2650 1 7949 7950
2651 1 7952 7953
2652 1 7955 7956
2653 1 7958 7959
2654 1 7961 7962
2655 1 7964 7965
2656 1 7967 7968
2657 1 7970 7971
2658 1 7973 7974
2659 1 7976 7977
2660 1 7979 7980
2661 1 7982 7983
2662 1 7985 7986
2663 1 7988 7989
2664 1 7991 7992
2665 1 7994 7995
2666 1 7997 7998
2667 1 8000 8001
2668 1 8003 8004
2669 1 8006 8007
2670 1 8009 8010
2671 1 8012 8013
2672 1 8015 8016
2673 1 8018 8019
2674 1 8021 8022
2675 1 8024 8025
2676 1 8027 8028
2677 1 8030 8031
2678 1 8033 8034
2679 1 8036 8037
2680 1 8039 8040
2681 1 8042 8043
2682 1 8045 8046
2683 1 8048 8049
2684 1 8051 8052
2685 1 8054 8055
2686 1 8057 8058
2687 1 8060 8061
2688 1 8063 8064
2689 1 8066 8067
2690 1 8069 8070
2691 1 8072 8073
2692 1 8075 8076
2693 1 8078 8079
2694 1 8081 8082
2695 1 8084 8085
2696 1 8087 8088
2697 1 8090 8091
2698 1 8093 8094
2699 1 8096 8097
2700 1 8099 8100
2701 1 8102 8103
2702 1 8105 8106
2703 1 8108 8109
2704 1 8111 8112
2705 1 8114 8115
2706 1 8117 8118
2707 1 8120 8121
2708 1 8123 8124
2709 1 8126 8127
2710 1 8129 8130
2711 1 8132 8133
2712 1 8135 8136
2713 1 8138 8139
2714 1 8141 8142
2715 1 8144 8145
2716 1 8147 8148
2717 1 8150 8151
2718 1 8153 8154
2719 1 8156 8157
2720 1 8159 8160
2721 1 8162 8163
2722 1 8165 8166
2723 1 8168 8169
2724 1 8171 8172
2725 1 8174 8175
2726 1 8177 8178
2727 1 8180 8181
2728 1 8183 8184
2729 1 8186 8187
2730 1 8189 8190
2731 1 8192 8193
2732 1 8195 8196
2733 1 8198 8199
2734 1 8201 8202
2735 1 8204 8205
2736 1 8207 8208
2737 1 8210 8211
2738 1 8213 8214
2739 1 8216 8217
2740 1 8219 8220
2741 1 8222 8223
2742 1 8225 8226
2743 1 8228 8229
2744 1 8231 8232
2745 1 8234 8235
2746 1 8237 8238
2747 1 8240 8241
2748 1 8243 8244
2749 1 8246 8247
2750 1 8249 8250
2751 1 8252 8253
2752 1 8255 8256
2753 1 8258 8259
2754 1 8261 8262
2755 1 8264 8265
2756 1 8267 8268
2757 1 8270 8271
2758 1 8273 8274
2759 1 8276 8277
2760 1 8279 8280
2761 1 8282 8283
2762 1 8285 8286
2763 1 8288 8289
2764 1 8291 8292
2765 1 8294 8295
2766 1 8297 8298
2767 1 8300 8301
2768 1 8303 8304
2769 1 8306 8307
2770 1 8309 8310
2771 1 8312 8313
2772 1 8315 8316
2773 1 8318 8319
2774 1 8321 8322
2775 1 8324 8325
2776 1 8327 8328
2777 1 8330 8331
2778 1 8333 8334
2779 1 8336 8337
2780 1 8339 8340
2781 1 8342 8343
2782 1 8345 8346
2783 1 8348 8349
2784 1 8351 8352
2785 1 8354 8355
2786 1 8357 8358
2787 1 8360 8361
2788 1 8363 8364
2789 1 8366 8367
2790 1 8369 8370
2791 1 8372 8373
2792 1 8375 8376
2793 1 8378 8379
2794 1 8381 8382
2795 1 8384 8385
2796 1 8387 8388
2797 1 8390 8391
2798 1 8393 8394
2799 1 8396 8397
2800 1 8399 8400
2801 1 8402 8403
2802 1 8405 8406
2803 1 8408 8409
2804 1 8411 8412
2805 1 8414 8415
2806 1 8417 8418
2807 1 8420 8421
2808 1 8423 8424
2809 1 8426 8427
2810 1 8429 8430
2811 1 8432 8433
2812 1 8435 8436
2813 1 8438 8439
2814 1 8441 8442
2815 1 8444 8445
2816 1 8447 8448
2817 1 8450 8451
2818 1 8453 8454
2819 1 8456 8457
2820 1 8459 8460
2821 1 8462 8463
2822 1 8465 8466
2823 1 8468 8469
2824 1 8471 8472
2825 1 8474 8475
2826 1 8477 8478
2827 1 8480 8481
2828 1 8483 8484
2829 1 8486 8487
2830 1 8489 8490
2831 1 8492 8493
2832 1 8495 8496
2833 1 8498 8499
2834 1 8501 8502
2835 1 8504 8505
2836 1 8507 8508
2837 1 8510 8511
2838 1 8513 8514
2839 1 8516 8517
2840 1 8519 8520
2841 1 8522 8523
2842 1 8525 8526
2843 1 8528 8529
2844 1 8531 8532
2845 1 8534 8535
2846 1 8537 8538
2847 1 8540 8541
2848 1 8543 8544
2849 1 8546 8547
2850 1 8549 8550
2851 1 8552 8553
2852 1 8555 8556
2853 1 8558 8559
2854 1 8561 8562
2855 1 8564 8565
2856 1 8567 8568
2857 1 8570 8571
2858 1 8573 8574
2859 1 8576 8577
2860 1 8579 8580
2861 1 8582 8583
2862 1 8585 8586
2863 1 8588 8589
2864 1 8591 8592
2865 1 8594 8595
2866 1 8597 8598
2867 1 8600 8601
2868 1 8603 8604
2869 1 8606 8607
2870 1 8609 8610
2871 1 8612 8613
2872 1 8615 8616
2873 1 8618 8619
2874 1 8621 8622
2875 1 8624 8625
2876 1 8627 8628
2877 1 8630 8631
2878 1 8633 8634
2879 1 8636 8637
2880 1 8639 8640
2881 1 8642 8643
2882 1 8645 8646
2883 1 8648 8649
2884 1 8651 8652
2885 1 8654 8655
2886 1 8657 8658
2887 1 8660 8661
2888 1 8663 8664
2889 1 8666 8667
2890 1 8669 8670
2891 1 8672 8673
2892 1 8675 8676
2893 1 8678 8679
2894 1 8681 8682
2895 1 8684 8685
2896 1 8687 8688
2897 1 8690 8691
2898 1 8693 8694
2899 1 8696 8697
2900 1 8699 8700
2901 1 8702 8703
2902 1 8705 8706
2903 1 8708 8709
2904 1 8711 8712
2905 1 8714 8715
2906 1 8717 8718
2907 1 8720 8721
2908 1 8723 8724
2909 1 8726 8727
2910 1 8729 8730
2911 1 8732 8733
2912 1 8735 8736
2913 1 8738 8739
2914 1 8741 8742
2915 1 8744 8745
2916 1 8747 8748
2917 1 8750 8751
2918 1 8753 8754
2919 1 8756 8757
2920 1 8759 8760
2921 1 8762 8763
2922 1 8765 8766
2923 1 8768 8769
2924 1 8771 8772
2925 1 8774 8775
2926 1 8777 8778
2927 1 8780 8781
2928 1 8783 8784
2929 1 8786 8787
2930 1 8789 8790
2931 1 8792 8793
2932 1 8795 8796
2933 1 8798 8799
2934 1 8801 8802
2935 1 8804 8805
2936 1 8807 8808
2937 1 8810 8811
2938 1 8813 8814
2939 1 8816 8817
2940 1 8819 8820
2941 1 8822 8823
2942 1 8825 8826
2943 1 8828 8829
2944 1 8831 8832
2945 1 8834 8835
2946 1 8837 8838
2947 1 8840 8841
2948 1 8843 8844
2949 1 8846 8847
2950 1 8849 8850
2951 1 8852 8853
2952 1 8855 8856
2953 1 8858 8859
2954 1 8861 8862
2955 1 8864 8865
2956 1 8867 8868
2957 1 8870 8871
2958 1 8873 8874
2959 1 8876 8877
2960 1 8879 8880
2961 1 8882 8883
2962 1 8885 8886
2963 1 8888 8889
2964 1 8891 8892
2965 1 8894 8895
2966 1 8897 8898
2967 1 8900 8901
2968 1 8903 8904
2969 1 8906 8907
2970 1 8909 8910
2971 1 8912 8913
2972 1 8915 8916
2973 1 8918 8919
2974 1 8921 8922
2975 1 8924 8925
2976 1 8927 8928
2977 1 8930 8931
2978 1 8933 8934
2979 1 8936 8937
2980 1 8939 8940
2981 1 8942 8943
2982 1 8945 8946
2983 1 8948 8949
2984 1 8951 8952
2985 1 8954 8955
2986 1 8957 8958
2987 1 8960 8961
2988 1 8963 8964
2989 1 8966 8967
2990 1 8969 8970
2991 1 8972 8973
2992 1 8975 8976
2993 1 8978 8979
2994 1 8981 8982
2995 1 8984 8985
2996 1 8987 8988
2997 1 8990 8991
2998 1 8993 8994
2999 1 8996 8997
3000 1 8999 9000
3001 2 1 4
3002 1 3 5
3003 2 4 7
3004 1 6 8
3005 2 7 10
3006 1 9 11
3007 2 10 13
3008 1 12 14
3009 2 13 16
3010 1 15 17
3011 2 19 22
3012 1 21 23
3013 2 22 25
3014 1 24 26
3015 2 25 28
3016 1 27 29
3017 2 28 31
3018 1 30 32
3019 2 31 34
3020 1 33 35
3021 2 37 40
3022 1 39 41
3023 2 40 43
3024 1 42 44
3025 2 43 46
3026 1 45 47
3027 2 46 49
3028 1 48 50
3029 2 49 52
3030 1 51 53
3031 2 55 58
3032 1 57 59
3033 2 58 61
3034 1 60 62
3035 2 61 64
3036 1 63 65
3037 2 64 67
3038 1 66 68
3039 2 67 70
3040 1 69 71
3041 2 73 76
3042 1 75 77
3043 2 76 79
3044 1 78 80
3045 2 79 82
3046 1 81 83
3047 2 82 85
3048 1 84 86
3049 2 85 88
3050 1 87 89
3051 2 91 94
3052 1 93 95
3053 2 94 97
3054 1 96 98
3055 2 97 100
3056 1 99 101
3057 2 100 103
3058 1 102 104
3059 2 103 106
3060 1 105 107
3061 2 109 112
3062 1 111 113
3063 2 112 115
3064 1 114 116
3065 2 115 118
3066 1 117 119
3067 2 118 121
3068 1 120 122
3069 2 121 124
3070 1 123 125
3071 2 127 130
3072 1 129 131
3073 2 130 133
3074 1 132 134
3075 2 133 136
3076 1 135 137
3077 2 136 139
3078 1 138 140
3079 2 139 142
3080 1 141 143
3081 2 145 148
3082 1 147 149
3083 2 148 151
3084 1 150 152
3085 2 151 154
3086 1 153 155
3087 2 154 157
3088 1 156 158
3089 2 157 160
3090 1 159 161
3091 2 163 166
3092 1 165 167
3093 2 166 169
3094 1 168 170
3095 2 169 172
3096 1 171 173
3097 2 172 175
3098 1 174 176
3099 2 175 178
3100 1 177 179
3101 2 181 184
3102 1 183 185
3103 2 184 187
3104 1 186 188
3105 2 187 190
3106 1 189 191
3107 2 190 193
3108 1 192 194
3109 2 193 196
3110 1 195 197
3111 2 199 202
3112 1 201 203
3113 2 202 205
3114 1 204 206
3115 2 205 208
3116 1 207 209
3117 2 208 211
3118 1 210 212
3119 2 211 214
3120 1 213 215
3121 2 217 220
3122 1 219 221
3123 2 220 223
3124 1 222 224
3125 2 223 226
3126 1 225 227
3127 2 226 229
3128 1 228 230
3129 2 229 232
3130 1 231 233
3131 2 235 238
3132 1 237 239
3133 2 238 241
3134 1 240 242
3135 2 241 244
3136 1 243 245
3137 2 244 247
3138 1 246 248
3139 2 247 250
3140 1 249 251
3141 2 253 256
3142 1 255 257
3143 2 256 259
3144 1 258 260
3145 2 259 262
3146 1 261 263
3147 2 262 265
3148 1 264 266
3149 2 265 268
3150 1 267 269
3151 2 271 274
3152 1 273 275
3153 2 274 277
3154 1 276 278
3155 2 277 280
3156 1 279 281
3157 2 280 283
3158 1 282 284
3159 2 283 286
3160 1 285 287
3161 2 289 292
3162 1 291 293
3163 2 292 295
3164 1 294 296
3165 2 295 298
3166 1 297 299
3167 2 298 301
3168 1 300 302
3169 2 301 304
3170 1 303 305
3171 2 307 310
3172 1 309 311
3173 2 310 313
3174 1 312 314
3175 2 313 316
3176 1 315 317
3177 2 316 319
3178 1 318 320
3179 2 319 322
3180 1 321 323
3181 2 325 328
3182 1 327 329
3183 2 328 331
3184 1 330 332
3185 2 331 334
3186 1 333 335
3187 2 334 337
3188 1 336 338
3189 2 337 340
3190 1 339 341
3191 2 343 346
3192 1 345 347
3193 2 346 349
3194 1 348 350
3195 2 349 352
3196 1 351 353
3197 2 352 355
3198 1 354 356
3199 2 355 358
3200 1 357 359
3201 2 361 364
3202 1 363 365
3203 2 364 367
3204 1 366 368
3205 2 367 370
3206 1 369 371
3207 2 370 373
3208 1 372 374
3209 2 373 376
3210 1 375 377
3211 2 379 382
3212 1 381 383
3213 2 382 385
3214 1 384 386
3215 2 385 388
3216 1 387 389
3217 2 388 391
3218 1 390 392
3219 2 391 394
3220 1 393 395
3221 2 397 400
3222 1 399 401
3223 2 400 403
3224 1 402 404
3225 2 403 406
3226 1 405 407
3227 2 406 409
3228 1 408 410
3229 2 409 412
3230 1 411 413
3231 2 415 418
3232 1 417 419
3233 2 418 421
3234 1 420 422
3235 2 421 424
3236 1 423 425
3237 2 424 427
3238 1 426 428
3239 2 427 430
3240 1 429 431
3241 2 433 436
3242 1 435 437
3243 2 436 439
3244 1 438 440
3245 2 439 442
3246 1 441 443
3247 2 442 445
3248 1 444 446
3249 2 445 448
3250 1 447 449
3251 2 451 454
3252 1 453 455
3253 2 454 457
3254 1 456 458
3255 2 457 460
3256 1 459 461
3257 2 460 463
3258 1 462 464
3259 2 463 466
3260 1 465 467
3261 2 469 472
3262 1 471 473
3263 2 472 475
3264 1 474 476
3265 2 475 478
3266 1 477 479
3267 2 478 481
3268 1 480 482
3269 2 481 484
3270 1 483 485
3271 2 487 490
3272 1 489 491
3273 2 490 493
3274 1 492 494
3275 2 493 496
3276 1 495 497
3277 2 496 499
3278 1 498 500
3279 2 499 502
3280 1 501 503
3281 2 505 508
3282 1 507 509
3283 2 508 511
3284 1 510 512
3285 2 511 514
3286 1 513 515
3287 2 514 517
3288 1 516 518
3289 2 517 520
3290 1 519 521
3291 2 523 526
3292 1 525 527
3293 2 526 529
3294 1 528 530
3295 2 529 532
3296 1 531 533
3297 2 532 535
3298 1 534 536
3299 2 535 538
3300 1 537 539
3301 2 541 544
3302 1 543 545
3303 2 544 547
3304 1 546 548
3305 2 547 550
3306 1 549 551
3307 2 550 553
3308 1 552 554
3309 2 553 556
3310 1 555 557
3311 2 559 562
3312 1 561 563
3313 2 562 565
3314 1 564 566
3315 2 565 568
3316 1 567 569
3317 2 568 571
3318 1 570 572
3319 2 571 574
3320 1 573 575
3321 2 577 580
3322 1 579 581
3323 2 580 583
3324 1 582 584
3325 2 583 586
3326 1 585 587
3327 2 586 589
3328 1 588 590
3329 2 589 592
3330 1 591 593
3331 2 595 598
3332 1 597 599
3333 2 598 601
3334 1 600 602
3335 2 601 604
3336 1 603 605
3337 2 604 607
3338 1 606 608
3339 2 607 610
3340 1 609 611
3341 2 613 616
3342 1 615 617
3343 2 616 619
3344 1 618 620
3345 2 619 622
3346 1 621 623
3347 2 622 625
3348 1 624 626
3349 2 625 628
3350 1 627 629
3351 2 631 634
3352 1 633 635
3353 2 634 637
3354 1 636 638
3355 2 637 640
3356 1 639 641
3357 2 640 643
3358 1 642 644
3359 2 643 646
3360 1 645 647
3361 2 649 652
3362 1 651 653
3363 2 652 655
3364 1 654 656
3365 2 655 658
3366 1 657 659
3367 2 658 661
3368 1 660 662
3369 2 661 664
3370 1 663 665
3371 2 667 670
3372 1 669 671
3373 2 670 673
3374 1 672 674
3375 2 673 676
3376 1 675 677
3377 2 676 679
3378 1 678 680
3379 2 679 682
3380 1 681 683
3381 2 685 688
3382 1 687 689
3383 2 688 691
3384 1 690 692
3385 2 691 694
3386 1 693 695
3387 2 694 697
3388 1 696 698
3389 2 697 700
3390 1 699 701
3391 2 703 706
3392 1 705 707
3393 2 706 709
3394 1 708 710
3395 2 709 712
3396 1 711 713
3397 2 712 715
3398 1 714 716
3399 2 715 718
3400 1 717 719
3401 2 721 724
3402 1 723 725
3403 2 724 727
3404 1 726 728
3405 2 727 730
3406 1 729 731
3407 2 730 733
3408 1 732 734
3409 2 733 736
3410 1 735 737
3411 2 739 742
3412 1 741 743
3413 2 742 745
3414 1 744 746
3415 2 745 748
3416 1 747 749
3417 2 748 751
3418 1 750 752
3419 2 751 754
3420 1 753 755
3421 2 757 760
3422 1 759 761
3423 2 760 763
3424 1 762 764
3425 2 763 766
3426 1 765 767
3427 2 766 769
3428 1 768 770
3429 2 769 772
3430 1 771 773
3431 2 775 778
3432 1 777 779
3433 2 778 781
3434 1 780 782
3435 2 781 784
3436 1 783 785
3437 2 784 787
3438 1 786 788
3439 2 787 790
3440 1 789 791
3441 2 793 796
3442 1 795 797
3443 2 796 799
3444 1 798 800
3445 2 799 802
3446 1 801 803
3447 2 802 805
3448 1 804 806
3449 2 805 808
3450 1 807 809
3451 2 811 814
3452 1 813 815
3453 2 814 817
3454 1 816 818
3455 2 817 820
3456 1 819 821
3457 2 820 823
3458 1 822 824
3459 2 823 826
3460 1 825 827
3461 2 829 832
3462 1 831 833
3463 2 832 835
3464 1 834 836
3465 2 835 838
3466 1 837 839
3467 2 838 841
3468 1 840 842
3469 2 841 844
3470 1 843 845
3471 2 847 850
3472 1 849 851
3473 2 850 853
3474 1 852 854
3475 2 853 856
3476 1 855 857
3477 2 856 859
3478 1 858 860
3479 2 859 862
3480 1 861 863
3481 2 865 868
3482 1 867 869
3483 2 868 871
3484 1 870 872
3485 2 871 874
3486 1 873 875
3487 2 874 877
3488 1 876 878
3489 2 877 880
3490 1 879 881
3491 2 883 886
3492 1 885 887
3493 2 886 889
3494 1 888 890
3495 2 889 892
3496 1 891 893
3497 2 892 895
3498 1 894 896
3499 2 895 898
3500 1 897 899
3501 2 901 904
3502 1 903 905
3503 2 904 907
3504 1 906 908
3505 2 907 910
3506 1 909 911
3507 2 910 913
3508 1 912 914
3509 2 913 916
3510 1 915 917
3511 2 919 922
3512 1 921 923
3513 2 922 925
3514 1 924 926
3515 2 925 928
3516 1 927 929
3517 2 928 931
3518 1 930 932
3519 2 931 934
3520 1 933 935
3521 2 937 940
3522 1 939 941
3523 2 940 943
3524 1 942 944
3525 2 943 946
3526 1 945 947
3527 2 946 949
3528 1 948 950
3529 2 949 952
3530 1 951 953
3531 2 955 958
3532 1 957 959
3533 2 958 961
3534 1 960 962
3535 2 961 964
3536 1 963 965
3537 2 964 967
3538 1 966 968
3539 2 967 970
3540 1 969 971
3541 2 973 976
3542 1 975 977
3543 2 976 979
3544 1 978 980
3545 2 979 982
3546 1 981 983
3547 2 982 985
3548 1 984 986
3549 2 985 988
3550 1 987 989
3551 2 991 994
3552 1 993 995
3553 2 994 997
3554 1 996 998
3555 2 997 1000
3556 1 999 1001
3557 2 1000 1003
3558 1 1002 1004
3559 2 1003 1006
3560 1 1005 1007
3561 2 1009 1012
3562 1 1011 1013
3563 2 1012 1015
3564 1 1014 1016
3565 2 1015 1018
3566 1 1017 1019
3567 2 1018 1021
3568 1 1020 1022
3569 2 1021 1024
3570 1 1023 1025
3571 2 1027 1030
3572 1 1029 1031
3573 2 1030 1033
3574 1 1032 1034
3575 2 1033 1036
3576 1 1035 1037
3577 2 1036 1039
3578 1 1038 1040
3579 2 1039 1042
3580 1 1041 1043
3581 2 1045 1048
3582 1 1047 1049
3583 2 1048 1051
3584 1 1050 1052
3585 2 1051 1054
3586 1 1053 1055
3587 2 1054 1057
3588 1 1056 1058
3589 2 1057 1060
3590 1 1059 1061
3591 2 1063 1066
3592 1 1065 1067
3593 2 1066 1069
3594 1 1068 1070
3595 2 1069 1072
3596 1 1071 1073
3597 2 1072 1075
3598 1 1074 1076
3599 2 1075 1078
3600 1 1077 1079
3601 2 1081 1084
3602 1 1083 1085
3603 2 1084 1087
3604 1 1086 1088
3605 2 1087 1090
3606 1 1089 1091
3607 2 1090 1093
3608 1 1092 1094
3609 2 1093 1096
3610 1 1095 1097
3611 2 1099 1102
3612 1 1101 1103
3613 2 1102 1105
3614 1 1104 1106
3615 2 1105 1108
3616 1 1107 1109
3617 2 1108 1111
3618 1 1110 1112
3619 2 1111 1114
3620 1 1113 1115
3621 2 1117 1120
3622 1 1119 1121
3623 2 1120 1123
3624 1 1122 1124
3625 2 1123 1126
3626 1 1125 1127
3627 2 1126 1129
3628 1 1128 1130
3629 2 1129 1132
3630 1 1131 1133
3631 2 1135 1138
3632 1 1137 1139
3633 2 1138 1141
3634 1 1140 1142
3635 2 1141 1144
3636 1 1143 1145
3637 2 1144 1147
3638 1 1146 1148
3639 2 1147 1150
3640 1 1149 1151
3641 2 1153 1156
3642 1 1155 1157
3643 2 1156 1159
3644 1 1158 1160
3645 2 1159 1162
3646 1 1161 1163
3647 2 1162 1165
3648 1 1164 1166
3649 2 1165 1168
3650 1 1167 1169
3651 2 1171 1174
3652 1 1173 1175
3653 2 1174 1177
3654 1 1176 1178
3655 2 1177 1180
3656 1 1179 1181
3657 2 1180 1183
3658 1 1182 1184
3659 2 1183 1186
3660 1 1185 1187
3661 2 1189 1192
3662 1 1191 1193
3663 2 1192 1195
3664 1 1194 1196
3665 2 1195 1198
3666 1 1197 1199
3667 2 1198 1201
3668 1 1200 1202
3669 2 1201 1204
3670 1 1203 1205
3671 2 1207 1210
3672 1 1209 1211
3673 2 1210 1213
3674 1 1212 1214
3675 2 1213 1216
3676 1 1215 1217
3677 2 1216 1219
3678 1 1218 1220
3679 2 1219 1222
3680 1 1221 1223
3681 2 1225 1228
3682 1 1227 1229
3683 2 1228 1231
3684 1 1230 1232
3685 2 1231 1234
3686 1 1233 1235
3687 2 1234 1237
3688 1 1236 1238
3689 2 1237 1240
3690 1 1239 1241
3691 2 1243 1246
3692 1 1245 1247
3693 2 1246 1249
3694 1 1248 1250
3695 2 1249 1252
3696 1 1251 1253
3697 2 1252 1255
3698 1 1254 1256
3699 2 1255 1258
3700 1 1257 1259
3701 2 1261 1264
3702 1 1263 1265
3703 2 1264 1267
3704 1 1266 1268
3705 2 1267 1270
3706 1 1269 1271
3707 2 1270 1273
3708 1 1272 1274
3709 2 1273 1276
3710 1 1275 1277
3711 2 1279 1282
3712 1 1281 1283
3713 2 1282 1285
3714 1 1284 1286
3715 2 1285 1288
3716 1 1287 1289
3717 2 1288 1291
3718 1 1290 1292
3719 2 1291 1294
3720 1 1293 1295
3721 2 1297 1300
3722 1 1299 1301
3723 2 1300 1303
3724 1 1302 1304
3725 2 1303 1306
3726 1 1305 1307
3727 2 1306 1309
3728 1 1308 1310
3729 2 1309 1312
3730 1 1311 1313
3731 2 1315 1318
3732 1 1317 1319
3733 2 1318 1321
3734 1 1320 1322
3735 2 1321 1324
3736 1 1323 1325
3737 2 1324 1327
3738 1 1326 1328
3739 2 1327 1330
3740 1 1329 1331
3741 2 1333 1336
3742 1 1335 1337
3743 2 1336 1339
3744 1 1338 1340
3745 2 1339 1342
3746 1 1341 1343
3747 2 1342 1345
3748 1 1344 1346
3749 2 1345 1348
3750 1 1347 1349
3751 2 1351 1354
3752 1 1353 1355
3753 2 1354 1357
3754 1 1356 1358
3755 2 1357 1360
3756 1 1359 1361
3757 2 1360 1363
3758 1 1362 1364
3759 2 1363 1366
3760 1 1365 1367
3761 2 1369 1372
3762 1 1371 1373
3763 2 1372 1375
3764 1 1374 1376
3765 2 1375 1378
3766 1 1377 1379
3767 2 1378 1381
3768 1 1380 1382
3769 2 1381 1384
3770 1 1383 1385
3771 2 1387 1390
3772 1 1389 1391
3773 2 1390 1393
3774 1 1392 1394
3775 2 1393 1396
3776 1 1395 1397
3777 2 1396 1399
3778 1 1398 1400
3779 2 1399 1402
3780 1 1401 1403
3781 2 1405 1408
3782 1 1407 1409
3783 2 1408 1411
3784 1 1410 1412
3785 2 1411 1414
3786 1 1413 1415
3787 2 1414 1417
3788 1 1416 1418
3789 2 1417 1420
3790 1 1419 1421
3791 2 1423 1426
3792 1 1425 1427
3793 2 1426 1429
3794 1 1428 1430
3795 2 1429 1432
3796 1 1431 1433
3797 2 1432 1435
3798 1 1434 1436
3799 2 1435 1438
3800 1 1437 1439
3801 2 1441 1444
3802 1 1443 1445
3803 2 1444 1447
3804 1 1446 1448
3805 2 1447 1450
3806 1 1449 1451
3807 2 1450 1453
3808 1 1452 1454
3809 2 1453 1456
3810 1 1455 1457
3811 2 1459 1462
3812 1 1461 1463
3813 2 1462 1465
3814 1 1464 1466
3815 2 1465 1468
3816 1 1467 1469
3817 2 1468 1471
3818 1 1470 1472
3819 2 1471 1474
3820 1 1473 1475
3821 2 1477 1480
3822 1 1479 1481
3823 2 1480 1483
3824 1 1482 1484
3825 2 1483 1486
3826 1 1485 1487
3827 2 1486 1489
3828 1 1488 1490
3829 2 1489 1492
3830 1 1491 1493
3831 2 1495 1498
3832 1 1497 1499
3833 2 1498 1501
3834 1 1500 1502
3835 2 1501 1504
3836 1 1503 1505
3837 2 1504 1507
3838 1 1506 1508
3839 2 1507 1510
3840 1 1509 1511
3841 2 1513 1516
3842 1 1515 1517
3843 2 1516 1519
3844 1 1518 1520
3845 2 1519 1522
3846 1 1521 1523
3847 2 1522 1525
3848 1 1524 1526
3849 2 1525 1528
3850 1 1527 1529
3851 2 1531 1534
3852 1 1533 1535
3853 2 1534 1537
3854 1 1536 1538
3855 2 1537 1540
3856 1 1539 1541
3857 2 1540 1543
3858 1 1542 1544
3859 2 1543 1546
3860 1 1545 1547
3861 2 1549 1552
3862 1 1551 1553
3863 2 1552 1555
3864 1 1554 1556
3865 2 1555 1558
3866 1 1557 1559
3867 2 1558 1561
3868 1 1560 1562
3869 2 1561 1564
3870 1 1563 1565
3871 2 1567 1570
3872 1 1569 1571
3873 2 1570 1573
3874 1 1572 1574
3875 2 1573 1576
3876 1 1575 1577
3877 2 1576 1579
3878 1 1578 1580
3879 2 1579 1582
3880 1 1581 1583
3881 2 1585 1588
3882 1 1587 1589
3883 2 1588 1591
3884 1 1590 1592
3885 2 1591 1594
3886 1 1593 1595
3887 2 1594 1597
3888 1 1596 1598
3889 2 1597 1600
3890 1 1599 1601
3891 2 1603 1606
3892 1 1605 1607
3893 2 1606 1609
3894 1 1608 1610
3895 2 1609 1612
3896 1 1611 1613
3897 2 1612 1615
3898 1 1614 1616
3899 2 1615 1618
3900 1 1617 1619
3901 2 1621 1624
3902 1 1623 1625
3903 2 1624 1627
3904 1 1626 1628
3905 2 1627 1630
3906 1 1629 1631
3907 2 1630 1633
3908 1 1632 1634
3909 2 1633 1636
3910 1 1635 1637
3911 2 1639 1642
3912 1 1641 1643
3913 2 1642 1645
3914 1 1644 1646
3915 2 1645 1648
3916 1 1647 1649
3917 2 1648 1651
3918 1 1650 1652
3919 2 1651 1654
3920 1 1653 1655
3921 2 1657 1660
3922 1 1659 1661
3923 2 1660 1663
3924 1 1662 1664
3925 2 1663 1666
3926 1 1665 1667
3927 2 1666 1669
3928 1 1668 1670
3929 2 1669 1672
3930 1 1671 1673
3931 2 1675 1678
3932 1 1677 1679
3933 2 1678 1681
3934 1 1680 1682
3935 2 1681 1684
3936 1 1683 1685
3937 2 1684 1687
3938 1 1686 1688
3939 2 1687 1690
3940 1 1689 1691
3941 2 1693 1696
3942 1 1695 1697
3943 2 1696 1699
3944 1 1698 1700
3945 2 1699 1702
3946 1 1701 1703
3947 2 1702 1705
3948 1 1704 1706
3949 2 1705 1708
3950 1 1707 1709
3951 2 1711 1714
3952 1 1713 1715
3953 2 1714 1717
3954 1 1716 1718
3955 2 1717 1720
3956 1 1719 1721
3957 2 1720 1723
3958 1 1722 1724
3959 2 1723 1726
3960 1 1725 1727
3961 2 1729 1732
3962 1 1731 1733
3963 2 1732 1735
3964 1 1734 1736
3965 2 1735 1738
3966 1 1737 1739
3967 2 1738 1741
3968 1 1740 1742
3969 2 1741 1744
3970 1 1743 1745
3971 2 1747 1750
3972 1 1749 1751
3973 2 1750 1753
3974 1 1752 1754
3975 2 1753 1756
3976 1 1755 1757
3977 2 1756 1759
3978 1 1758 1760
3979 2 1759 1762
3980 1 1761 1763
3981 2 1765 1768
3982 1 1767 1769
3983 2 1768 1771
3984 1 1770 1772
3985 2 1771 1774
3986 1 1773 1775
3987 2 1774 1777
3988 1 1776 1778
3989 2 1777 1780
3990 1 1779 1781
3991 2 1783 1786
3992 1 1785 1787
3993 2 1786 1789
3994 1 1788 1790
3995 2 1789 1792
3996 1 1791 1793
3997 2 1792 1795
3998 1 1794 1796
3999 2 1795 1798
4000 1 1797 1799
4001 2 1801 1804
4002 1 1803 1805
4003 2 1804 1807
4004 1 1806 1808
4005 2 1807 1810
4006 1 1809 1811
4007 2 1810 1813
4008 1 1812 1814
4009 2 1813 1816
4010 1 1815 1817
4011 2 1819 1822
4012 1 1821 1823
4013 2 1822 1825
4014 1 1824 1826
4015 2 1825 1828
4016 1 1827 1829
4017 2 1828 1831
4018 1 1830 1832
4019 2 1831 1834
4020 1 1833 1835
4021 2 1837 1840
4022 1 1839 1841
4023 2 1840 1843
4024 1 1842 1844
4025 2 1843 1846
4026 1 1845 1847
4027 2 1846 1849
4028 1 1848 1850
4029 2 1849 1852
4030 1 1851 1853
4031 2 1855 1858
4032 1 1857 1859
4033 2 1858 1861
4034 1 1860 1862
4035 2 1861 1864
4036 1 1863 1865
4037 2 1864 1867
4038 1 1866 1868
4039 2 1867 1870
4040 1 1869 1871
4041 2 1873 1876
4042 1 1875 1877
4043 2 1876 1879
4044 1 1878 1880
4045 2 1879 1882
4046 1 1881 1883
4047 2 1882 1885
4048 1 1884 1886
4049 2 1885 1888
4050 1 1887 1889
4051 2 1891 1894
4052 1 1893 1895
4053 2 1894 1897
4054 1 1896 1898
4055 2 1897 1900
4056 1 1899 1901
4057 2 1900 1903
4058 1 1902 1904
4059 2 1903 1906
4060 1 1905 1907
4061 2 1909 1912
4062 1 1911 1913
4063 2 1912 1915
4064 1 1914 1916
4065 2 1915 1918
4066 1 1917 1919
4067 2 1918 1921
4068 1 1920 1922
4069 2 1921 1924
4070 1 1923 1925
4071 2 1927 1930
4072 1 1929 1931
4073 2 1930 1933
4074 1 1932 1934
4075 2 1933 1936
4076 1 1935 1937
4077 2 1936 1939
4078 1 1938 1940
4079 2 1939 1942
4080 1 1941 1943
4081 2 1945 1948
4082 1 1947 1949
4083 2 1948 1951
4084 1 1950 1952
4085 2 1951 1954
4086 1 1953 1955
4087 2 1954 1957
4088 1 1956 1958
4089 2 1957 1960
4090 1 1959 1961
4091 2 1963 1966
4092 1 1965 1967
4093 2 1966 1969
4094 1 1968 1970
4095 2 1969 1972
4096 1 1971 1973
4097 2 1972 1975
4098 1 1974 1976
4099 2 1975 1978
4100 1 1977 1979
4101 2 1981 1984
4102 1 1983 1985
4103 2 1984 1987
4104 1 1986 1988
4105 2 1987 1990
4106 1 1989 1991
4107 2 1990 1993
4108 1 1992 1994
4109 2 1993 1996
4110 1 1995 1997
4111 2 1999 2002
4112 1 2001 2003
4113 2 2002 2005
4114 1 2004 2006
4115 2 2005 2008
4116 1 2007 2009
4117 2 2008 2011
4118 1 2010 2012
4119 2 2011 2014
4120 1 2013 2015
4121 2 2017 2020
4122 1 2019 2021
4123 2 2020 2023
4124 1 2022 2024
4125 2 2023 2026
4126 1 2025 2027
4127 2 2026 2029
4128 1 2028 2030
4129 2 2029 2032
4130 1 2031 2033
4131 2 2035 2038
4132 1 2037 2039
4133 2 2038 2041
4134 1 2040 2042
4135 2 2041 2044
4136 1 2043 2045
4137 2 2044 2047
4138 1 2046 2048
4139 2 2047 2050
4140 1 2049 2051
4141 2 2053 2056
4142 1 2055 2057
4143 2 2056 2059
4144 1 2058 2060
4145 2 2059 2062
4146 1 2061 2063
4147 2 2062 2065
4148 1 2064 2066
4149 2 2065 2068
4150 1 2067 2069
4151 2 2071 2074
4152 1 2073 2075
4153 2 2074 2077
4154 1 2076 2078
4155 2 2077 2080
4156 1 2079 2081
4157 2 2080 2083
4158 1 2082 2084
4159 2 2083 2086
4160 1 2085 2087
4161 2 2089 2092
4162 1 2091 2093
4163 2 2092 2095
4164 1 2094 2096
4165 2 2095 2098
4166 1 2097 2099
4167 2 2098 2101
4168 1 2100 2102
4169 2 2101 2104
4170 1 2103 2105
4171 2 2107 2110
4172 1 2109 2111
4173 2 2110 2113
4174 1 2112 2114
4175 2 2113 2116
4176 1 2115 2117
4177 2 2116 2119
4178 1 2118 2120
4179 2 2119 2122
4180 1 2121 2123
4181 2 2125 2128
4182 1 2127 2129
4183 2 2128 2131
4184 1 2130 2132
4185 2 2131 2134
4186 1 2133 2135
4187 2 2134 2137
4188 1 2136 2138
4189 2 2137 2140
4190 1 2139 2141
4191 2 2143 2146
4192 1 2145 2147
4193 2 2146 2149
4194 1 2148 2150
4195 2 2149 2152
4196 1 2151 2153
4197 2 2152 2155
4198 1 2154 2156
4199 2 2155 2158
4200 1 2157 2159
4201 2 2161 2164
4202 1 2163 2165
4203 2 2164 2167
4204 1 2166 2168
4205 2 2167 2170
4206 1 2169 2171
4207 2 2170 2173
4208 1 2172 2174
4209 2 2173 2176
4210 1 2175 2177
4211 2 2179 2182
4212 1 2181 2183
4213 2 2182 2185
4214 1 2184 2186
4215 2 2185 2188
4216 1 2187 2189
4217 2 2188 2191
4218 1 2190 2192
4219 2 2191 2194
4220 1 2193 2195
4221 2 2197 2200
4222 1 2199 2201
4223 2 2200 2203
4224 1 2202 2204
4225 2 2203 2206
4226 1 2205 2207
4227 2 2206 2209
4228 1 2208 2210
4229 2 2209 2212
4230 1 2211 2213
4231 2 2215 2218
4232 1 2217 2219
4233 2 2218 2221
4234 1 2220 2222
4235 2 2221 2224
4236 1 2223 2225
4237 2 2224 2227
4238 1 2226 2228
4239 2 2227 2230
4240 1 2229 2231
4241 2 2233 2236
4242 1 2235 2237
4243 2 2236 2239
4244 1 2238 2240
4245 2 2239 2242
4246 1 2241 2243
4247 2 2242 2245
4248 1 2244 2246
4249 2 2245 2248
4250 1 2247 2249
4251 2 2251 2254
4252 1 2253 2255
4253 2 2254 2257
4254 1 2256 2258
4255 2 2257 2260
4256 1 2259 2261
4257 2 2260 2263
4258 1 2262 2264
4259 2 2263 2266
4260 1 2265 2267
4261 2 2269 2272
4262 1 2271 2273
4263 2 2272 2275
4264 1 2274 2276
4265 2 2275 2278
4266 1 2277 2279
4267 2 2278 2281
4268 1 2280 2282
4269 2 2281 2284
4270 1 2283 2285
4271 2 2287 2290
4272 1 2289 2291
4273 2 2290 2293
4274 1 2292 2294
4275 2 2293 2296
4276 1 2295 2297
4277 2 2296 2299
4278 1 2298 2300
4279 2 2299 2302
4280 1 2301 2303
4281 2 2305 2308
4282 1 2307 2309
4283 2 2308 2311
4284 1 2310 2312
4285 2 2311 2314
4286 1 2313 2315
4287 2 2314 2317
4288 1 2316 2318
4289 2 2317 2320
4290 1 2319 2321
4291 2 2323 2326
4292 1 2325 2327
4293 2 2326 2329
4294 1 2328 2330
4295 2 2329 2332
4296 1 2331 2333
4297 2 2332 2335
4298 1 2334 2336
4299 2 2335 2338
4300 1 2337 2339
4301 2 2341 2344
4302 1 2343 2345
4303 2 2344 2347
4304 1 2346 2348
4305 2 2347 2350
4306 1 2349 2351
4307 2 2350 2353
4308 1 2352 2354
4309 2 2353 2356
4310 1 2355 2357
4311 2 2359 2362
4312 1 2361 2363
4313 2 2362 2365
4314 1 2364 2366
4315 2 2365 2368
4316 1 2367 2369
4317 2 2368 2371
4318 1 2370 2372
4319 2 2371 2374
4320 1 2373 2375
4321 2 2377 2380
4322 1 2379 2381
4323 2 2380 2383
4324 1 2382 2384
4325 2 2383 2386
4326 1 2385 2387
4327 2 2386 2389
4328 1 2388 2390
4329 2 2389 2392
4330 1 2391 2393
4331 2 2395 2398
4332 1 2397 2399
4333 2 2398 2401
4334 1 2400 2402
4335 2 2401 2404
4336 1 2403 2405
4337 2 2404 2407
4338 1 2406 2408
4339 2 2407 2410
4340 1 2409 2411
4341 2 2413 2416
4342 1 2415 2417
4343 2 2416 2419
4344 1 2418 2420
4345 2 2419 2422
4346 1 2421 2423
4347 2 2422 2425
4348 1 2424 2426
4349 2 2425 2428
4350 1 2427 2429
4351 2 2431 2434
4352 1 2433 2435
4353 2 2434 2437
4354 1 2436 2438
4355 2 2437 2440
4356 1 2439 2441
4357 2 2440 2443
4358 1 2442 2444
4359 2 2443 2446
4360 1 2445 2447
4361 2 2449 2452
4362 1 2451 2453
4363 2 2452 2455
4364 1 2454 2456
4365 2 2455 2458
4366 1 2457 2459
4367 2 2458 2461
4368 1 2460 2462
4369 2 2461 2464
4370 1 2463 2465
4371 2 2467 2470
4372 1 2469 2471
4373 2 2470 2473
4374 1 2472 2474
4375 2 2473 2476
4376 1 2475 2477
4377 2 2476 2479
4378 1 2478 2480
4379 2 2479 2482
4380 1 2481 2483
4381 2 2485 2488
4382 1 2487 2489
4383 2 2488 2491
4384 1 2490 2492
4385 2 2491 2494
4386 1 2493 2495
4387 2 2494 2497
4388 1 2496 2498
4389 2 2497 2500
4390 1 2499 2501
4391 2 2503 2506
4392 1 2505 2507
4393 2 2506 2509
4394 1 2508 2510
4395 2 2509 2512
4396 1 2511 2513
4397 2 2512 2515
4398 1 2514 2516
4399 2 2515 2518
4400 1 2517 2519
4401 2 2521 2524
4402 1 2523 2525
4403 2 2524 2527
4404 1 2526 2528
4405 2 2527 2530
4406 1 2529 2531
4407 2 2530 2533
4408 1 2532 2534
4409 2 2533 2536
4410 1 2535 2537
4411 2 2539 2542
4412 1 2541 2543
4413 2 2542 2545
4414 1 2544 2546
4415 2 2545 2548
4416 1 2547 2549
4417 2 2548 2551
4418 1 2550 2552
4419 2 2551 2554
4420 1 2553 2555
4421 2 2557 2560
4422 1 2559 2561
4423 2 2560 2563
4424 1 2562 2564
4425 2 2563 2566
4426 1 2565 2567
4427 2 2566 2569
4428 1 2568 2570
4429 2 2569 2572
4430 1 2571 2573
4431 2 2575 2578
4432 1 2577 2579
4433 2 2578 2581
4434 1 2580 2582
4435 2 2581 2584
4436 1 2583 2585
4437 2 2584 2587
4438 1 2586 2588
4439 2 2587 2590
4440 1 2589 2591
4441 2 2593 2596
4442 1 2595 2597
4443 2 2596 2599
4444 1 2598 2600
4445 2 2599 2602
4446 1 2601 2603
4447 2 2602 2605
4448 1 2604 2606
4449 2 2605 2608
4450 1 2607 2609
4451 2 2611 2614
4452 1 2613 2615
4453 2 2614 2617
4454 1 2616 2618
4455 2 2617 2620
4456 1 2619 2621
4457 2 2620 2623
4458 1 2622 2624
4459 2 2623 2626
4460 1 2625 2627
4461 2 2629 2632
4462 1 2631 2633
4463 2 2632 2635
4464 1 2634 2636
4465 2 2635 2638
4466 1 2637 2639
4467 2 2638 2641
4468 1 2640 2642
4469 2 2641 2644
4470 1 2643 2645
4471 2 2647 2650
4472 1 2649 2651
4473 2 2650 2653
4474 1 2652 2654
4475 2 2653 2656
4476 1 2655 2657
4477 2 2656 2659
4478 1 2658 2660
4479 2 2659 2662
4480 1 2661 2663
4481 2 2665 2668
4482 1 2667 2669
4483 2 2668 2671
4484 1 2670 2672
4485 2 2671 2674
4486 1 2673 2675
4487 2 2674 2677
4488 1 2676 2678
4489 2 2677 2680
4490 1 2679 2681
4491 2 2683 2686
4492 1 2685 2687
4493 2 2686 2689
4494 1 2688 2690
4495 2 2689 2692
4496 1 2691 2693
4497 2 2692 2695
4498 1 2694 2696
4499 2 2695 2698
4500 1 2697 2699
4501 2 2701 2704
4502 1 2703 2705
4503 2 2704 2707
4504 1 2706 2708
4505 2 2707 2710
4506 1 2709 2711
4507 2 2710 2713
4508 1 2712 2714
4509 2 2713 2716
4510 1 2715 2717
4511 2 2719 2722
4512 1 2721 2723
4513 2 2722 2725
4514 1 2724 2726
4515 2 2725 2728
4516 1 2727 2729
4517 2 2728 2731
4518 1 2730 2732
4519 2 2731 2734
4520 1 2733 2735
4521 2 2737 2740
4522 1 2739 2741
4523 2 2740 2743
4524 1 2742 2744
4525 2 2743 2746
4526 1 2745 2747
4527 2 2746 2749
4528 1 2748 2750
4529 2 2749 2752
4530 1 2751 2753
4531 2 2755 2758
4532 1 2757 2759
4533 2 2758 2761
4534 1 2760 2762
4535 2 2761 2764
4536 1 2763 2765
4537 2 2764 2767
4538 1 2766 2768
4539 2 2767 2770
4540 1 2769 2771
4541 2 2773 2776
4542 1 2775 2777
4543 2 2776 2779
4544 1 2778 2780
4545 2 2779 2782
4546 1 2781 2783
4547 2 2782 2785
4548 1 2784 2786
4549 2 2785 2788
4550 1 2787 2789
4551 2 2791 2794
4552 1 2793 2795
4553 2 2794 2797
4554 1 2796 2798
4555 2 2797 2800
4556 1 2799 2801
4557 2 2800 2803
4558 1 2802 2804
4559 2 2803 2806
4560 1 2805 2807
4561 2 2809 2812
4562 1 2811 2813
4563 2 2812 2815
4564 1 2814 2816
4565 2 2815 2818
4566 1 2817 2819
4567 2 2818 2821
4568 1 2820 2822
4569 2 2821 2824
4570 1 2823 2825
4571 2 2827 2830
4572 1 2829 2831
4573 2 2830 2833
4574 1 2832 2834
4575 2 2833 2836
4576 1 2835 2837
4577 2 2836 2839
4578 1 2838 2840
4579 2 2839 2842
4580 1 2841 2843
4581 2 2845 2848
4582 1 2847 2849
4583 2 2848 2851
4584 1 2850 2852
4585 2 2851 2854
4586 1 2853 2855
4587 2 2854 2857
4588 1 2856 2858
4589 2 2857 2860
4590 1 2859 2861
4591 2 2863 2866
4592 1 2865 2867
4593 2 2866 2869
4594 1 2868 2870
4595 2 2869 2872
4596 1 2871 2873
4597 2 2872 2875
4598 1 2874 2876
4599 2 2875 2878
4600 1 2877 2879
4601 2 2881 2884
4602 1 2883 2885
4603 2 2884 2887
4604 1 2886 2888
4605 2 2887 2890
4606 1 2889 2891
4607 2 2890 2893
4608 1 2892 2894
4609 2 2893 2896
4610 1 2895 2897
4611 2 2899 2902
4612 1 2901 2903
4613 2 2902 2905
4614 1 2904 2906
4615 2 2905 2908
4616 1 2907 2909
4617 2 2908 2911
4618 1 2910 2912
4619 2 2911 2914
4620 1 2913 2915
4621 2 2917 2920
4622 1 2919 2921
4623 2 2920 2923
4624 1 2922 2924
4625 2 2923 2926
4626 1 2925 2927
4627 2 2926 2929
4628 1 2928 2930
4629 2 2929 2932
4630 1 2931 2933
4631 2 2935 2938
4632 1 2937 2939
4633 2 2938 2941
4634 1 2940 2942
4635 2 2941 2944
4636 1 2943 2945
4637 2 2944 2947
4638 1 2946 2948
4639 2 2947 2950
4640 1 2949 2951
4641 2 2953 2956
4642 1 2955 2957
4643 2 2956 2959
4644 1 2958 2960
4645 2 2959 2962
4646 1 2961 2963
4647 2 2962 2965
4648 1 2964 2966
4649 2 2965 2968
4650 1 2967 2969
4651 2 2971 2974
4652 1 2973 2975
4653 2 2974 2977
4654 1 2976 2978
4655 2 2977 2980
4656 1 2979 2981
4657 2 2980 2983
4658 1 2982 2984
4659 2 2983 2986
4660 1 2985 2987
4661 2 2989 2992
4662 1 2991 2993
4663 2 2992 2995
4664 1 2994 2996
4665 2 2995 2998
4666 1 2997 2999
4667 2 2998 3001
4668 1 3000 3002
4669 2 3001 3004
4670 1 3003 3005
4671 2 3007 3010
4672 1 3009 3011
4673 2 3010 3013
4674 1 3012 3014
4675 2 3013 3016
4676 1 3015 3017
4677 2 3016 3019
4678 1 3018 3020
4679 2 3019 3022
4680 1 3021 3023
4681 2 3025 3028
4682 1 3027 3029
4683 2 3028 3031
4684 1 3030 3032
4685 2 3031 3034
4686 1 3033 3035
4687 2 3034 3037
4688 1 3036 3038
4689 2 3037 3040
4690 1 3039 3041
4691 2 3043 3046
4692 1 3045 3047
4693 2 3046 3049
4694 1 3048 3050
4695 2 3049 3052
4696 1 3051 3053
4697 2 3052 3055
4698 1 3054 3056
4699 2 3055 3058
4700 1 3057 3059
4701 2 3061 3064
4702 1 3063 3065
4703 2 3064 3067
4704 1 3066 3068
4705 2 3067 3070
4706 1 3069 3071
4707 2 3070 3073
4708 1 3072 3074
4709 2 3073 3076
4710 1 3075 3077
4711 2 3079 3082
4712 1 3081 3083
4713 2 3082 3085
4714 1 3084 3086
4715 2 3085 3088
4716 1 3087 3089
4717 2 3088 3091
4718 1 3090 3092
4719 2 3091 3094
4720 1 3093 3095
4721 2 3097 3100
4722 1 3099 3101
4723 2 3100 3103
4724 1 3102 3104
4725 2 3103 3106
4726 1 3105 3107
4727 2 3106 3109
4728 1 3108 3110
4729 2 3109 3112
4730 1 3111 3113
4731 2 3115 3118
4732 1 3117 3119
4733 2 3118 3121
4734 1 3120 3122
4735 2 3121 3124
4736 1 3123 3125
4737 2 3124 3127
4738 1 3126 3128
4739 2 3127 3130
4740 1 3129 3131
4741 2 3133 3136
4742 1 3135 3137
4743 2 3136 3139
4744 1 3138 3140
4745 2 3139 3142
4746 1 3141 3143
4747 2 3142 3145
4748 1 3144 3146
4749 2 3145 3148
4750 1 3147 3149
4751 2 3151 3154
4752 1 3153 3155
4753 2 3154 3157
4754 1 3156 3158
4755 2 3157 3160
4756 1 3159 3161
4757 2 3160 3163
4758 1 3162 3164
4759 2 3163 3166
4760 1 3165 3167
4761 2 3169 3172
4762 1 3171 3173
4763 2 3172 3175
4764 1 3174 3176
4765 2 3175 3178
4766 1 3177 3179
4767 2 3178 3181
4768 1 3180 3182
4769 2 3181 3184
4770 1 3183 3185
4771 2 3187 3190
4772 1 3189 3191
4773 2 3190 3193
4774 1 3192 3194
4775 2 3193 3196
4776 1 3195 3197
4777 2 3196 3199
4778 1 3198 3200
4779 2 3199 3202
4780 1 3201 3203
4781 2 3205 3208
4782 1 3207 3209
4783 2 3208 3211
4784 1 3210 3212
4785 2 3211 3214
4786 1 3213 3215
4787 2 3214 3217
4788 1 3216 3218
4789 2 3217 3220
4790 1 3219 3221
4791 2 3223 3226
4792 1 3225 3227
4793 2 3226 3229
4794 1 3228 3230
4795 2 3229 3232
4796 1 3231 3233
4797 2 3232 3235
4798 1 3234 3236
4799 2 3235 3238
4800 1 3237 3239
4801 2 3241 3244
4802 1 3243 3245
4803 2 3244 3247
4804 1 3246 3248
4805 2 3247 3250
4806 1 3249 3251
4807 2 3250 3253
4808 1 3252 3254
4809 2 3253 3256
4810 1 3255 3257
4811 2 3259 3262
4812 1 3261 3263
4813 2 3262 3265
4814 1 3264 3266
4815 2 3265 3268
4816 1 3267 3269
4817 2 3268 3271
4818 1 3270 3272
4819 2 3271 3274
4820 1 3273 3275
4821 2 3277 3280
4822 1 3279 3281
4823 2 3280 3283
4824 1 3282 3284
4825 2 3283 3286
4826 1 3285 3287
4827 2 3286 3289
4828 1 3288 3290
4829 2 3289 3292
4830 1 3291 3293
4831 2 3295 3298
4832 1 3297 3299
4833 2 3298 3301
4834 1 3300 3302
4835 2 3301 3304
4836 1 3303 3305
4837 2 3304 3307
4838 1 3306 3308
4839 2 3307 3310
4840 1 3309 3311
4841 2 3313 3316
4842 1 3315 3317
4843 2 3316 3319
4844 1 3318 3320
4845 2 3319 3322
4846 1 3321 3323
4847 2 3322 3325
4848 1 3324 3326
4849 2 3325 3328
4850 1 3327 3329
4851 2 3331 3334
4852 1 3333 3335
4853 2 3334 3337
4854 1 3336 3338
4855 2 3337 3340
4856 1 3339 3341
4857 2 3340 3343
4858 1 3342 3344
4859 2 3343 3346
4860 1 3345 3347
4861 2 3349 3352
4862 1 3351 3353
4863 2 3352 3355
4864 1 3354 3356
4865 2 3355 3358
4866 1 3357 3359
4867 2 3358 3361
4868 1 3360 3362
4869 2 3361 3364
4870 1 3363 3365
4871 2 3367 3370
4872 1 3369 3371
4873 2 3370 3373
4874 1 3372 3374
4875 2 3373 3376
4876 1 3375 3377
4877 2 3376 3379
4878 1 3378 3380
4879 2 3379 3382
4880 1 3381 3383
4881 2 3385 3388
4882 1 3387 3389
4883 2 3388 3391
4884 1 3390 3392
4885 2 3391 3394
4886 1 3393 3395
4887 2 3394 3397
4888 1 3396 3398
4889 2 3397 3400
4890 1 3399 3401
4891 2 3403 3406
4892 1 3405 3407
4893 2 3406 3409
4894 1 3408 3410
4895 2 3409 3412
4896 1 3411 3413
4897 2 3412 3415
4898 1 3414 3416
4899 2 3415 3418
4900 1 3417 3419
4901 2 3421 3424
4902 1 3423 3425
4903 2 3424 3427
4904 1 3426 3428
4905 2 3427 3430
4906 1 3429 3431
4907 2 3430 3433
4908 1 3432 3434
4909 2 3433 3436
4910 1 3435 3437
4911 2 3439 3442
4912 1 3441 3443
4913 2 3442 3445
4914 1 3444 3446
4915 2 3445 3448
4916 1 3447 3449
4917 2 3448 3451
4918 1 3450 3452
4919 2 3451 3454
4920 1 3453 3455
4921 2 3457 3460
4922 1 3459 3461
4923 2 3460 3463
4924 1 3462 3464
4925 2 3463 3466
4926 1 3465 3467
4927 2 3466 3469
4928 1 3468 3470
4929 2 3469 3472
4930 1 3471 3473
4931 2 3475 3478
4932 1 3477 3479
4933 2 3478 3481
4934 1 3480 3482
4935 2 3481 3484
4936 1 3483 3485
4937 2 3484 3487
4938 1 3486 3488
4939 2 3487 3490
4940 1 3489 3491
4941 2 3493 3496
4942 1 3495 3497
4943 2 3496 3499
4944 1 3498 3500
4945 2 3499 3502
4946 1 3501 3503
4947 2 3502 3505
4948 1 3504 3506
4949 2 3505 3508
4950 1 3507 3509
4951 2 3511 3514
4952 1 3513 3515
4953 2 3514 3517
4954 1 3516 3518
4955 2 3517 3520
4956 1 3519 3521
4957 2 3520 3523
4958 1 3522 3524
4959 2 3523 3526
4960 1 3525 3527
4961 2 3529 3532
4962 1 3531 3533
4963 2 3532 3535
4964 1 3534 3536
4965 2 3535 3538
4966 1 3537 3539
4967 2 3538 3541
4968 1 3540 3542
4969 2 3541 3544
4970 1 3543 3545
4971 2 3547 3550
4972 1 3549 3551
4973 2 3550 3553
4974 1 3552 3554
4975 2 3553 3556
4976 1 3555 3557
4977 2 3556 3559
4978 1 3558 3560
4979 2 3559 3562
4980 1 3561 3563
4981 2 3565 3568
4982 1 3567 3569
4983 2 3568 3571
4984 1 3570 3572
4985 2 3571 3574
4986 1 3573 3575
4987 2 3574 3577
4988 1 3576 3578
4989 2 3577 3580
4990 1 3579 3581
4991 2 3583 3586
4992 1 3585 3587
4993 2 3586 3589
4994 1 3588 3590
4995 2 3589 3592
4996 1 3591 3593
4997 2 3592 3595
4998 1 3594 3596
4999 2 3595 3598
5000 1 3597 3599
5001 2 3601 3604
5002 1 3603 3605
5003 2 3604 3607
5004 1 3606 3608
5005 2 3607 3610
5006 1 3609 3611
5007 2 3610 3613
5008 1 3612 3614
5009 2 3613 3616
5010 1 3615 3617
5011 2 3619 3622
5012 1 3621 3623
5013 2 3622 3625
5014 1 3624 3626
5015 2 3625 3628
5016 1 3627 3629
5017 2 3628 3631
5018 1 3630 3632
5019 2 3631 3634
5020 1 3633 3635
5021 2 3637 3640
5022 1 3639 3641
5023 2 3640 3643
5024 1 3642 3644
5025 2 3643 3646
5026 1 3645 3647
5027 2 3646 3649
5028 1 3648 3650
5029 2 3649 3652
5030 1 3651 3653
5031 2 3655 3658
5032 1 3657 3659
5033 2 3658 3661
5034 1 3660 3662
5035 2 3661 3664
5036 1 3663 3665
5037 2 3664 3667
5038 1 3666 3668
5039 2 3667 3670
5040 1 3669 3671
5041 2 3673 3676
5042 1 3675 3677
5043 2 3676 3679
5044 1 3678 3680
5045 2 3679 3682
5046 1 3681 3683
5047 2 3682 3685
5048 1 3684 3686
5049 2 3685 3688
5050 1 3687 3689
5051 2 3691 3694
5052 1 3693 3695
5053 2 3694 3697
5054 1 3696 3698
5055 2 3697 3700
5056 1 3699 3701
5057 2 3700 3703
5058 1 3702 3704
5059 2 3703 3706
5060 1 3705 3707
5061 2 3709 3712
5062 1 3711 3713
5063 2 3712 3715
5064 1 3714 3716
5065 2 3715 3718
5066 1 3717 3719
5067 2 3718 3721
5068 1 3720 3722
5069 2 3721 3724
5070 1 3723 3725
5071 2 3727 3730
5072 1 3729 3731
5073 2 3730 3733
5074 1 3732 3734
5075 2 3733 3736
5076 1 3735 3737
5077 2 3736 3739
5078 1 3738 3740
5079 2 3739 3742
5080 1 3741 3743
5081 2 3745 3748
5082 1 3747 3749
5083 2 3748 3751
5084 1 3750 3752
5085 2 3751 3754
5086 1 3753 3755
5087 2 3754 3757
5088 1 3756 3758
5089 2 3757 3760
5090 1 3759 3761
5091 2 3763 3766
5092 1 3765 3767
5093 2 3766 3769
5094 1 3768 3770
5095 2 3769 3772
5096 1 3771 3773
5097 2 3772 3775
5098 1 3774 3776
5099 2 3775 3778
5100 1 3777 3779
5101 2 3781 3784
5102 1 3783 3785
5103 2 3784 3787
5104 1 3786 3788
5105 2 3787 3790
5106 1 3789 3791
5107 2 3790 3793
5108 1 3792 3794
5109 2 3793 3796
5110 1 3795 3797
5111 2 3799 3802
5112 1 3801 3803
5113 2 3802 3805
5114 1 3804 3806
5115 2 3805 3808
5116 1 3807 3809
5117 2 3808 3811
5118 1 3810 3812
5119 2 3811 3814
5120 1 3813 3815
5121 2 3817 3820
5122 1 3819 3821
5123 2 3820 3823
5124 1 3822 3824
5125 2 3823 3826
5126 1 3825 3827
5127 2 3826 3829
5128 1 3828 3830
5129 2 3829 3832
5130 1 3831 3833
5131 2 3835 3838
5132 1 3837 3839
5133 2 3838 3841
5134 1 3840 3842
5135 2 3841 3844
5136 1 3843 3845
5137 2 3844 3847
5138 1 3846 3848
5139 2 3847 3850
5140 1 3849 3851
5141 2 3853 3856
5142 1 3855 3857
5143 2 3856 3859
5144 1 3858 3860
5145 2 3859 3862
5146 1 3861 3863
5147 2 3862 3865
5148 1 3864 3866
5149 2 3865 3868
5150 1 3867 3869
5151 2 3871 3874
5152 1 3873 3875
5153 2 3874 3877
5154 1 3876 3878
5155 2 3877 3880
5156 1 3879 3881
5157 2 3880 3883
5158 1 3882 3884
5159 2 3883 3886
5160 1 3885 3887
5161 2 3889 3892
5162 1 3891 3893
5163 2 3892 3895
5164 1 3894 3896
5165 2 3895 3898
5166 1 3897 3899
5167 2 3898 3901
5168 1 3900 3902
5169 2 3901 3904
5170 1 3903 3905
5171 2 3907 3910
5172 1 3909 3911
5173 2 3910 3913
5174 1 3912 3914
5175 2 3913 3916
5176 1 3915 3917
5177 2 3916 3919
5178 1 3918 3920
5179 2 3919 3922
5180 1 3921 3923
5181 2 3925 3928
5182 1 3927 3929
5183 2 3928 3931
5184 1 3930 3932
5185 2 3931 3934
5186 1 3933 3935
5187 2 3934 3937
5188 1 3936 3938
5189 2 3937 3940
5190 1 3939 3941
5191 2 3943 3946
5192 1 3945 3947
5193 2 3946 3949
5194 1 3948 3950
5195 2 3949 3952
5196 1 3951 3953
5197 2 3952 3955
5198 1 3954 3956
5199 2 3955 3958
5200 1 3957 3959
5201 2 3961 3964
5202 1 3963 3965
5203 2 3964 3967
5204 1 3966 3968
5205 2 3967 3970
5206 1 3969 3971
5207 2 3970 3973
5208 1 3972 3974
5209 2 3973 3976
5210 1 3975 3977
5211 2 3979 3982
5212 1 3981 3983
5213 2 3982 3985
5214 1 3984 3986
5215 2 3985 3988
5216 1 3987 3989
5217 2 3988 3991
5218 1 3990 3992
5219 2 3991 3994
5220 1 3993 3995
5221 2 3997 4000
5222 1 3999 4001
5223 2 4000 4003
5224 1 4002 4004
5225 2 4003 4006
5226 1 4005 4007
5227 2 4006 4009
5228 1 4008 4010
5229 2 4009 4012
5230 1 4011 4013
5231 2 4015 4018
5232 1 4017 4019
5233 2 4018 4021
5234 1 4020 4022
5235 2 4021 4024
5236 1 4023 4025
5237 2 4024 4027
5238 1 4026 4028
5239 2 4027 4030
5240 1 4029 4031
5241 2 4033 4036
5242 1 4035 4037
5243 2 4036 4039
5244 1 4038 4040
5245 2 4039 4042
5246 1 4041 4043
5247 2 4042 4045
5248 1 4044 4046
5249 2 4045 4048
5250 1 4047 4049
5251 2 4051 4054
5252 1 4053 4055
5253 2 4054 4057
5254 1 4056 4058
5255 2 4057 4060
5256 1 4059 4061
5257 2 4060 4063
5258 1 4062 4064
5259 2 4063 4066
5260 1 4065 4067
5261 2 4069 4072
5262 1 4071 4073
5263 2 4072 4075
5264 1 4074 4076
5265 2 4075 4078
5266 1 4077 4079
5267 2 4078 4081
5268 1 4080 4082
5269 2 4081 4084
5270 1 4083 4085
5271 2 4087 4090
5272 1 4089 4091
5273 2 4090 4093
5274 1 4092 4094
5275 2 4093 4096
5276 1 4095 4097
5277 2 4096 4099
5278 1 4098 4100
5279 2 4099 4102
5280 1 4101 4103
5281 2 4105 4108
5282 1 4107 4109
5283 2 4108 4111
5284 1 4110 4112
5285 2 4111 4114
5286 1 4113 4115
5287 2 4114 4117
5288 1 4116 4118
5289 2 4117 4120
5290 1 4119 4121
5291 2 4123 4126
5292 1 4125 4127
5293 2 4126 4129
5294 1 4128 4130
5295 2 4129 4132
5296 1 4131 4133
5297 2 4132 4135
5298 1 4134 4136
5299 2 4135 4138
5300 1 4137 4139
5301 2 4141 4144
5302 1 4143 4145
5303 2 4144 4147
5304 1 4146 4148
5305 2 4147 4150
5306 1 4149 4151
5307 2 4150 4153
5308 1 4152 4154
5309 2 4153 4156
5310 1 4155 4157
5311 2 4159 4162
5312 1 4161 4163
5313 2 4162 4165
5314 1 4164 4166
5315 2 4165 4168
5316 1 4167 4169
5317 2 4168 4171
5318 1 4170 4172
5319 2 4171 4174
5320 1 4173 4175
5321 2 4177 4180
5322 1 4179 4181
5323 2 4180 4183
5324 1 4182 4184
5325 2 4183 4186
5326 1 4185 4187
5327 2 4186 4189
5328 1 4188 4190
5329 2 4189 4192
5330 1 4191 4193
5331 2 4195 4198
5332 1 4197 4199
5333 2 4198 4201
5334 1 4200 4202
5335 2 4201 4204
5336 1 4203 4205
5337 2 4204 4207
5338 1 4206 4208
5339 2 4207 4210
5340 1 4209 4211
5341 2 4213 4216
5342 1 4215 4217
5343 2 4216 4219
5344 1 4218 4220
5345 2 4219 4222
5346 1 4221 4223
5347 2 4222 4225
5348 1 4224 4226
5349 2 4225 4228
5350 1 4227 4229
5351 2 4231 4234
5352 1 4233 4235
5353 2 4234 4237
5354 1 4236 4238
5355 2 4237 4240
5356 1 4239 4241
5357 2 4240 4243
5358 1 4242 4244
5359 2 4243 4246
5360 1 4245 4247
5361 2 4249 4252
5362 1 4251 4253
5363 2 4252 4255
5364 1 4254 4256
5365 2 4255 4258
5366 1 4257 4259
5367 2 4258 4261
5368 1 4260 4262
5369 2 4261 4264
5370 1 4263 4265
5371 2 4267 4270
5372 1 4269 4271
5373 2 4270 4273
5374 1 4272 4274
5375 2 4273 4276
5376 1 4275 4277
5377 2 4276 4279
5378 1 4278 4280
5379 2 4279 4282
5380 1 4281 4283
5381 2 4285 4288
5382 1 4287 4289
5383 2 4288 4291
5384 1 4290 4292
5385 2 4291 4294
5386 1 4293 4295
5387 2 4294 4297
5388 1 4296 4298
5389 2 4297 4300
5390 1 4299 4301
5391 2 4303 4306
5392 1 4305 4307
5393 2 4306 4309
5394 1 4308 4310
5395 2 4309 4312
5396 1 4311 4313
5397 2 4312 4315
5398 1 4314 4316
5399 2 4315 4318
5400 1 4317 4319
5401 2 4321 4324
5402 1 4323 4325
5403 2 4324 4327
5404 1 4326 4328
5405 2 4327 4330
5406 1 4329 4331
5407 2 4330 4333
5408 1 4332 4334
5409 2 4333 4336
5410 1 4335 4337
5411 2 4339 4342
5412 1 4341 4343
5413 2 4342 4345
5414 1 4344 4346
5415 2 4345 4348
5416 1 4347 4349
5417 2 4348 4351
5418 1 4350 4352
5419 2 4351 4354
5420 1 4353 4355
5421 2 4357 4360
5422 1 4359 4361
5423 2 4360 4363
5424 1 4362 4364
5425 2 4363 4366
5426 1 4365 4367
5427 2 4366 4369
5428 1 4368 4370
5429 2 4369 4372
5430 1 4371 4373
5431 2 4375 4378
5432 1 4377 4379
5433 2 4378 4381
5434 1 4380 4382
5435 2 4381 4384
5436 1 4383 4385
5437 2 4384 4387
5438 1 4386 4388
5439 2 4387 4390
5440 1 4389 4391
5441 2 4393 4396
5442 1 4395 4397
5443 2 4396 4399
5444 1 4398 4400
5445 2 4399 4402
5446 1 4401 4403
5447 2 4402 4405
5448 1 4404 4406
5449 2 4405 4408
5450 1 4407 4409
5451 2 4411 4414
5452 1 4413 4415
5453 2 4414 4417
5454 1 4416 4418
5455 2 4417 4420
5456 1 4419 4421
5457 2 4420 4423
5458 1 4422 4424
5459 2 4423 4426
5460 1 4425 4427
5461 2 4429 4432
5462 1 4431 4433
5463 2 4432 4435
5464 1 4434 4436
5465 2 4435 4438
5466 1 4437 4439
5467 2 4438 4441
5468 1 4440 4442
5469 2 4441 4444
5470 1 4443 4445
5471 2 4447 4450
5472 1 4449 4451
5473 2 4450 4453
5474 1 4452 4454
5475 2 4453 4456
5476 1 4455 4457
5477 2 4456 4459
5478 1 4458 4460
5479 2 4459 4462
5480 1 4461 4463
5481 2 4465 4468
5482 1 4467 4469
5483 2 4468 4471
5484 1 4470 4472
5485 2 4471 4474
5486 1 4473 4475
5487 2 4474 4477
5488 1 4476 4478
5489 2 4477 4480
5490 1 4479 4481
5491 2 4483 4486
5492 1 4485 4487
5493 2 4486 4489
5494 1 4488 4490
5495 2 4489 4492
5496 1 4491 4493
5497 2 4492 4495
5498 1 4494 4496
5499 2 4495 4498
5500 1 4497 4499
5501 2 4501 4504
5502 1 4503 4505
5503 2 4504 4507
5504 1 4506 4508
5505 2 4507 4510
5506 1 4509 4511
5507 2 4510 4513
5508 1 4512 4514
5509 2 4513 4516
5510 1 4515 4517
5511 2 4519 4522
5512 1 4521 4523
5513 2 4522 4525
5514 1 4524 4526
5515 2 4525 4528
5516 1 4527 4529
5517 2 4528 4531
5518 1 4530 4532
5519 2 4531 4534
5520 1 4533 4535
5521 2 4537 4540
5522 1 4539 4541
5523 2 4540 4543
5524 1 4542 4544
5525 2 4543 4546
5526 1 4545 4547
5527 2 4546 4549
5528 1 4548 4550
5529 2 4549 4552
5530 1 4551 4553
5531 2 4555 4558
5532 1 4557 4559
5533 2 4558 4561
5534 1 4560 4562
5535 2 4561 4564
5536 1 4563 4565
5537 2 4564 4567
5538 1 4566 4568
5539 2 4567 4570
5540 1 4569 4571
5541 2 4573 4576
5542 1 4575 4577
5543 2 4576 4579
5544 1 4578 4580
5545 2 4579 4582
5546 1 4581 4583
5547 2 4582 4585
5548 1 4584 4586
5549 2 4585 4588
5550 1 4587 4589
5551 2 4591 4594
5552 1 4593 4595
5553 2 4594 4597
5554 1 4596 4598
5555 2 4597 4600
5556 1 4599 4601
5557 2 4600 4603
5558 1 4602 4604
5559 2 4603 4606
5560 1 4605 4607
5561 2 4609 4612
5562 1 4611 4613
5563 2 4612 4615
5564 1 4614 4616
5565 2 4615 4618
5566 1 4617 4619
5567 2 4618 4621
5568 1 4620 4622
5569 2 4621 4624
5570 1 4623 4625
5571 2 4627 4630
5572 1 4629 4631
5573 2 4630 4633
5574 1 4632 4634
5575 2 4633 4636
5576 1 4635 4637
5577 2 4636 4639
5578 1 4638 4640
5579 2 4639 4642
5580 1 4641 4643
5581 2 4645 4648
5582 1 4647 4649
5583 2 4648 4651
5584 1 4650 4652
5585 2 4651 4654
5586 1 4653 4655
5587 2 4654 4657
5588 1 4656 4658
5589 2 4657 4660
5590 1 4659 4661
5591 2 4663 4666
5592 1 4665 4667
5593 2 4666 4669
5594 1 4668 4670
5595 2 4669 4672
5596 1 4671 4673
5597 2 4672 4675
5598 1 4674 4676
5599 2 4675 4678
5600 1 4677 4679
5601 2 4681 4684
5602 1 4683 4685
5603 2 4684 4687
5604 1 4686 4688
5605 2 4687 4690
5606 1 4689 4691
5607 2 4690 4693
5608 1 4692 4694
5609 2 4693 4696
5610 1 4695 4697
5611 2 4699 4702
5612 1 4701 4703
5613 2 4702 4705
5614 1 4704 4706
5615 2 4705 4708
5616 1 4707 4709
5617 2 4708 4711
5618 1 4710 4712
5619 2 4711 4714
5620 1 4713 4715
5621 2 4717 4720
5622 1 4719 4721
5623 2 4720 4723
5624 1 4722 4724
5625 2 4723 4726
5626 1 4725 4727
5627 2 4726 4729
5628 1 4728 4730
5629 2 4729 4732
5630 1 4731 4733
5631 2 4735 4738
5632 1 4737 4739
5633 2 4738 4741
5634 1 4740 4742
5635 2 4741 4744
5636 1 4743 4745
5637 2 4744 4747
5638 1 4746 4748
5639 2 4747 4750
5640 1 4749 4751
5641 2 4753 4756
5642 1 4755 4757
5643 2 4756 4759
5644 1 4758 4760
5645 2 4759 4762
5646 1 4761 4763
5647 2 4762 4765
5648 1 4764 4766
5649 2 4765 4768
5650 1 4767 4769
5651 2 4771 4774
5652 1 4773 4775
5653 2 4774 4777
5654 1 4776 4778
5655 2 4777 4780
5656 1 4779 4781
5657 2 4780 4783
5658 1 4782 4784
5659 2 4783 4786
5660 1 4785 4787
5661 2 4789 4792
5662 1 4791 4793
5663 2 4792 4795
5664 1 4794 4796
5665 2 4795 4798
5666 1 4797 4799
5667 2 4798 4801
5668 1 4800 4802
5669 2 4801 4804
5670 1 4803 4805
5671 2 4807 4810
5672 1 4809 4811
5673 2 4810 4813
5674 1 4812 4814
5675 2 4813 4816
5676 1 4815 4817
5677 2 4816 4819
5678 1 4818 4820
5679 2 4819 4822
5680 1 4821 4823
5681 2 4825 4828
5682 1 4827 4829
5683 2 4828 4831
5684 1 4830 4832
5685 2 4831 4834
5686 1 4833 4835
5687 2 4834 4837
5688 1 4836 4838
5689 2 4837 4840
5690 1 4839 4841
5691 2 4843 4846
5692 1 4845 4847
5693 2 4846 4849
5694 1 4848 4850
5695 2 4849 4852
5696 1 4851 4853
5697 2 4852 4855
5698 1 4854 4856
5699 2 4855 4858
5700 1 4857 4859
5701 2 4861 4864
5702 1 4863 4865
5703 2 4864 4867
5704 1 4866 4868
5705 2 4867 4870
5706 1 4869 4871
5707 2 4870 4873
5708 1 4872 4874
5709 2 4873 4876
5710 1 4875 4877
5711 2 4879 4882
5712 1 4881 4883
5713 2 4882 4885
5714 1 4884 4886
5715 2 4885 4888
5716 1 4887 4889
5717 2 4888 4891
5718 1 4890 4892
5719 2 4891 4894
5720 1 4893 4895
5721 2 4897 4900
5722 1 4899 4901
5723 2 4900 4903
5724 1 4902 4904
5725 2 4903 4906
5726 1 4905 4907
5727 2 4906 4909
5728 1 4908 4910
5729 2 4909 4912
5730 1 4911 4913
5731 2 4915 4918
5732 1 4917 4919
5733 2 4918 4921
5734 1 4920 4922
5735 2 4921 4924
5736 1 4923 4925
5737 2 4924 4927
5738 1 4926 4928
5739 2 4927 4930
5740 1 4929 4931
5741 2 4933 4936
5742 1 4935 4937
5743 2 4936 4939
5744 1 4938 4940
5745 2 4939 4942
5746 1 4941 4943
5747 2 4942 4945
5748 1 4944 4946
5749 2 4945 4948
5750 1 4947 4949
5751 2 4951 4954
5752 1 4953 4955
5753 2 4954 4957
5754 1 4956 4958
5755 2 4957 4960
5756 1 4959 4961
5757 2 4960 4963
5758 1 4962 4964
5759 2 4963 4966
5760 1 4965 4967
5761 2 4969 4972
5762 1 4971 4973
5763 2 4972 4975
5764 1 4974 4976
5765 2 4975 4978
5766 1 4977 4979
5767 2 4978 4981
5768 1 4980 4982
5769 2 4981 4984
5770 1 4983 4985
5771 2 4987 4990
5772 1 4989 4991
5773 2 4990 4993
5774 1 4992 4994
5775 2 4993 4996
5776 1 4995 4997
5777 2 4996 4999
5778 1 4998 5000
5779 2 4999 5002
5780 1 5001 5003
5781 2 5005 5008
5782 1 5007 5009
5783 2 5008 5011
5784 1 5010 5012
5785 2 5011 5014
5786 1 5013 5015
5787 2 5014 5017
5788 1 5016 5018
5789 2 5017 5020
5790 1 5019 5021
5791 2 5023 5026
5792 1 5025 5027
5793 2 5026 5029
5794 1 5028 5030
5795 2 5029 5032
5796 1 5031 5033
5797 2 5032 5035
5798 1 5034 5036
5799 2 5035 5038
5800 1 5037 5039
5801 2 5041 5044
5802 1 5043 5045
5803 2 5044 5047
5804 1 5046 5048
5805 2 5047 5050
5806 1 5049 5051
5807 2 5050 5053
5808 1 5052 5054
5809 2 5053 5056
5810 1 5055 5057
5811 2 5059 5062
5812 1 5061 5063
5813 2 5062 5065
5814 1 5064 5066
5815 2 5065 5068
5816 1 5067 5069
5817 2 5068 5071
5818 1 5070 5072
5819 2 5071 5074
5820 1 5073 5075
5821 2 5077 5080
5822 1 5079 5081
5823 2 5080 5083
5824 1 5082 5084
5825 2 5083 5086
5826 1 5085 5087
5827 2 5086 5089
5828 1 5088 5090
5829 2 5089 5092
5830 1 5091 5093
5831 2 5095 5098
5832 1 5097 5099
5833 2 5098 5101
5834 1 5100 5102
5835 2 5101 5104
5836 1 5103 5105
5837 2 5104 5107
5838 1 5106 5108
5839 2 5107 5110
5840 1 5109 5111
5841 2 5113 5116
5842 1 5115 5117
5843 2 5116 5119
5844 1 5118 5120
5845 2 5119 5122
5846 1 5121 5123
5847 2 5122 5125
5848 1 5124 5126
5849 2 5125 5128
5850 1 5127 5129
5851 2 5131 5134
5852 1 5133 5135
5853 2 5134 5137
5854 1 5136 5138
5855 2 5137 5140
5856 1 5139 5141
5857 2 5140 5143
5858 1 5142 5144
5859 2 5143 5146
5860 1 5145 5147
5861 2 5149 5152
5862 1 5151 5153
5863 2 5152 5155
5864 1 5154 5156
5865 2 5155 5158
5866 1 5157 5159
5867 2 5158 5161
5868 1 5160 5162
5869 2 5161 5164
5870 1 5163 5165
5871 2 5167 5170
5872 1 5169 5171
5873 2 5170 5173
5874 1 5172 5174
5875 2 5173 5176
5876 1 5175 5177
5877 2 5176 5179
5878 1 5178 5180
5879 2 5179 5182
5880 1 5181 5183
5881 2 5185 5188
5882 1 5187 5189
5883 2 5188 5191
5884 1 5190 5192
5885 2 5191 5194
5886 1 5193 5195
5887 2 5194 5197
5888 1 5196 5198
5889 2 5197 5200
5890 1 5199 5201
5891 2 5203 5206
5892 1 5205 5207
5893 2 5206 5209
5894 1 5208 5210
5895 2 5209 5212
5896 1 5211 5213
5897 2 5212 5215
5898 1 5214 5216
5899 2 5215 5218
5900 1 5217 5219
5901 2 5221 5224
5902 1 5223 5225
5903 2 5224 5227
5904 1 5226 5228
5905 2 5227 5230
5906 1 5229 5231
5907 2 5230 5233
5908 1 5232 5234
5909 2 5233 5236
5910 1 5235 5237
5911 2 5239 5242
5912 1 5241 5243
5913 2 5242 5245
5914 1 5244 5246
5915 2 5245 5248
5916 1 5247 5249
5917 2 5248 5251
5918 1 5250 5252
5919 2 5251 5254
5920 1 5253 5255
5921 2 5257 5260
5922 1 5259 5261
5923 2 5260 5263
5924 1 5262 5264
5925 2 5263 5266
5926 1 5265 5267
5927 2 5266 5269
5928 1 5268 5270
5929 2 5269 5272
5930 1 5271 5273
5931 2 5275 5278
5932 1 5277 5279
5933 2 5278 5281
5934 1 5280 5282
5935 2 5281 5284
5936 1 5283 5285
5937 2 5284 5287
5938 1 5286 5288
5939 2 5287 5290
5940 1 5289 5291
5941 2 5293 5296
5942 1 5295 5297
5943 2 5296 5299
5944 1 5298 5300
5945 2 5299 5302
5946 1 5301 5303
5947 2 5302 5305
5948 1 5304 5306
5949 2 5305 5308
5950 1 5307 5309
5951 2 5311 5314
5952 1 5313 5315
5953 2 5314 5317
5954 1 5316 5318
5955 2 5317 5320
5956 1 5319 5321
5957 2 5320 5323
5958 1 5322 5324
5959 2 5323 5326
5960 1 5325 5327
5961 2 5329 5332
5962 1 5331 5333
5963 2 5332 5335
5964 1 5334 5336
5965 2 5335 5338
5966 1 5337 5339
5967 2 5338 5341
5968 1 5340 5342
5969 2 5341 5344
5970 1 5343 5345
5971 2 5347 5350
5972 1 5349 5351
5973 2 5350 5353
5974 1 5352 5354
5975 2 5353 5356
5976 1 5355 5357
5977 2 5356 5359
5978 1 5358 5360
5979 2 5359 5362
5980 1 5361 5363
5981 2 5365 5368
5982 1 5367 5369
5983 2 5368 5371
5984 1 5370 5372
5985 2 5371 5374
5986 1 5373 5375
5987 2 5374 5377
5988 1 5376 5378
5989 2 5377 5380
5990 1 5379 5381
5991 2 5383 5386
5992 1 5385 5387
5993 2 5386 5389
5994 1 5388 5390
5995 2 5389 5392
5996 1 5391 5393
5997 2 5392 5395
5998 1 5394 5396
5999 2 5395 5398
6000 1 5397 5399
6001 2 5401 5404
6002 1 5403 5405
6003 2 5404 5407
6004 1 5406 5408
6005 2 5407 5410
6006 1 5409 5411
6007 2 5410 5413
6008 1 5412 5414
6009 2 5413 5416
6010 1 5415 5417
6011 2 5419 5422
6012 1 5421 5423
6013 2 5422 5425
6014 1 5424 5426
6015 2 5425 5428
6016 1 5427 5429
6017 2 5428 5431
6018 1 5430 5432
6019 2 5431 5434
6020 1 5433 5435
6021 2 5437 5440
6022 1 5439 5441
6023 2 5440 5443
6024 1 5442 5444
6025 2 5443 5446
6026 1 5445 5447
6027 2 5446 5449
6028 1 5448 5450
6029 2 5449 5452
6030 1 5451 5453
6031 2 5455 5458
6032 1 5457 5459
6033 2 5458 5461
6034 1 5460 5462
6035 2 5461 5464
6036 1 5463 5465
6037 2 5464 5467
6038 1 5466 5468
6039 2 5467 5470
6040 1 5469 5471
6041 2 5473 5476
6042 1 5475 5477
6043 2 5476 5479
6044 1 5478 5480
6045 2 5479 5482
6046 1 5481 5483
6047 2 5482 5485
6048 1 5484 5486
6049 2 5485 5488
6050 1 5487 5489
6051 2 5491 5494
6052 1 5493 5495
6053 2 5494 5497
6054 1 5496 5498
6055 2 5497 5500
6056 1 5499 5501
6057 2 5500 5503
6058 1 5502 5504
6059 2 5503 5506
6060 1 5505 5507
6061 2 5509 5512
6062 1 5511 5513
6063 2 5512 5515
6064 1 5514 5516
6065 2 5515 5518
6066 1 5517 5519
6067 2 5518 5521
6068 1 5520 5522
6069 2 5521 5524
6070 1 5523 5525
6071 2 5527 5530
6072 1 5529 5531
6073 2 5530 5533
6074 1 5532 5534
6075 2 5533 5536
6076 1 5535 5537
6077 2 5536 5539
6078 1 5538 5540
6079 2 5539 5542
6080 1 5541 5543
6081 2 5545 5548
6082 1 5547 5549
6083 2 5548 5551
6084 1 5550 5552
6085 2 5551 5554
6086 1 5553 5555
6087 2 5554 5557
6088 1 5556 5558
6089 2 5557 5560
6090 1 5559 5561
6091 2 5563 5566
6092 1 5565 5567
6093 2 5566 5569
6094 1 5568 5570
6095 2 5569 5572
6096 1 5571 5573
6097 2 5572 5575
6098 1 5574 5576
6099 2 5575 5578
6100 1 5577 5579
6101 2 5581 5584
6102 1 5583 5585
6103 2 5584 5587
6104 1 5586 5588
6105 2 5587 5590
6106 1 5589 5591
6107 2 5590 5593
6108 1 5592 5594
6109 2 5593 5596
6110 1 5595 5597
6111 2 5599 5602
6112 1 5601 5603
6113 2 5602 5605
6114 1 5604 5606
6115 2 5605 5608
6116 1 5607 5609
6117 2 5608 5611
6118 1 5610 5612
6119 2 5611 5614
6120 1 5613 5615
6121 2 5617 5620
6122 1 5619 5621
6123 2 5620 5623
6124 1 5622 5624
6125 2 5623 5626
6126 1 5625 5627
6127 2 5626 5629
6128 1 5628 5630
6129 2 5629 5632
6130 1 5631 5633
6131 2 5635 5638
6132 1 5637 5639
6133 2 5638 5641
6134 1 5640 5642
6135 2 5641 5644
6136 1 5643 5645
6137 2 5644 5647
6138 1 5646 5648
6139 2 5647 5650
6140 1 5649 5651
6141 2 5653 5656
6142 1 5655 5657
6143 2 5656 5659
6144 1 5658 5660
6145 2 5659 5662
6146 1 5661 5663
6147 2 5662 5665
6148 1 5664 5666
6149 2 5665 5668
6150 1 5667 5669
6151 2 5671 5674
6152 1 5673 5675
6153 2 5674 5677
6154 1 5676 5678
6155 2 5677 5680
6156 1 5679 5681
6157 2 5680 5683
6158 1 5682 5684
6159 2 5683 5686
6160 1 5685 5687
6161 2 5689 5692
6162 1 5691 5693
6163 2 5692 5695
6164 1 5694 5696
6165 2 5695 5698
6166 1 5697 5699
6167 2 5698 5701
6168 1 5700 5702
6169 2 5701 5704
6170 1 5703 5705
6171 2 5707 5710
6172 1 5709 5711
6173 2 5710 5713
6174 1 5712 5714
6175 2 5713 5716
6176 1 5715 5717
6177 2 5716 5719
6178 1 5718 5720
6179 2 5719 5722
6180 1 5721 5723
6181 2 5725 5728
6182 1 5727 5729
6183 2 5728 5731
6184 1 5730 5732
6185 2 5731 5734
6186 1 5733 5735
6187 2 5734 5737
6188 1 5736 5738
6189 2 5737 5740
6190 1 5739 5741
6191 2 5743 5746
6192 1 5745 5747
6193 2 5746 5749
6194 1 5748 5750
6195 2 5749 5752
6196 1 5751 5753
6197 2 5752 5755
6198 1 5754 5756
6199 2 5755 5758
6200 1 5757 5759
6201 2 5761 5764
6202 1 5763 5765
6203 2 5764 5767
6204 1 5766 5768
6205 2 5767 5770
6206 1 5769 5771
6207 2 5770 5773
6208 1 5772 5774
6209 2 5773 5776
6210 1 5775 5777
6211 2 5779 5782
6212 1 5781 5783
6213 2 5782 5785
6214 1 5784 5786
6215 2 5785 5788
6216 1 5787 5789
6217 2 5788 5791
6218 1 5790 5792
6219 2 5791 5794
6220 1 5793 5795
6221 2 5797 5800
6222 1 5799 5801
6223 2 5800 5803
6224 1 5802 5804
6225 2 5803 5806
6226 1 5805 5807
6227 2 5806 5809
6228 1 5808 5810
6229 2 5809 5812
6230 1 5811 5813
6231 2 5815 5818
6232 1 5817 5819
6233 2 5818 5821
6234 1 5820 5822
6235 2 5821 5824
6236 1 5823 5825
6237 2 5824 5827
6238 1 5826 5828
6239 2 5827 5830
6240 1 5829 5831
6241 2 5833 5836
6242 1 5835 5837
6243 2 5836 5839
6244 1 5838 5840
6245 2 5839 5842
6246 1 5841 5843
6247 2 5842 5845
6248 1 5844 5846
6249 2 5845 5848
6250 1 5847 5849
6251 2 5851 5854
6252 1 5853 5855
6253 2 5854 5857
6254 1 5856 5858
6255 2 5857 5860
6256 1 5859 5861
6257 2 5860 5863
6258 1 5862 5864
6259 2 5863 5866
6260 1 5865 5867
6261 2 5869 5872
6262 1 5871 5873
6263 2 5872 5875
6264 1 5874 5876
6265 2 5875 5878
6266 1 5877 5879
6267 2 5878 5881
6268 1 5880 5882
6269 2 5881 5884
6270 1 5883 5885
6271 2 5887 5890
6272 1 5889 5891
6273 2 5890 5893
6274 1 5892 5894
6275 2 5893 5896
6276 1 5895 5897
6277 2 5896 5899
6278 1 5898 5900
6279 2 5899 5902
6280 1 5901 5903
6281 2 5905 5908
6282 1 5907 5909
6283 2 5908 5911
6284 1 5910 5912
6285 2 5911 5914
6286 1 5913 5915
6287 2 5914 5917
6288 1 5916 5918
6289 2 5917 5920
6290 1 5919 5921
6291 2 5923 5926
6292 1 5925 5927
6293 2 5926 5929
6294 1 5928 5930
6295 2 5929 5932
6296 1 5931 5933
6297 2 5932 5935
6298 1 5934 5936
6299 2 5935 5938
6300 1 5937 5939
6301 2 5941 5944
6302 1 5943 5945
6303 2 5944 5947
6304 1 5946 5948
6305 2 5947 5950
6306 1 5949 5951
6307 2 5950 5953
6308 1 5952 5954
6309 2 5953 5956
6310 1 5955 5957
6311 2 5959 5962
6312 1 5961 5963
6313 2 5962 5965
6314 1 5964 5966
6315 2 5965 5968
6316 1 5967 5969
6317 2 5968 5971
6318 1 5970 5972
6319 2 5971 5974
6320 1 5973 5975
6321 2 5977 5980
6322 1 5979 5981
6323 2 5980 5983
6324 1 5982 5984
6325 2 5983 5986
6326 1 5985 5987
6327 2 5986 5989
6328 1 5988 5990
6329 2 5989 5992
6330 1 5991 5993
6331 2 5995 5998
6332 1 5997 5999
6333 2 5998 6001
6334 1 6000 6002
6335 2 6001 6004
6336 1 6003 6005
6337 2 6004 6007
6338 1 6006 6008
6339 2 6007 6010
6340 1 6009 6011
6341 2 6013 6016
6342 1 6015 6017
6343 2 6016 6019
6344 1 6018 6020
6345 2 6019 6022
6346 1 6021 6023
6347 2 6022 6025
6348 1 6024 6026
6349 2 6025 6028
6350 1 6027 6029
6351 2 6031 6034
6352 1 6033 6035
6353 2 6034 6037
6354 1 6036 6038
6355 2 6037 6040
6356 1 6039 6041
6357 2 6040 6043
6358 1 6042 6044
6359 2 6043 6046
6360 1 6045 6047
6361 2 6049 6052
6362 1 6051 6053
6363 2 6052 6055
6364 1 6054 6056
6365 2 6055 6058
6366 1 6057 6059
6367 2 6058 6061
6368 1 6060 6062
6369 2 6061 6064
6370 1 6063 6065
6371 2 6067 6070
6372 1 6069 6071
6373 2 6070 6073
6374 1 6072 6074
6375 2 6073 6076
6376 1 6075 6077
6377 2 6076 6079
6378 1 6078 6080
6379 2 6079 6082
6380 1 6081 6083
6381 2 6085 6088
6382 1 6087 6089
6383 2 6088 6091
6384 1 6090 6092
6385 2 6091 6094
6386 1 6093 6095
6387 2 6094 6097
6388 1 6096 6098
6389 2 6097 6100
6390 1 6099 6101
6391 2 6103 6106
6392 1 6105 6107
6393 2 6106 6109
6394 1 6108 6110
6395 2 6109 6112
6396 1 6111 6113
6397 2 6112 6115
6398 1 6114 6116
6399 2 6115 6118
6400 1 6117 6119
6401 2 6121 6124
6402 1 6123 6125
6403 2 6124 6127
6404 1 6126 6128
6405 2 6127 6130
6406 1 6129 6131
6407 2 6130 6133
6408 1 6132 6134
6409 2 6133 6136
6410 1 6135 6137
6411 2 6139 6142
6412 1 6141 6143
6413 2 6142 6145
6414 1 6144 6146
6415 2 6145 6148
6416 1 6147 6149
6417 2 6148 6151
6418 1 6150 6152
6419 2 6151 6154
6420 1 6153 6155
6421 2 6157 6160
6422 1 6159 6161
6423 2 6160 6163
6424 1 6162 6164
6425 2 6163 6166
6426 1 6165 6167
6427 2 6166 6169
6428 1 6168 6170
6429 2 6169 6172
6430 1 6171 6173
6431 2 6175 6178
6432 1 6177 6179
6433 2 6178 6181
6434 1 6180 6182
6435 2 6181 6184
6436 1 6183 6185
6437 2 6184 6187
6438 1 6186 6188
6439 2 6187 6190
6440 1 6189 6191
6441 2 6193 6196
6442 1 6195 6197
6443 2 6196 6199
6444 1 6198 6200
6445 2 6199 6202
6446 1 6201 6203
6447 2 6202 6205
6448 1 6204 6206
6449 2 6205 6208
6450 1 6207 6209
6451 2 6211 6214
6452 1 6213 6215
6453 2 6214 6217
6454 1 6216 6218
6455 2 6217 6220
6456 1 6219 6221
6457 2 6220 6223
6458 1 6222 6224
6459 2 6223 6226
6460 1 6225 6227
6461 2 6229 6232
6462 1 6231 6233
6463 2 6232 6235
6464 1 6234 6236
6465 2 6235 6238
6466 1 6237 6239
6467 2 6238 6241
6468 1 6240 6242
6469 2 6241 6244
6470 1 6243 6245
6471 2 6247 6250
6472 1 6249 6251
6473 2 6250 6253
6474 1 6252 6254
6475 2 6253 6256
6476 1 6255 6257
6477 2 6256 6259
6478 1 6258 6260
6479 2 6259 6262
6480 1 6261 6263
6481 2 6265 6268
6482 1 6267 6269
6483 2 6268 6271
6484 1 6270 6272
6485 2 6271 6274
6486 1 6273 6275
6487 2 6274 6277
6488 1 6276 6278
6489 2 6277 6280
6490 1 6279 6281
6491 2 6283 6286
6492 1 6285 6287
6493 2 6286 6289
6494 1 6288 6290
6495 2 6289 6292
6496 1 6291 6293
6497 2 6292 6295
6498 1 6294 6296
6499 2 6295 6298
6500 1 6297 6299
6501 2 6301 6304
6502 1 6303 6305
6503 2 6304 6307
6504 1 6306 6308
6505 2 6307 6310
6506 1 6309 6311
6507 2 6310 6313
6508 1 6312 6314
6509 2 6313 6316
6510 1 6315 6317
6511 2 6319 6322
6512 1 6321 6323
6513 2 6322 6325
6514 1 6324 6326
6515 2 6325 6328
6516 1 6327 6329
6517 2 6328 6331
6518 1 6330 6332
6519 2 6331 6334
6520 1 6333 6335
6521 2 6337 6340
6522 1 6339 6341
6523 2 6340 6343
6524 1 6342 6344
6525 2 6343 6346
6526 1 6345 6347
6527 2 6346 6349
6528 1 6348 6350
6529 2 6349 6352
6530 1 6351 6353
6531 2 6355 6358
6532 1 6357 6359
6533 2 6358 6361
6534 1 6360 6362
6535 2 6361 6364
6536 1 6363 6365
6537 2 6364 6367
6538 1 6366 6368
6539 2 6367 6370
6540 1 6369 6371
6541 2 6373 6376
6542 1 6375 6377
6543 2 6376 6379
6544 1 6378 6380
6545 2 6379 6382
6546 1 6381 6383
6547 2 6382 6385
6548 1 6384 6386
6549 2 6385 6388
6550 1 6387 6389
6551 2 6391 6394
6552 1 6393 6395
6553 2 6394 6397
6554 1 6396 6398
6555 2 6397 6400
6556 1 6399 6401
6557 2 6400 6403
6558 1 6402 6404
6559 2 6403 6406
6560 1 6405 6407
6561 2 6409 6412
6562 1 6411 6413
6563 2 6412 6415
6564 1 6414 6416
6565 2 6415 6418
6566 1 6417 6419
6567 2 6418 6421
6568 1 6420 6422
6569 2 6421 6424
6570 1 6423 6425
6571 2 6427 6430
6572 1 6429 6431
6573 2 6430 6433
6574 1 6432 6434
6575 2 6433 6436
6576 1 6435 6437
6577 2 6436 6439
6578 1 6438 6440
6579 2 6439 6442
6580 1 6441 6443
6581 2 6445 6448
6582 1 6447 6449
6583 2 6448 6451
6584 1 6450 6452
6585 2 6451 6454
6586 1 6453 6455
6587 2 6454 6457
6588 1 6456 6458
6589 2 6457 6460
6590 1 6459 6461
6591 2 6463 6466
6592 1 6465 6467
6593 2 6466 6469
6594 1 6468 6470
6595 2 6469 6472
6596 1 6471 6473
6597 2 6472 6475
6598 1 6474 6476
6599 2 6475 6478
6600 1 6477 6479
6601 2 6481 6484
6602 1 6483 6485
6603 2 6484 6487
6604 1 6486 6488
6605 2 6487 6490
6606 1 6489 6491
6607 2 6490 6493
6608 1 6492 6494
6609 2 6493 6496
6610 1 6495 6497
6611 2 6499 6502
6612 1 6501 6503
6613 2 6502 6505
6614 1 6504 6506
6615 2 6505 6508
6616 1 6507 6509
6617 2 6508 6511
6618 1 6510 6512
6619 2 6511 6514
6620 1 6513 6515
6621 2 6517 6520
6622 1 6519 6521
6623 2 6520 6523
6624 1 6522 6524
6625 2 6523 6526
6626 1 6525 6527
6627 2 6526 6529
6628 1 6528 6530
6629 2 6529 6532
6630 1 6531 6533
6631 2 6535 6538
6632 1 6537 6539
6633 2 6538 6541
6634 1 6540 6542
6635 2 6541 6544
6636 1 6543 6545
6637 2 6544 6547
6638 1 6546 6548
6639 2 6547 6550
6640 1 6549 6551
6641 2 6553 6556
6642 1 6555 6557
6643 2 6556 6559
6644 1 6558 6560
6645 2 6559 6562
6646 1 6561 6563
6647 2 6562 6565
6648 1 6564 6566
6649 2 6565 6568
6650 1 6567 6569
6651 2 6571 6574
6652 1 6573 6575
6653 2 6574 6577
6654 1 6576 6578
6655 2 6577 6580
6656 1 6579 6581
6657 2 6580 6583
6658 1 6582 6584
6659 2 6583 6586
6660 1 6585 6587
6661 2 6589 6592
6662 1 6591 6593
6663 2 6592 6595
6664 1 6594 6596
6665 2 6595 6598
6666 1 6597 6599
6667 2 6598 6601
6668 1 6600 6602
6669 2 6601 6604
6670 1 6603 6605
6671 2 6607 6610
6672 1 6609 6611
6673 2 6610 6613
6674 1 6612 6614
6675 2 6613 6616
6676 1 6615 6617
6677 2 6616 6619
6678 1 6618 6620
6679 2 6619 6622
6680 1 6621 6623
6681 2 6625 6628
6682 1 6627 6629
6683 2 6628 6631
6684 1 6630 6632
6685 2 6631 6634
6686 1 6633 6635
6687 2 6634 6637
6688 1 6636 6638
6689 2 6637 6640
6690 1 6639 6641
6691 2 6643 6646
6692 1 6645 6647
6693 2 6646 6649
6694 1 6648 6650
6695 2 6649 6652
6696 1 6651 6653
6697 2 6652 6655
6698 1 6654 6656
6699 2 6655 6658
6700 1 6657 6659
6701 2 6661 6664
6702 1 6663 6665
6703 2 6664 6667
6704 1 6666 6668
6705 2 6667 6670
6706 1 6669 6671
6707 2 6670 6673
6708 1 6672 6674
6709 2 6673 6676
6710 1 6675 6677
6711 2 6679 6682
6712 1 6681 6683
6713 2 6682 6685
6714 1 6684 6686
6715 2 6685 6688
6716 1 6687 6689
6717 2 6688 6691
6718 1 6690 6692
6719 2 6691 6694
6720 1 6693 6695
6721 2 6697 6700
6722 1 6699 6701
6723 2 6700 6703
6724 1 6702 6704
6725 2 6703 6706
6726 1 6705 6707
6727 2 6706 6709
6728 1 6708 6710
6729 2 6709 6712
6730 1 6711 6713
6731 2 6715 6718
6732 1 6717 6719
6733 2 6718 6721
6734 1 6720 6722
6735 2 6721 6724
6736 1 6723 6725
6737 2 6724 6727
6738 1 6726 6728
6739 2 6727 6730
6740 1 6729 6731
6741 2 6733 6736
6742 1 6735 6737
6743 2 6736 6739
6744 1 6738 6740
6745 2 6739 6742
6746 1 6741 6743
6747 2 6742 6745
6748 1 6744 6746
6749 2 6745 6748
6750 1 6747 6749
6751 2 6751 6754
6752 1 6753 6755
6753 2 6754 6757
6754 1 6756 6758
6755 2 6757 6760
6756 1 6759 6761
6757 2 6760 6763
6758 1 6762 6764
6759 2 6763 6766
6760 1 6765 6767
6761 2 6769 6772
6762 1 6771 6773
6763 2 6772 6775
6764 1 6774 6776
6765 2 6775 6778
6766 1 6777 6779
6767 2 6778 6781
6768 1 6780 6782
6769 2 6781 6784
6770 1 6783 6785
6771 2 6787 6790
6772 1 6789 6791
6773 2 6790 6793
6774 1 6792 6794
6775 2 6793 6796
6776 1 6795 6797
6777 2 6796 6799
6778 1 6798 6800
6779 2 6799 6802
6780 1 6801 6803
6781 2 6805 6808
6782 1 6807 6809
6783 2 6808 6811
6784 1 6810 6812
6785 2 6811 6814
6786 1 6813 6815
6787 2 6814 6817
6788 1 6816 6818
6789 2 6817 6820
6790 1 6819 6821
6791 2 6823 6826
6792 1 6825 6827
6793 2 6826 6829
6794 1 6828 6830
6795 2 6829 6832
6796 1 6831 6833
6797 2 6832 6835
6798 1 6834 6836
6799 2 6835 6838
6800 1 6837 6839
6801 2 6841 6844
6802 1 6843 6845
6803 2 6844 6847
6804 1 6846 6848
6805 2 6847 6850
6806 1 6849 6851
6807 2 6850 6853
6808 1 6852 6854
6809 2 6853 6856
6810 1 6855 6857
6811 2 6859 6862
6812 1 6861 6863
6813 2 6862 6865
6814 1 6864 6866
6815 2 6865 6868
6816 1 6867 6869
6817 2 6868 6871
6818 1 6870 6872
6819 2 6871 6874
6820 1 6873 6875
6821 2 6877 6880
6822 1 6879 6881
6823 2 6880 6883
6824 1 6882 6884
6825 2 6883 6886
6826 1 6885 6887
6827 2 6886 6889
6828 1 6888 6890
6829 2 6889 6892
6830 1 6891 6893
6831 2 6895 6898
6832 1 6897 6899
6833 2 6898 6901
6834 1 6900 6902
6835 2 6901 6904
6836 1 6903 6905
6837 2 6904 6907
6838 1 6906 6908
6839 2 6907 6910
6840 1 6909 6911
6841 2 6913 6916
6842 1 6915 6917
6843 2 6916 6919
6844 1 6918 6920
6845 2 6919 6922
6846 1 6921 6923
6847 2 6922 6925
6848 1 6924 6926
6849 2 6925 6928
6850 1 6927 6929
6851 2 6931 6934
6852 1 6933 6935
6853 2 6934 6937
6854 1 6936 6938
6855 2 6937 6940
6856 1 6939 6941
6857 2 6940 6943
6858 1 6942 6944
6859 2 6943 6946
6860 1 6945 6947
6861 2 6949 6952
6862 1 6951 6953
6863 2 6952 6955
6864 1 6954 6956
6865 2 6955 6958
6866 1 6957 6959
6867 2 6958 6961
6868 1 6960 6962
6869 2 6961 6964
6870 1 6963 6965
6871 2 6967 6970
6872 1 6969 6971
6873 2 6970 6973
6874 1 6972 6974
6875 2 6973 6976
6876 1 6975 6977
6877 2 6976 6979
6878 1 6978 6980
6879 2 6979 6982
6880 1 6981 6983
6881 2 6985 6988
6882 1 6987 6989
6883 2 6988 6991
6884 1 6990 6992
6885 2 6991 6994
6886 1 6993 6995
6887 2 6994 6997
6888 1 6996 6998
6889 2 6997 7000
6890 1 6999 7001
6891 2 7003 7006
6892 1 7005 7007
6893 2 7006 7009
6894 1 7008 7010
6895 2 7009 7012
6896 1 7011 7013
6897 2 7012 7015
6898 1 7014 7016
6899 2 7015 7018
6900 1 7017 7019
6901 2 7021 7024
6902 1 7023 7025
6903 2 7024 7027
6904 1 7026 7028
6905 2 7027 7030
6906 1 7029 7031
6907 2 7030 7033
6908 1 7032 7034
6909 2 7033 7036
6910 1 7035 7037
6911 2 7039 7042
6912 1 7041 7043
6913 2 7042 7045
6914 1 7044 7046
6915 2 7045 7048
6916 1 7047 7049
6917 2 7048 7051
6918 1 7050 7052
6919 2 7051 7054
6920 1 7053 7055
6921 2 7057 7060
6922 1 7059 7061
6923 2 7060 7063
6924 1 7062 7064
6925 2 7063 7066
6926 1 7065 7067
6927 2 7066 7069
6928 1 7068 7070
6929 2 7069 7072
6930 1 7071 7073
6931 2 7075 7078
6932 1 7077 7079
6933 2 7078 7081
6934 1 7080 7082
6935 2 7081 7084
6936 1 7083 7085
6937 2 7084 7087
6938 1 7086 7088
6939 2 7087 7090
6940 1 7089 7091
6941 2 7093 7096
6942 1 7095 7097
6943 2 7096 7099
6944 1 7098 7100
6945 2 7099 7102
6946 1 7101 7103
6947 2 7102 7105
6948 1 7104 7106
6949 2 7105 7108
6950 1 7107 7109
6951 2 7111 7114
6952 1 7113 7115
6953 2 7114 7117
6954 1 7116 7118
6955 2 7117 7120
6956 1 7119 7121
6957 2 7120 7123
6958 1 7122 7124
6959 2 7123 7126
6960 1 7125 7127
6961 2 7129 7132
6962 1 7131 7133
6963 2 7132 7135
6964 1 7134 7136
6965 2 7135 7138
6966 1 7137 7139
6967 2 7138 7141
6968 1 7140 7142
6969 2 7141 7144
6970 1 7143 7145
6971 2 7147 7150
6972 1 7149 7151
6973 2 7150 7153
6974 1 7152 7154
6975 2 7153 7156
6976 1 7155 7157
6977 2 7156 7159
6978 1 7158 7160
6979 2 7159 7162
6980 1 7161 7163
6981 2 7165 7168
6982 1 7167 7169
6983 2 7168 7171
6984 1 7170 7172
6985 2 7171 7174
6986 1 7173 7175
6987 2 7174 7177
6988 1 7176 7178
6989 2 7177 7180
6990 1 7179 7181
6991 2 7183 7186
6992 1 7185 7187
6993 2 7186 7189
6994 1 7188 7190
6995 2 7189 7192
6996 1 7191 7193
6997 2 7192 7195
6998 1 7194 7196
6999 2 7195 7198
7000 1 7197 7199
7001 2 7201 7204
7002 1 7203 7205
7003 2 7204 7207
7004 1 7206 7208
7005 2 7207 7210
7006 1 7209 7211
7007 2 7210 7213
7008 1 7212 7214
7009 2 7213 7216
7010 1 7215 7217
7011 2 7219 7222
7012 1 7221 7223
7013 2 7222 7225
7014 1 7224 7226
7015 2 7225 7228
7016 1 7227 7229
7017 2 7228 7231
7018 1 7230 7232
7019 2 7231 7234
7020 1 7233 7235
7021 2 7237 7240
7022 1 7239 7241
7023 2 7240 7243
7024 1 7242 7244
7025 2 7243 7246
7026 1 7245 7247
7027 2 7246 7249
7028 1 7248 7250
7029 2 7249 7252
7030 1 7251 7253
7031 2 7255 7258
7032 1 7257 7259
7033 2 7258 7261
7034 1 7260 7262
7035 2 7261 7264
7036 1 7263 7265
7037 2 7264 7267
7038 1 7266 7268
7039 2 7267 7270
7040 1 7269 7271
7041 2 7273 7276
7042 1 7275 7277
7043 2 7276 7279
7044 1 7278 7280
7045 2 7279 7282
7046 1 7281 7283
7047 2 7282 7285
7048 1 7284 7286
7049 2 7285 7288
7050 1 7287 7289
7051 2 7291 7294
7052 1 7293 7295
7053 2 7294 7297
7054 1 7296 7298
7055 2 7297 7300
7056 1 7299 7301
7057 2 7300 7303
7058 1 7302 7304
7059 2 7303 7306
7060 1 7305 7307
7061 2 7309 7312
7062 1 7311 7313
7063 2 7312 7315
7064 1 7314 7316
7065 2 7315 7318
7066 1 7317 7319
7067 2 7318 7321
7068 1 7320 7322
7069 2 7321 7324
7070 1 7323 7325
7071 2 7327 7330
7072 1 7329 7331
7073 2 7330 7333
7074 1 7332 7334
7075 2 7333 7336
7076 1 7335 7337
7077 2 7336 7339
7078 1 7338 7340
7079 2 7339 7342
7080 1 7341 7343
7081 2 7345 7348
7082 1 7347 7349
7083 2 7348 7351
7084 1 7350 7352
7085 2 7351 7354
7086 1 7353 7355
7087 2 7354 7357
7088 1 7356 7358
7089 2 7357 7360
7090 1 7359 7361
7091 2 7363 7366
7092 1 7365 7367
7093 2 7366 7369
7094 1 7368 7370
7095 2 7369 7372
7096 1 7371 7373
7097 2 7372 7375
7098 1 7374 7376
7099 2 7375 7378
7100 1 7377 7379
7101 2 7381 7384
7102 1 7383 7385
7103 2 7384 7387
7104 1 7386 7388
7105 2 7387 7390
7106 1 7389 7391
7107 2 7390 7393
7108 1 7392 7394
7109 2 7393 7396
7110 1 7395 7397
7111 2 7399 7402
7112 1 7401 7403
7113 2 7402 7405
7114 1 7404 7406
7115 2 7405 7408
7116 1 7407 7409
7117 2 7408 7411
7118 1 7410 7412
7119 2 7411 7414
7120 1 7413 7415
7121 2 7417 7420
7122 1 7419 7421
7123 2 7420 7423
7124 1 7422 7424
7125 2 7423 7426
7126 1 7425 7427
7127 2 7426 7429
7128 1 7428 7430
7129 2 7429 7432
7130 1 7431 7433
7131 2 7435 7438
7132 1 7437 7439
7133 2 7438 7441
7134 1 7440 7442
7135 2 7441 7444
7136 1 7443 7445
7137 2 7444 7447
7138 1 7446 7448
7139 2 7447 7450
7140 1 7449 7451
7141 2 7453 7456
7142 1 7455 7457
7143 2 7456 7459
7144 1 7458 7460
7145 2 7459 7462
7146 1 7461 7463
7147 2 7462 7465
7148 1 7464 7466
7149 2 7465 7468
7150 1 7467 7469
7151 2 7471 7474
7152 1 7473 7475
7153 2 7474 7477
7154 1 7476 7478
7155 2 7477 7480
7156 1 7479 7481
7157 2 7480 7483
7158 1 7482 7484
7159 2 7483 7486
7160 1 7485 7487
7161 2 7489 7492
7162 1 7491 7493
7163 2 7492 7495
7164 1 7494 7496
7165 2 7495 7498
7166 1 7497 7499
7167 2 7498 7501
7168 1 7500 7502
7169 2 7501 7504
7170 1 7503 7505
7171 2 7507 7510
7172 1 7509 7511
7173 2 7510 7513
7174 1 7512 7514
7175 2 7513 7516
7176 1 7515 7517
7177 2 7516 7519
7178 1 7518 7520
7179 2 7519 7522
7180 1 7521 7523
7181 2 7525 7528
7182 1 7527 7529
7183 2 7528 7531
7184 1 7530 7532
7185 2 7531 7534
7186 1 7533 7535
7187 2 7534 7537
7188 1 7536 7538
7189 2 7537 7540
7190 1 7539 7541
7191 2 7543 7546
7192 1 7545 7547
7193 2 7546 7549
7194 1 7548 7550
7195 2 7549 7552
7196 1 7551 7553
7197 2 7552 7555
7198 1 7554 7556
7199 2 7555 7558
7200 1 7557 7559
7201 2 7561 7564
7202 1 7563 7565
7203 2 7564 7567
7204 1 7566 7568
7205 2 7567 7570
7206 1 7569 7571
7207 2 7570 7573
7208 1 7572 7574
7209 2 7573 7576
7210 1 7575 7577
7211 2 7579 7582
7212 1 7581 7583
7213 2 7582 7585
7214 1 7584 7586
7215 2 7585 7588
7216 1 7587 7589
7217 2 7588 7591
7218 1 7590 7592
7219 2 7591 7594
7220 1 7593 7595
7221 2 7597 7600
7222 1 7599 7601
7223 2 7600 7603
7224 1 7602 7604
7225 2 7603 7606
7226 1 7605 7607
7227 2 7606 7609
7228 1 7608 7610
7229 2 7609 7612
7230 1 7611 7613
7231 2 7615 7618
7232 1 7617 7619
7233 2 7618 7621
7234 1 7620 7622
7235 2 7621 7624
7236 1 7623 7625
7237 2 7624 7627
7238 1 7626 7628
7239 2 7627 7630
7240 1 7629 7631
7241 2 7633 7636
7242 1 7635 7637
7243 2 7636 7639
7244 1 7638 7640
7245 2 7639 7642
7246 1 7641 7643
7247 2 7642 7645
7248 1 7644 7646
7249 2 7645 7648
7250 1 7647 7649
7251 2 7651 7654
7252 1 7653 7655
7253 2 7654 7657
7254 1 7656 7658
7255 2 7657 7660
7256 1 7659 7661
7257 2 7660 7663
7258 1 7662 7664
7259 2 7663 7666
7260 1 7665 7667
7261 2 7669 7672
7262 1 7671 7673
7263 2 7672 7675
7264 1 7674 7676
7265 2 7675 7678
7266 1 7677 7679
7267 2 7678 7681
7268 1 7680 7682
7269 2 7681 7684
7270 1 7683 7685
7271 2 7687 7690
7272 1 7689 7691
7273 2 7690 7693
7274 1 7692 7694
7275 2 7693 7696
7276 1 7695 7697
7277 2 7696 7699
7278 1 7698 7700
7279 2 7699 7702
7280 1 7701 7703
7281 2 7705 7708
7282 1 7707 7709
7283 2 7708 7711
7284 1 7710 7712
7285 2 7711 7714
7286 1 7713 7715
7287 2 7714 7717
7288 1 7716 7718
7289 2 7717 7720
7290 1 7719 7721
7291 2 7723 7726
7292 1 7725 7727
7293 2 7726 7729
7294 1 7728 7730
7295 2 7729 7732
7296 1 7731 7733
7297 2 7732 7735
7298 1 7734 7736
7299 2 7735 7738
7300 1 7737 7739
7301 2 7741 7744
7302 1 7743 7745
7303 2 7744 7747
7304 1 7746 7748
7305 2 7747 7750
7306 1 7749 7751
7307 2 7750 7753
7308 1 7752 7754
7309 2 7753 7756
7310 1 7755 7757
7311 2 7759 7762
7312 1 7761 7763
7313 2 7762 7765
7314 1 7764 7766
7315 2 7765 7768
7316 1 7767 7769
7317 2 7768 7771
7318 1 7770 7772
7319 2 7771 7774
7320 1 7773 7775
7321 2 7777 7780
7322 1 7779 7781
7323 2 7780 7783
7324 1 7782 7784
7325 2 7783 7786
7326 1 7785 7787
7327 2 7786 7789
7328 1 7788 7790
7329 2 7789 7792
7330 1 7791 7793
7331 2 7795 7798
7332 1 7797 7799
7333 2 7798 7801
7334 1 7800 7802
7335 2 7801 7804
7336 1 7803 7805
7337 2 7804 7807
7338 1 7806 7808
7339 2 7807 7810
7340 1 7809 7811
7341 2 7813 7816
7342 1 7815 7817
7343 2 7816 7819
7344 1 7818 7820
7345 2 7819 7822
7346 1 7821 7823
7347 2 7822 7825
7348 1 7824 7826
7349 2 7825 7828
7350 1 7827 7829
7351 2 7831 7834
7352 1 7833 7835
7353 2 7834 7837
7354 1 7836 7838
7355 2 7837 7840
7356 1 7839 7841
7357 2 7840 7843
7358 1 7842 7844
7359 2 7843 7846
7360 1 7845 7847
7361 2 7849 7852
7362 1 7851 7853
7363 2 7852 7855
7364 1 7854 7856
7365 2 7855 7858
7366 1 7857 7859
7367 2 7858 7861
7368 1 7860 7862
7369 2 7861 7864
7370 1 7863 7865
7371 2 7867 7870
7372 1 7869 7871
7373 2 7870 7873
7374 1 7872 7874
7375 2 7873 7876
7376 1 7875 7877
7377 2 7876 7879
7378 1 7878 7880
7379 2 7879 7882
7380 1 7881 7883
7381 2 7885 7888
7382 1 7887 7889
7383 2 7888 7891
7384 1 7890 7892
7385 2 7891 7894
7386 1 7893 7895
7387 2 7894 7897
7388 1 7896 7898
7389 2 7897 7900
7390 1 7899 7901
7391 2 7903 7906
7392 1 7905 7907
7393 2 7906 7909
7394 1 7908 7910
7395 2 7909 7912
7396 1 7911 7913
7397 2 7912 7915
7398 1 7914 7916
7399 2 7915 7918
7400 1 7917 7919
7401 2 7921 7924
7402 1 7923 7925
7403 2 7924 7927
7404 1 7926 7928
7405 2 7927 7930
7406 1 7929 7931
7407 2 7930 7933
7408 1 7932 7934
7409 2 7933 7936
7410 1 7935 7937
7411 2 7939 7942
7412 1 7941 7943
7413 2 7942 7945
7414 1 7944 7946
7415 2 7945 7948
7416 1 7947 7949
7417 2 7948 7951
7418 1 7950 7952
7419 2 7951 7954
7420 1 7953 7955
7421 2 7957 7960
7422 1 7959 7961
7423 2 7960 7963
7424 1 7962 7964
7425 2 7963 7966
7426 1 7965 7967
7427 2 7966 7969
7428 1 7968 7970
7429 2 7969 7972
7430 1 7971 7973
7431 2 7975 7978
7432 1 7977 7979
7433 2 7978 7981
7434 1 7980 7982
7435 2 7981 7984
7436 1 7983 7985
7437 2 7984 7987
7438 1 7986 7988
7439 2 7987 7990
7440 1 7989 7991
7441 2 7993 7996
7442 1 7995 7997
7443 2 7996 7999
7444 1 7998 8000
7445 2 7999 8002
7446 1 8001 8003
7447 2 8002 8005
7448 1 8004 8006
7449 2 8005 8008
7450 1 8007 8009
7451 2 8011 8014
7452 1 8013 8015
7453 2 8014 8017
7454 1 8016 8018
7455 2 8017 8020
7456 1 8019 8021
7457 2 8020 8023
7458 1 8022 8024
7459 2 8023 8026
7460 1 8025 8027
7461 2 8029 8032
7462 1 8031 8033
7463 2 8032 8035
7464 1 8034 8036
7465 2 8035 8038
7466 1 8037 8039
7467 2 8038 8041
7468 1 8040 8042
7469 2 8041 8044
7470 1 8043 8045
7471 2 8047 8050
7472 1 8049 8051
7473 2 8050 8053
7474 1 8052 8054
7475 2 8053 8056
7476 1 8055 8057
7477 2 8056 8059
7478 1 8058 8060
7479 2 8059 8062
7480 1 8061 8063
7481 2 8065 8068
7482 1 8067 8069
7483 2 8068 8071
7484 1 8070 8072
7485 2 8071 8074
7486 1 8073 8075
7487 2 8074 8077
7488 1 8076 8078
7489 2 8077 8080
7490 1 8079 8081
7491 2 8083 8086
7492 1 8085 8087
7493 2 8086 8089
7494 1 8088 8090
7495 2 8089 8092
7496 1 8091 8093
7497 2 8092 8095
7498 1 8094 8096
7499 2 8095 8098
7500 1 8097 8099
7501 2 8101 8104
7502 1 8103 8105
7503 2 8104 8107
7504 1 8106 8108
7505 2 8107 8110
7506 1 8109 8111
7507 2 8110 8113
7508 1 8112 8114
7509 2 8113 8116
7510 1 8115 8117
7511 2 8119 8122
7512 1 8121 8123
7513 2 8122 8125
7514 1 8124 8126
7515 2 8125 8128
7516 1 8127 8129
7517 2 8128 8131
7518 1 8130 8132
7519 2 8131 8134
7520 1 8133 8135
7521 2 8137 8140
7522 1 8139 8141
7523 2 8140 8143
7524 1 8142 8144
7525 2 8143 8146
7526 1 8145 8147
7527 2 8146 8149
7528 1 8148 8150
7529 2 8149 8152
7530 1 8151 8153
7531 2 8155 8158
7532 1 8157 8159
7533 2 8158 8161
7534 1 8160 8162
7535 2 8161 8164
7536 1 8163 8165
7537 2 8164 8167
7538 1 8166 8168
7539 2 8167 8170
7540 1 8169 8171
7541 2 8173 8176
7542 1 8175 8177
7543 2 8176 8179
7544 1 8178 8180
7545 2 8179 8182
7546 1 8181 8183
7547 2 8182 8185
7548 1 8184 8186
7549 2 8185 8188
7550 1 8187 8189
7551 2 8191 8194
7552 1 8193 8195
7553 2 8194 8197
7554 1 8196 8198
7555 2 8197 8200
7556 1 8199 8201
7557 2 8200 8203
7558 1 8202 8204
7559 2 8203 8206
7560 1 8205 8207
7561 2 8209 8212
7562 1 8211 8213
7563 2 8212 8215
7564 1 8214 8216
7565 2 8215 8218
7566 1 8217 8219
7567 2 8218 8221
7568 1 8220 8222
7569 2 8221 8224
7570 1 8223 8225
7571 2 8227 8230
7572 1 8229 8231
7573 2 8230 8233
7574 1 8232 8234
7575 2 8233 8236
7576 1 8235 8237
7577 2 8236 8239
7578 1 8238 8240
7579 2 8239 8242
7580 1 8241 8243
7581 2 8245 8248
7582 1 8247 8249
7583 2 8248 8251
7584 1 8250 8252
7585 2 8251 8254
7586 1 8253 8255
7587 2 8254 8257
7588 1 8256 8258
7589 2 8257 8260
7590 1 8259 8261
7591 2 8263 8266
7592 1 8265 8267
7593 2 8266 8269
7594 1 8268 8270
7595 2 8269 8272
7596 1 8271 8273
7597 2 8272 8275
7598 1 8274 8276
7599 2 8275 8278
7600 1 8277 8279
7601 2 8281 8284
7602 1 8283 8285
7603 2 8284 8287
7604 1 8286 8288
7605 2 8287 8290
7606 1 8289 8291
7607 2 8290 8293
7608 1 8292 8294
7609 2 8293 8296
7610 1 8295 8297
7611 2 8299 8302
7612 1 8301 8303
7613 2 8302 8305
7614 1 8304 8306
7615 2 8305 8308
7616 1 8307 8309
7617 2 8308 8311
7618 1 8310 8312
7619 2 8311 8314
7620 1 8313 8315
7621 2 8317 8320
7622 1 8319 8321
7623 2 8320 8323
7624 1 8322 8324
7625 2 8323 8326
7626 1 8325 8327
7627 2 8326 8329
7628 1 8328 8330
7629 2 8329 8332
7630 1 8331 8333
7631 2 8335 8338
7632 1 8337 8339
7633 2 8338 8341
7634 1 8340 8342
7635 2 8341 8344
7636 1 8343 8345
7637 2 8344 8347
7638 1 8346 8348
7639 2 8347 8350
7640 1 8349 8351
7641 2 8353 8356
7642 1 8355 8357
7643 2 8356 8359
7644 1 8358 8360
7645 2 8359 8362
7646 1 8361 8363
7647 2 8362 8365
7648 1 8364 8366
7649 2 8365 8368
7650 1 8367 8369
7651 2 8371 8374
7652 1 8373 8375
7653 2 8374 8377
7654 1 8376 8378
7655 2 8377 8380
7656 1 8379 8381
7657 2 8380 8383
7658 1 8382 8384
7659 2 8383 8386
7660 1 8385 8387
7661 2 8389 8392
7662 1 8391 8393
7663 2 8392 8395
7664 1 8394 8396
7665 2 8395 8398
7666 1 8397 8399
7667 2 8398 8401
7668 1 8400 8402
7669 2 8401 8404
7670 1 8403 8405
7671 2 8407 8410
7672 1 8409 8411
7673 2 8410 8413
7674 1 8412 8414
7675 2 8413 8416
7676 1 8415 8417
7677 2 8416 8419
7678 1 8418 8420
7679 2 8419 8422
7680 1 8421 8423
7681 2 8425 8428
7682 1 8427 8429
7683 2 8428 8431
7684 1 8430 8432
7685 2 8431 8434
7686 1 8433 8435
7687 2 8434 8437
7688 1 8436 8438
7689 2 8437 8440
7690 1 8439 8441
7691 2 8443 8446
7692 1 8445 8447
7693 2 8446 8449
7694 1 8448 8450
7695 2 8449 8452
7696 1 8451 8453
7697 2 8452 8455
7698 1 8454 8456
7699 2 8455 8458
7700 1 8457 8459
7701 2 8461 8464
7702 1 8463 8465
7703 2 8464 8467
7704 1 8466 8468
7705 2 8467 8470
7706 1 8469 8471
7707 2 8470 8473
7708 1 8472 8474
7709 2 8473 8476
7710 1 8475 8477
7711 2 8479 8482
7712 1 8481 8483
7713 2 8482 8485
7714 1 8484 8486
7715 2 8485 8488
7716 1 8487 8489
7717 2 8488 8491
7718 1 8490 8492
7719 2 8491 8494
7720 1 8493 8495
7721 2 8497 8500
7722 1 8499 8501
7723 2 8500 8503
7724 1 8502 8504
7725 2 8503 8506
7726 1 8505 8507
7727 2 8506 8509
7728 1 8508 8510
7729 2 8509 8512
7730 1 8511 8513
7731 2 8515 8518
7732 1 8517 8519
7733 2 8518 8521
7734 1 8520 8522
7735 2 8521 8524
7736 1 8523 8525
7737 2 8524 8527
7738 1 8526 8528
7739 2 8527 8530
7740 1 8529 8531
7741 2 8533 8536
7742 1 8535 8537
7743 2 8536 8539
7744 1 8538 8540
7745 2 8539 8542
7746 1 8541 8543
7747 2 8542 8545
7748 1 8544 8546
7749 2 8545 8548
7750 1 8547 8549
7751 2 8551 8554
7752 1 8553 8555
7753 2 8554 8557
7754 1 8556 8558
7755 2 8557 8560
7756 1 8559 8561
7757 2 8560 8563
7758 1 8562 8564
7759 2 8563 8566
7760 1 8565 8567
7761 2 8569 8572
7762 1 8571 8573
7763 2 8572 8575
7764 1 8574 8576
7765 2 8575 8578
7766 1 8577 8579
7767 2 8578 8581
7768 1 8580 8582
7769 2 8581 8584
7770 1 8583 8585
7771 2 8587 8590
7772 1 8589 8591
7773 2 8590 8593
7774 1 8592 8594
7775 2 8593 8596
7776 1 8595 8597
7777 2 8596 8599
7778 1 8598 8600
7779 2 8599 8602
7780 1 8601 8603
7781 2 8605 8608
7782 1 8607 8609
7783 2 8608 8611
7784 1 8610 8612
7785 2 8611 8614
7786 1 8613 8615
7787 2 8614 8617
7788 1 8616 8618
7789 2 8617 8620
7790 1 8619 8621
7791 2 8623 8626
7792 1 8625 8627
7793 2 8626 8629
7794 1 8628 8630
7795 2 8629 8632
7796 1 8631 8633
7797 2 8632 8635
7798 1 8634 8636
7799 2 8635 8638
7800 1 8637 8639
7801 2 8641 8644
7802 1 8643 8645
7803 2 8644 8647
7804 1 8646 8648
7805 2 8647 8650
7806 1 8649 8651
7807 2 8650 8653
7808 1 8652 8654
7809 2 8653 8656
7810 1 8655 8657
7811 2 8659 8662
7812 1 8661 8663
7813 2 8662 8665
7814 1 8664 8666
7815 2 8665 8668
7816 1 8667 8669
7817 2 8668 8671
7818 1 8670 8672
7819 2 8671 8674
7820 1 8673 8675
7821 2 8677 8680
7822 1 8679 8681
7823 2 8680 8683
7824 1 8682 8684
7825 2 8683 8686
7826 1 8685 8687
7827 2 8686 8689
7828 1 8688 8690
7829 2 8689 8692
7830 1 8691 8693
7831 2 8695 8698
7832 1 8697 8699
7833 2 8698 8701
7834 1 8700 8702
7835 2 8701 8704
7836 1 8703 8705
7837 2 8704 8707
7838 1 8706 8708
7839 2 8707 8710
7840 1 8709 8711
7841 2 8713 8716
7842 1 8715 8717
7843 2 8716 8719
7844 1 8718 8720
7845 2 8719 8722
7846 1 8721 8723
7847 2 8722 8725
7848 1 8724 8726
7849 2 8725 8728
7850 1 8727 8729
7851 2 8731 8734
7852 1 8733 8735
7853 2 8734 8737
7854 1 8736 8738
7855 2 8737 8740
7856 1 8739 8741
7857 2 8740 8743
7858 1 8742 8744
7859 2 8743 8746
7860 1 8745 8747
7861 2 8749 8752
7862 1 8751 8753
7863 2 8752 8755
7864 1 8754 8756
7865 2 8755 8758
7866 1 8757 8759
7867 2 8758 8761
7868 1 8760 8762
7869 2 8761 8764
7870 1 8763 8765
7871 2 8767 8770
7872 1 8769 8771
7873 2 8770 8773
7874 1 8772 8774
7875 2 8773 8776
7876 1 8775 8777
7877 2 8776 8779
7878 1 8778 8780
7879 2 8779 8782
7880 1 8781 8783
7881 2 8785 8788
7882 1 8787 8789
7883 2 8788 8791
7884 1 8790 8792
7885 2 8791 8794
7886 1 8793 8795
7887 2 8794 8797
7888 1 8796 8798
7889 2 8797 8800
7890 1 8799 8801
7891 2 8803 8806
7892 1 8805 8807
7893 2 8806 8809
7894 1 8808 8810
7895 2 8809 8812
7896 1 8811 8813
7897 2 8812 8815
7898 1 8814 8816
7899 2 8815 8818
7900 1 8817 8819
7901 2 8821 8824
7902 1 8823 8825
7903 2 8824 8827
7904 1 8826 8828
7905 2 8827 8830
7906 1 8829 8831
7907 2 8830 8833
7908 1 8832 8834
7909 2 8833 8836
7910 1 8835 8837
7911 2 8839 8842
7912 1 8841 8843
7913 2 8842 8845
7914 1 8844 8846
7915 2 8845 8848
7916 1 8847 8849
7917 2 8848 8851
7918 1 8850 8852
7919 2 8851 8854
7920 1 8853 8855
7921 2 8857 8860
7922 1 8859 8861
7923 2 8860 8863
7924 1 8862 8864
7925 2 8863 8866
7926 1 8865 8867
7927 2 8866 8869
7928 1 8868 8870
7929 2 8869 8872
7930 1 8871 8873
7931 2 8875 8878
7932 1 8877 8879
7933 2 8878 8881
7934 1 8880 8882
7935 2 8881 8884
7936 1 8883 8885
7937 2 8884 8887
7938 1 8886 8888
7939 2 8887 8890
7940 1 8889 8891
7941 2 8893 8896
7942 1 8895 8897
7943 2 8896 8899
7944 1 8898 8900
7945 2 8899 8902
7946 1 8901 8903
7947 2 8902 8905
7948 1 8904 8906
7949 2 8905 8908
7950 1 8907 8909
7951 2 8911 8914
7952 1 8913 8915
7953 2 8914 8917
7954 1 8916 8918
7955 2 8917 8920
7956 1 8919 8921
7957 2 8920 8923
7958 1 8922 8924
7959 2 8923 8926
7960 1 8925 8927
7961 2 8929 8932
7962 1 8931 8933
7963 2 8932 8935
7964 1 8934 8936
7965 2 8935 8938
7966 1 8937 8939
7967 2 8938 8941
7968 1 8940 8942
7969 2 8941 8944
7970 1 8943 8945
7971 2 8947 8950
7972 1 8949 8951
7973 2 8950 8953
7974 1 8952 8954
7975 2 8953 8956
7976 1 8955 8957
7977 2 8956 8959
7978 1 8958 8960
7979 2 8959 8962
7980 1 8961 8963
7981 2 8965 8968
7982 1 8967 8969
7983 2 8968 8971
7984 1 8970 8972
7985 2 8971 8974
7986 1 8973 8975
7987 2 8974 8977
7988 1 8976 8978
7989 2 8977 8980
7990 1 8979 8981
7991 2 8983 8986
7992 1 8985 8987
7993 2 8986 8989
7994 1 8988 8990
7995 2 8989 8992
7996 1 8991 8993
7997 2 8992 8995
7998 1 8994 8996
7999 2 8995 8998
8000 1 8997 8999

Angles

1 1 1 4 7
2 2 2 3 5
3 2 3 5 6
4 3 4 7 10
5 2 5 6 8
6 2 6 8 9
7 3 7 10 13
8 2 8 9 11
9 2 9 11 12
10 1 10 13 16
11 2 11 12 14
12 2 12 14 15
13 2 14 15 17
14 2 15 17 18
15 1 19 22 25
16 2 20 21 23
17 2 21 23 24
18 3 22 25 28
19 2 23 24 26
20 2 24 26 27
21 3 25 28 31
22 2 26 27 29
23 2 27 29 30
24 1 28 31 34
25 2 29 30 32
26 2 30 32 33
27 2 32 33 35
28 2 33 35 36
29 1 37 40 43
30 2 38 39 41
31 2 39 41 42
32 3 40 43 46
33 2 41 42 44
34 2 42 44 45
35 3 43 46 49
36 2 44 45 47
37 2 45 47 48
38 1 46 49 52
39 2 47 48 50
40 2 48 50 51
41 2 50 51 53
42 2 51 53 54
43 1 55 58 61
44 2 56 57 59
45 2 57 59 60
46 3 58 61 64
47 2 59 60 62
48 2 60 62 63
49 3 61 64 67
50 2 62 63 65
51 2 63 65 66
52 1 64 67 70
53 2 65 66 68
54 2 66 68 69
55 2 68 69 71
56 2 69 71 72
57 1 73 76 79
58 2 74 75 77
59 2 75 77 78
60 3 76 79 82
61 2 77 78 80
62 2 78 80 81
63 3 79 82 85
64 2 80 81 83
65 2 81 83 84
66 1 82 85 88
67 2 83 84 86
68 2 84 86 87
69 2 86 87 89
70 2 87 89 90
71 1 91 94 97
72 2 92 93 95
73 2 93 95 96
74 3 94 97 100
75 2 95 96 98
76 2 96 98 99
77 3 97 100 103
78 2 98 99 101
79 2 99 101 102
80 1 100 103 106
81 2 101 102 104
82 2 102 104 105
83 2 104 105 107
84 2 105 107 108
85 1 109 112 115
86 2 110 111 113
87 2 111 113 114
88 3 112 115 118
89 2 113 114 116
90 2 114 116 117
91 3 115 118 121
92 2 116 117 119
93 2 117 119 120
94 1 118 121 124
95 2 119 120 122
96 2 120 122 123
97 2 122 123 125
98 2 123 125 126
99 1 127 130 133
100 2 128 129 131
101 2 129 131 132
102 3 130 133 136
103 2 131 132 134
104 2 132 134 135
105 3 133 136 139
106 2 134 135 137
107 2 135 137 138
108 1 136 139 142
109 2 137 138 140
110 2 138 140 141
111 2 140 141 143
112 2 141 143 144
113 1 145 148 151
114 2 146 147 149
115 2 147 149 150
116 3 148 151 154
117 2 149 150 152
118 2 150 152 153
119 3 151 154 157
120 2 152 153 155
121 2 153 155 156
122 1 154 157 160
123 2 155 156 158
124 2 156 158 159
125 2 158 159 161
126 2 159 161 162
127 1 163 166 169
128 2 164 165 167
129 2 165 167 168
130 3 166 169 172
131 2 167 168 170
132 2 168 170 171
133 3 169 172 175
134 2 170 171 173
135 2 171 173 174
136 1 172 175 178
137 2 173 174 176
138 2 174 176 177
139 2 176 177 179
140 2 177 179 180
141 1 181 184 187
142 2 182 183 185
143 2 183 185 186
144 3 184 187 190
145 2 185 186 188
146 2 186 188 189
147 3 187 190 193
148 2 188 189 191
149 2 189 191 192
150 1 190 193 196
151 2 191 192 194
152 2 192 194 195
153 2 194 195 197
154 2 195 197 198
155 1 199 202 205
156 2 200 201 203
157 2 201 203 204
158 3 202 205 208
159 2 203 204 206
160 2 204 206 207
161 3 205 208 211
162 2 206 207 209
163 2 207 209 210
164 1 208 211 214
165 2 209 210 212
166 2 210 212 213
167 2 212 213 215
168 2 213 215 216
169 1 217 220 223
170 2 218 219 221
171 2 219 221 222
172 3 220 223 226
173 2 221 222 224
174 2 222 224 225
175 3 223 226 229
176 2 224 225 227
177 2 225 227 228
178 1 226 229 232
179 2 227 228 230
180 2 228 230 231
181 2 230 231 233
182 2 231 233 234
183 1 235 238 241
184 2 236 237 239
185 2 237 239 240
186 3 238 241 244
187 2 239 240 242
188 2 240 242 243
189 3 241 244 247
190 2 242 243 245
191 2 243 245 246
192 1 244 247 250
193 2 245 246 248
194 2 246 248 249
195 2 248 249 251
196 2 249 251 252
197 1 253 256 259
198 2 254 255 257
199 2 255 257 258
200 3 256 259 262
201 2 257 258 260
202 2 258 260 261
203 3 259 262 265
204 2 260 261 263
205 2 261 263 264
206 1 262 265 268
207 2 263 264 266
208 2 264 266 267
209 2 266 267 269
210 2 267 269 270
211 1 271 274 277
212 2 272 273 275
213 2 273 275 276
214 3 274 277 280
215 2 275 276 278
216 2 276 278 279
217 3 277 280 283
218 2 278 279 281
219 2 279 281 282
220 1 280 283 286
221 2 281 282 284
222 2 282 284 285
223 2 284 285 287
224 2 285 287 288
225 1 289 292 295
226 2 290 291 293
227 2 291 293 294
228 3 292 295 298
229 2 293 294 296
230 2 294 296 297
231 3 295 298 301
232 2 296 297 299
233 2 297 299 300
234 1 298 301 304
235 2 299 300 302
236 2 300 302 303
237 2 302 303 305
238 2 303 305 306
239 1 307 310 313
240 2 308 309 311
241 2 309 311 312
242 3 310 313 316
243 2 311 312 314
244 2 312 314 315
245 3 313 316 319
246 2 314 315 317
247 2 315 317 318
248 1 316 319 322
249 2 317 318 320
250 2 318 320 321
251 2 320 321 323
252 2 321 323 324
253 1 325 328 331
254 2 326 327 329
255 2 327 329 330
256 3 328 331 334
257 2 329 330 332
258 2 330 332 333
259 3 331 334 337
260 2 332 333 335
261 2 333 335 336
262 1 334 337 340
263 2 335 336 338
264 2 336 338 339
265 2 338 339 341
266 2 339 341 342
267 1 343 346 349
268 2 344 345 347
269 2 345 347 348
270 3 346 349 352
271 2 347 348 350
272 2 348 350 351
273 3 349 352 355
274 2 350 351 353
275 2 351 353 354
276 1 352 355 358
277 2 353 354 356
278 2 354 356 357
279 2 356 357 359
280 2 357 359 360
281 1 361 364 367
282 2 362 363 365
283 2 363 365 366
284 3 364 367 370
285 2 365 366 368
286 2 366 368 369
287 3 367 370 373
288 2 368 369 371
289 2 369 371 372
290 1 370 373 376
291 2 371 372 374
292 2 372 374 375
293 2 374 375 377
294 2 375 377 378
295 1 379 382 385
296 2 380 381 383
297 2 381 383 384
298 3 382 385 388
299 2 383 384 386
300 2 384 386 387
301 3 385 388 391
302 2 386 387 389
303 2 387 389 390
304 1 388 391 394
305 2 389 390 392
306 2 390 392 393
307 2 392 393 395
308 2 393 395 396
309 1 397 400 403
310 2 398 399 401
311 2 399 401 402
312 3 400 403 406
313 2 401 402 404
314 2 402 404 405
315 3 403 406 409
316 2 404 405 407
317 2 405 407 408
318 1 406 409 412
319 2 407 408 410
320 2 408 410 411
321 2 410 411 413
322 2 411 413 414
323 1 415 418 421
324 2 416 417 419
325 2 417 419 420
326 3 418 421 424
327 2 419 420 422
328 2 420 422 423
329 3 421 424 427
330 2 422 423 425
331 2 423 425 426
332 1 424 427 430
333 2 425 426 428
334 2 426 428 429
335 2 428 429 431
336 2 429 431 432
337 1 433 436 439
338 2 434 435 437
339 2 435 437 438
340 3 436 439 442
341 2 437 438 440
342 2 438 440 441
343 3 439 442 445
344 2 440 441 443
345 2 441 443 444
346 1 442 445 448
347 2 443 444 446
348 2 444 446 447
349 2 446 447 449
350 2 447 449 450
351 1 451 454 457
352 2 452 453 455
353 2 453 455 456
354 3 454 457 460
355 2 455 456 458
356 2 456 458 459
357 3 457 460 463
358 2 458 459 461
359 2 459 461 462
360 1 460 463 466
361 2 461 462 464
362 2 462 464 465
363 2 464 465 467
364 2 465 467 468
365 1 469 472 475
366 2 470 471 473
367 2 471 473 474
368 3 472 475 478
369 2 473 474 476
370 2 474 476 477
371 3 475 478 481
372 2 476 477 479
373 2 477 479 480
374 1 478 481 484
375 2 479 480 482
376 2 480 482 483
377 2 482 483 485
378 2 483 485 486
379 1 487 490 493
380 2 488 489 491
381 2 489 491 492
382 3 490 493 496
383 2 491 492 494
384 2 492 494 495
385 3 493 496 499
386 2 494 495 497
387 2 495 497 498
388 1 496 499 502
389 2 497 498 500
390 2 498 500 501
391 2 500 501 503
392 2 501 503 504
393 1 505 508 511
394 2 506 507 509
395 2 507 509 510
396 3 508 511 514
397 2 509 510 512
398 2 510 512 513
399 3 511 514 517
400 2 512 513 515
401 2 513 515 516
402 1 514 517 520
403 2 515 516 518
404 2 516 518 519
405 2 518 519 521
406 2 519 521 522
407 1 523 526 529
408 2 524 525 527
409 2 525 527 528
410 3 526 529 532
411 2 527 528 530
412 2 528 530 531
413 3 529 532 535
414 2 530 531 533
415 2 531 533 534
416 1 532 535 538
417 2 533 534 536
418 2 534 536 537
419 2 536 537 539
420 2 537 539 540
421 1 541 544 547
422 2 542 543 545
423 2 543 545 546
424 3 544 547 550
425 2 545 546 548
426 2 546 548 549
427 3 547 550 553
428 2 548 549 551
429 2 549 551 552
430 1 550 553 556
431 2 551 552 554
432 2 552 554 555
433 2 554 555 557
434 2 555 557 558
435 1 559 562 565
436 2 560 561 563
437 2 561 563 564
438 3 562 565 568
439 2 563 564 566
440 2 564 566 567
441 3 565 568 571
442 2 566 567 569
443 2 567 569 570
444 1 568 571 574
445 2 569 570 572
446 2 570 572 573
447 2 572 573 575
448 2 573 575 576
449 1 577 580 583
450 2 578 579 581
451 2 579 581 582
452 3 580 583 586
453 2 581 582 584
454 2 582 584 585
455 3 583 586 589
456 2 584 585 587
457 2 585 587 588
458 1 586 589 592
459 2 587 588 590
460 2 588 590 591
461 2 590 591 593
462 2 591 593 594
463 1 595 598 601
464 2 596 597 599
465 2 597 599 600
466 3 598 601 604
467 2 599 600 602
468 2 600 602 603
469 3 601 604 607
470 2 602 603 605
471 2 603 605 606
472 1 604 607 610
473 2 605 606 608
474 2 606 608 609
475 2 608 609 611
476 2 609 611 612
477 1 613 616 619
478 2 614 615 617
479 2 615 617 618
480 3 616 619 622
481 2 617 618 620
482 2 618 620 621
483 3 619 622 625
484 2 620 621 623
485 2 621 623 624
486 1 622 625 628
487 2 623 624 626
488 2 624 626 627
489 2 626 627 629
490 2 627 629 630
491 1 631 634 637
492 2 632 633 635
493 2 633 635 636
494 3 634 637 640
495 2 635 636 638
496 2 636 638 639
497 3 637 640 643
498 2 638 639 641
499 2 639 641 642
500 1 640 643 646
501 2 641 642 644
502 2 642 644 645
503 2 644 645 647
504 2 645 647 648
505 1 649 652 655
506 2 650 651 653
507 2 651 653 654
508 3 652 655 658
509 2 653 654 656
510 2 654 656 657
511 3 655 658 661
512 2 656 657 659
513 2 657 659 660
514 1 658 661 664
515 2 659 660 662
516 2 660 662 663
517 2 662 663 665
518 2 663 665 666
519 1 667 670 673
520 2 668 669 671
521 2 669 671 672
522 3 670 673 676
523 2 671 672 674
524 2 672 674 675
525 3 673 676 679
526 2 674 675 677
527 2 675 677 678
528 1 676 679 682
529 2 677 678 680
530 2 678 680 681
531 2 680 681 683
532 2 681 683 684
533 1 685 688 691
534 2 686 687 689
535 2 687 689 690
536 3 688 691 694
537 2 689 690 692
538 2 690 692 693
539 3 691 694 697
540 2 692 693 695
541 2 693 695 696
542 1 694 697 700
543 2 695 696 698
544 2 696 698 699
545 2 698 699 701
546 2 699 701 702
547 1 703 706 709
548 2 704 705 707
549 2 705 707 708
550 3 706 709 712
551 2 707 708 710
552 2 708 710 711
553 3 709 712 715
554 2 710 711 713
555 2 711 713 714
556 1 712 715 718
557 2 713 714 716
558 2 714 716 717
559 2 716 717 719
560 2 717 719 720
561 1 721 724 727
562 2 722 723 725
563 2 723 725 726
564 3 724 727 730
565 2 725 726 728
566 2 726 728 729
567 3 727 730 733
568 2 728 729 731
569 2 729 731 732
570 1 730 733 736
571 2 731 732 734
572 2 732 734 735
573 2 734 735 737
574 2 735 737 738
575 1 739 742 745
576 2 740 741 743
577 2 741 743 744
578 3 742 745 748
579 2 743 744 746
580 2 744 746 747
581 3 745 748 751
582 2 746 747 749
583 2 747 749 750
584 1 748 751 754
585 2 749 750 752
586 2 750 752 753
587 2 752 753 755
588 2 753 755 756
589 1 757 760 763
590 2 758 759 761
591 2 759 761 762
592 3 760 763 766
593 2 761 762 764
594 2 762 764 765
595 3 763 766 769
596 2 764 765 767
597 2 765 767 768
598 1 766 769 772
599 2 767 768 770
600 2 768 770 771
601 2 770 771 773
602 2 771 773 774
603 1 775 778 781
604 2 776 777 779
605 2 777 779 780
606 3 778 781 784
607 2 779 780 782
608 2 780 782 783
609 3 781 784 787
610 2 782 783 785
611 2 783 785 786
612 1 784 787 790
613 2 785 786 788
614 2 786 788 789
615 2 788 789 791
616 2 789 791 792
617 1 793 796 799
618 2 794 795 797
619 2 795 797 798
620 3 796 799 802
621 2 797 798 800
622 2 798 800 801
623 3 799 802 805
624 2 800 801 803
625 2 801 803 804
626 1 802 805 808
627 2 803 804 806
628 2 804 806 807
629 2 806 807 809
630 2 807 809 810
631 1 811 814 817
632 2 812 813 815
633 2 813 815 816
634 3 814 817 820
635 2 815 816 818
636 2 816 818 819
637 3 817 820 823
638 2 818 819 821
639 2 819 821 822
640 1 820 823 826
641 2 821 822 824
642 2 822 824 825
643 2 824 825 827
644 2 825 827 828
645 1 829 832 835
646 2 830 831 833
647 2 831 833 834
648 3 832 835 838
649 2 833 834 836
650 2 834 836 837
651 3 835 838 841
652 2 836 837 839
653 2 837 839 840
654 1 838 841 844
655 2 839 840 842
656 2 840 842 843
657 2 842 843 845
658 2 843 845 846
659 1 847 850 853
660 2 848 849 851
661 2 849 851 852
662 3 850 853 856
663 2 851 852 854
664 2 852 854 855
665 3 853 856 859
666 2 854 855 857
667 2 855 857 858
668 1 856 859 862
669 2 857 858 860
670 2 858 860 861
671 2 860 861 863
672 2 861 863 864
673 1 865 868 871
674 2 866 867 869
675 2 867 869 870
676 3 868 871 874
677 2 869 870 872
678 2 870 872 873
679 3 871 874 877
680 2 872 873 875
681 2 873 875 876
682 1 874 877 880
683 2 875 876 878
684 2 876 878 879
685 2 878 879 881
686 2 879 881 882
687 1 883 886 889
688 2 884 885 887
689 2 885 887 888
690 3 886 889 892
691 2 887 888 890
692 2 888 890 891
693 3 889 892 895
694 2 890 891 893
695 2 891 893 894
696 1 892 895 898
697 2 893 894 896
698 2 894 896 897
699 2 896 897 899
700 2 897 899 900
701 1 901 904 907
702 2 902 903 905
703 2 903 905 906
704 3 904 907 910
705 2 905 906 908
706 2 906 908 909
707 3 907 910 913
708 2 908 909 911
709 2 909 911 912
710 1 910 913 916
711 2 911 912 914
712 2 912 914 915
713 2 914 915 917
714 2 915 917 918
715 1 919 922 925
716 2 920 921 923
717 2 921 923 924
718 3 922 925 928
719 2 923 924 926
720 2 924 926 927
721 3 925 928 931
722 2 926 927 929
723 2 927 929 930
724 1 928 931 934
725 2 929 930 932
726 2 930 932 933
727 2 932 933 935
728 2 933 935 936
729 1 937 940 943
730 2 938 939 941
731 2 939 941 942
732 3 940 943 946
733 2 941 942 944
734 2 942 944 945
735 3 943 946 949
736 2 944 945 947
737 2 945 947 948
738 1 946 949 952
739 2 947 948 950
740 2 948 950 951
741 2 950 951 953
742 2 951 953 954
743 1 955 958 961
744 2 956 957 959
745 2 957 959 960
746 3 958 961 964
747 2 959 960 962
748 2 960 962 963
749 3 961 964 967
750 2 962 963 965
751 2 963 965 966
752 1 964 967 970
753 2 965 966 968
754 2 966 968 969
755 2 968 969 971
756 2 969 971 972
757 1 973 976 979
758 2 974 975 977
759 2 975 977 978
760 3 976 979 982
761 2 977 978 980
762 2 978 980 981
763 3 979 982 985
764 2 980 981 983
765 2 981 983 984
766 1 982 985 988
767 2 983 984 986
768 2 984 986 987
769 2 986 987 989
770 2 987 989 990
771 1 991 994 997
772 2 992 993 995
773 2 993 995 996
774 3 994 997 1000
775 2 995 996 998
776 2 996 998 999
777 3 997 1000 1003
778 2 998 999 1001
779 2 999 1001 1002
780 1 1000 1003 1006
781 2 1001 1002 1004
782 2 1002 1004 1005
783 2 1004 1005 1007
784 2 1005 1007 1008
785 1 1009 1012 1015
786 2 1010 1011 1013
787 2 1011 1013 1014
788 3 1012 1015 1018
789 2 1013 1014 1016
790 2 1014 1016 1017
791 3 1015 1018 1021
792 2 1016 1017 1019
793 2 1017 1019 1020
794 1 1018 1021 1024
795 2 1019 1020 1022
796 2 1020 1022 1023
797 2 1022 1023 1025
798 2 1023 1025 1026
799 1 1027 1030 1033
800 2 1028 1029 1031
801 2 1029 1031 1032
802 3 1030 1033 1036
803 2 1031 1032 1034
804 2 1032 1034 1035
805 3 1033 1036 1039
806 2 1034 1035 1037
807 2 1035 1037 1038
808 1 1036 1039 1042
809 2 1037 1038 1040
810 2 1038 1040 1041
811 2 1040 1041 1043
812 2 1041 1043 1044
813 1 1045 1048 1051
814 2 1046 1047 1049
815 2 1047 1049 1050
816 3 1048 1051 1054
817 2 1049 1050 1052
818 2 1050 1052 1053
819 3 1051 1054 1057
820 2 1052 1053 1055
821 2 1053 1055 1056
822 1 1054 1057 1060
823 2 1055 1056 1058
824 2 1056 1058 1059
825 2 1058 1059 1061
826 2 1059 1061 1062
827 1 1063 1066 1069
828 2 1064 1065 1067
829 2 1065 1067 1068
830 3 1066 1069 1072
831 2 1067 1068 1070
832 2 1068 1070 1071
833 3 1069 1072 1075
834 2 1070 1071 1073
835 2 1071 1073 1074
836 1 1072 1075 1078
837 2 1073 1074 1076
838 2 1074 1076 1077
839 2 1076 1077 1079
840 2 1077 1079 1080
841 1 1081 1084 1087
842 2 1082 1083 1085
843 2 1083 1085 1086
844 3 1084 1087 1090
845 2 1085 1086 1088
846 2 1086 1088 1089
847 3 1087 1090 1093
848 2 1088 1089 1091
849 2 1089 1091 1092
850 1 1090 1093 1096
851 2 1091 1092 1094
852 2 1092 1094 1095
853 2 1094 1095 1097
854 2 1095 1097 1098
855 1 1099 1102 1105
856 2 1100 1101 1103
857 2 1101 1103 1104
858 3 1102 1105 1108
859 2 1103 1104 1106
860 2 1104 1106 1107
861 3 1105 1108 1111
862 2 1106 1107 1109
863 2 1107 1109 1110
864 1 1108 1111 1114
865 2 1109 1110 1112
866 2 1110 1112 1113
867 2 1112 1113 1115
868 2 1113 1115 1116
869 1 1117 1120 1123
870 2 1118 1119 1121
871 2 1119 1121 1122
872 3 1120 1123 1126
873 2 1121 1122 1124
874 2 1122 1124 1125
875 3 1123 1126 1129
876 2 1124 1125 1127
877 2 1125 1127 1128
878 1 1126 1129 1132
879 2 1127 1128 1130
880 2 1128 1130 1131
881 2 1130 1131 1133
882 2 1131 1133 1134
883 1 1135 1138 1141
884 2 1136 1137 1139
885 2 1137 1139 1140
886 3 1138 1141 1144
887 2 1139 1140 1142
888 2 1140 1142 1143
889 3 1141 1144 1147
890 2 1142 1143 1145
891 2 1143 1145 1146
892 1 1144 1147 1150
893 2 1145 1146 1148
894 2 1146 1148 1149
895 2 1148 1149 1151
896 2 1149 1151 1152
897 1 1153 1156 1159
898 2 1154 1155 1157
899 2 1155 1157 1158
900 3 1156 1159 1162
901 2 1157 1158 1160
902 2 1158 1160 1161
903 3 1159 1162 1165
904 2 1160 1161 1163
905 2 1161 1163 1164
906 1 1162 1165 1168
907 2 1163 1164 1166
908 2 1164 1166 1167
909 2 1166 1167 1169
910 2 1167 1169 1170
911 1 1171 1174 1177
912 2 1172 1173 1175
913 2 1173 1175 1176
914 3 1174 1177 1180
915 2 1175 1176 1178
916 2 1176 1178 1179
917 3 1177 1180 1183
918 2 1178 1179 1181
919 2 1179 1181 1182
920 1 1180 1183 1186
921 2 1181 1182 1184
922 2 1182 1184 1185
923 2 1184 1185 1187
924 2 1185 1187 1188
925 1 1189 1192 1195
926 2 1190 1191 1193
927 2 1191 1193 1194
928 3 1192 1195 1198
929 2 1193 1194 1196
930 2 1194 1196 1197
931 3 1195 1198 1201
932 2 1196 1197 1199
933 2 1197 1199 1200
934 1 1198 1201 1204
935 2 1199 1200 1202
936 2 1200 1202 1203
937 2 1202 1203 1205
938 2 1203 1205 1206
939 1 1207 1210 1213
940 2 1208 1209 1211
941 2 1209 1211 1212
942 3 1210 1213 1216
943 2 1211 1212 1214
944 2 1212 1214 1215
945 3 1213 1216 1219
946 2 1214 1215 1217
947 2 1215 1217 1218
948 1 1216 1219 1222
949 2 1217 1218 1220
950 2 1218 1220 1221
951 2 1220 1221 1223
952 2 1221 1223 1224
953 1 1225 1228 1231
954 2 1226 1227 1229
955 2 1227 1229 1230
956 3 1228 1231 1234
957 2 1229 1230 1232
958 2 1230 1232 1233
959 3 1231 1234 1237
960 2 1232 1233 1235
961 2 1233 1235 1236
962 1 1234 1237 1240
963 2 1235 1236 1238
964 2 1236 1238 1239
965 2 1238 1239 1241
966 2 1239 1241 1242
967 1 1243 1246 1249
968 2 1244 1245 1247
969 2 1245 1247 1248
970 3 1246 1249 1252
971 2 1247 1248 1250
972 2 1248 1250 1251
973 3 1249 1252 1255
974 2 1250 1251 1253
975 2 1251 1253 1254
976 1 1252 1255 1258
977 2 1253 1254 1256
978 2 1254 1256 1257
979 2 1256 1257 1259
980 2 1257 1259 1260
981 1 1261 1264 1267
982 2 1262 1263 1265
983 2 1263 1265 1266
984 3 1264 1267 1270
985 2 1265 1266 1268
986 2 1266 1268 1269
987 3 1267 1270 1273
988 2 1268 1269 1271
989 2 1269 1271 1272
990 1 1270 1273 1276
991 2 1271 1272 1274
992 2 1272 1274 1275
993 2 1274 1275 1277
994 2 1275 1277 1278
995 1 1279 1282 1285
996 2 1280 1281 1283
997 2 1281 1283 1284
998 3 1282 1285 1288
999 2 1283 1284 1286
1000 2 1284 1286 1287
1001 3 1285 1288 1291
1002 2 1286 1287 1289
1003 2 1287 1289 1290
1004 1 1288 1291 1294
1005 2 1289 1290 1292
1006 2 1290 1292 1293
1007 2 1292 1293 1295
1008 2 1293 1295 1296
1009 1 1297 1300 1303
1010 2 1298 1299 1301
1011 2 1299 1301 1302
1012 3 1300 1303 1306
1013 2 1301 1302 1304
1014 2 1302 1304 1305
1015 3 1303 1306 1309
1016 2 1304 1305 1307
1017 2 1305 1307 1308
1018 1 1306 1309 1312
1019 2 1307 1308 1310
1020 2 1308 1310 1311
1021 2 1310 1311 1313
1022 2 1311 1313 1314
1023 1 1315 1318 1321
1024 2 1316 1317 1319
1025 2 1317 1319 1320
1026 3 1318 1321 1324
1027 2 1319 1320 1322
1028 2 1320 1322 1323
1029 3 1321 1324 1327
1030 2 1322 1323 1325
1031 2 1323 1325 1326
1032 1 1324 1327 1330
1033 2 1325 1326 1328
1034 2 1326 1328 1329
1035 2 1328 1329 1331
1036 2 1329 1331 1332
1037 1 1333 1336 1339
1038 2 1334 1335 1337
1039 2 1335 1337 1338
1040 3 1336 1339 1342
1041 2 1337 1338 1340
1042 2 1338 1340 1341
1043 3 1339 1342 1345
1044 2 1340 1341 1343
1045 2 1341 1343 1344
1046 1 1342 1345 1348
1047 2 1343 1344 1346
1048 2 1344 1346 1347
1049 2 1346 1347 1349
1050 2 1347 1349 1350
1051 1 1351 1354 1357
1052 2 1352 1353 1355
1053 2 1353 1355 1356
1054 3 1354 1357 1360
1055 2 1355 1356 1358
1056 2 1356 1358 1359
1057 3 1357 1360 1363
1058 2 1358 1359 1361
1059 2 1359 1361 1362
1060 1 1360 1363 1366
1061 2 1361 1362 1364
1062 2 1362 1364 1365
1063 2 1364 1365 1367
1064 2 1365 1367 1368
1065 1 1369 1372 1375
1066 2 1370 1371 1373
1067 2 1371 1373 1374
1068 3 1372 1375 1378
1069 2 1373 1374 1376
1070 2 1374 1376 1377
1071 3 1375 1378 1381
1072 2 1376 1377 1379
1073 2 1377 1379 1380
1074 1 1378 1381 1384
1075 2 1379 1380 1382
1076 2 1380 1382 1383
1077 2 1382 1383 1385
1078 2 1383 1385 1386
1079 1 1387 1390 1393
1080 2 1388 1389 1391
1081 2 1389 1391 1392
1082 3 1390 1393 1396
1083 2 1391 1392 1394
1084 2 1392 1394 1395
1085 3 1393 1396 1399
1086 2 1394 1395 1397
1087 2 1395 1397 1398
1088 1 1396 1399 1402
1089 2 1397 1398 1400
1090 2 1398 1400 1401
1091 2 1400 1401 1403
1092 2 1401 1403 1404
1093 1 1405 1408 1411
1094 2 1406 1407 1409
1095 2 1407 1409 1410
1096 3 1408 1411 1414
1097 2 1409 1410 1412
1098 2 1410 1412 1413
1099 3 1411 1414 1417
1100 2 1412 1413 1415
1101 2 1413 1415 1416
1102 1 1414 1417 1420
1103 2 1415 1416 1418
1104 2 1416 1418 1419
1105 2 1418 1419 1421
1106 2 1419 1421 1422
1107 1 1423 1426 1429
1108 2 1424 1425 1427
1109 2 1425 1427 1428
1110 3 1426 1429 1432
1111 2 1427 1428 1430
1112 2 1428 1430 1431
1113 3 1429 1432 1435
1114 2 1430 1431 1433
1115 2 1431 1433 1434
1116 1 1432 1435 1438
1117 2 1433 1434 1436
1118 2 1434 1436 1437
1119 2 1436 1437 1439
1120 2 1437 1439 1440
1121 1 1441 1444 1447
1122 2 1442 1443 1445
1123 2 1443 1445 1446
1124 3 1444 1447 1450
1125 2 1445 1446 1448
1126 2 1446 1448 1449
1127 3 1447 1450 1453
1128 2 1448 1449 1451
1129 2 1449 1451 1452
1130 1 1450 1453 1456
1131 2 1451 1452 1454
1132 2 1452 1454 1455
1133 2 1454 1455 1457
1134 2 1455 1457 1458
1135 1 1459 1462 1465
1136 2 1460 1461 1463
1137 2 1461 1463 1464
1138 3 1462 1465 1468
1139 2 1463 1464 1466
1140 2 1464 1466 1467
1141 3 1465 1468 1471
1142 2 1466 1467 1469
1143 2 1467 1469 1470
1144 1 1468 1471 1474
1145 2 1469 1470 1472
1146 2 1470 1472 1473
1147 2 1472 1473 1475
1148 2 1473 1475 1476
1149 1 1477 1480 1483
1150 2 1478 1479 1481
1151 2 1479 1481 1482
1152 3 1480 1483 1486
1153 2 1481 1482 1484
1154 2 1482 1484 1485
1155 3 1483 1486 1489
1156 2 1484 1485 1487
1157 2 1485 1487 1488
1158 1 1486 1489 1492
1159 2 1487 1488 1490
1160 2 1488 1490 1491
1161 2 1490 1491 1493
1162 2 1491 1493 1494
1163 1 1495 1498 1501
1164 2 1496 1497 1499
1165 2 1497 1499 1500
1166 3 1498 1501 1504
1167 2 1499 1500 1502
1168 2 1500 1502 1503
1169 3 1501 1504 1507
1170 2 1502 1503 1505
1171 2 1503 1505 1506
1172 1 1504 1507 1510
1173 2 1505 1506 1508
1174 2 1506 1508 1509
1175 2 1508 1509 1511
1176 2 1509 1511 1512
1177 1 1513 1516 1519
1178 2 1514 1515 1517
1179 2 1515 1517 1518
1180 3 1516 1519 1522
1181 2 1517 1518 1520
1182 2 1518 1520 1521
1183 3 1519 1522 1525
1184 2 1520 1521 1523
1185 2 1521 1523 1524
1186 1 1522 1525 1528
1187 2 1523 1524 1526
1188 2 1524 1526 1527
1189 2 1526 1527 1529
1190 2 1527 1529 1530
1191 1 1531 1534 1537
1192 2 1532 1533 1535
1193 2 1533 1535 1536
1194 3 1534 1537 1540
1195 2 1535 1536 1538
1196 2 1536 1538 1539
1197 3 1537 1540 1543
1198 2 1538 1539 1541
1199 2 1539 1541 1542
1200 1 1540 1543 1546
1201 2 1541 1542 1544
1202 2 1542 1544 1545
1203 2 1544 1545 1547
1204 2 1545 1547 1548
1205 1 1549 1552 1555
1206 2 1550 1551 1553
1207 2 1551 1553 1554
1208 3 1552 1555 1558
1209 2 1553 1554 1556
1210 2 1554 1556 1557
1211 3 1555 1558 1561
1212 2 1556 1557 1559
1213 2 1557 1559 1560
1214 1 1558 1561 1564
1215 2 1559 1560 1562
1216 2 1560 1562 1563
1217 2 1562 1563 1565
1218 2 1563 1565 1566
1219 1 1567 1570 1573
1220 2 1568 1569 1571
1221 2 1569 1571 1572
1222 3 1570 1573 1576
1223 2 1571 1572 1574
1224 2 1572 1574 1575
1225 3 1573 1576 1579
1226 2 1574 1575 1577
1227 2 1575 1577 1578
1228 1 1576 1579 1582
1229 2 1577 1578 1580
1230 2 1578 1580 1581
1231 2 1580 1581 1583
1232 2 1581 1583 1584
1233 1 1585 1588 1591
1234 2 1586 1587 1589
1235 2 1587 1589 1590
1236 3 1588 1591 1594
1237 2 1589 1590 1592
1238 2 1590 1592 1593
1239 3 1591 1594 1597
1240 2 1592 1593 1595
1241 2 1593 1595 1596
1242 1 1594 1597 1600
1243 2 1595 1596 1598
1244 2 1596 1598 1599
1245 2 1598 1599 1601
1246 2 1599 1601 1602
1247 1 1603 1606 1609
1248 2 1604 1605 1607
1249 2 1605 1607 1608
1250 3 1606 1609 1612
1251 2 1607 1608 1610
1252 2 1608 1610 1611
1253 3 1609 1612 1615
1254 2 1610 1611 1613
1255 2 1611 1613 1614
1256 1 1612 1615 1618
1257 2 1613 1614 1616
1258 2 1614 1616 1617
1259 2 1616 1617 1619
1260 2 1617 1619 1620
1261 1 1621 1624 1627
1262 2 1622 1623 1625
1263 2 1623 1625 1626
1264 3 1624 1627 1630
1265 2 1625 1626 1628
1266 2 1626 1628 1629
1267 3 1627 1630 1633
1268 2 1628 1629 1631
1269 2 1629 1631 1632
1270 1 1630 1633 1636
1271 2 1631 1632 1634
1272 2 1632 1634 1635
1273 2 1634 1635 1637
1274 2 1635 1637 1638
1275 1 1639 1642 1645
1276 2 1640 1641 1643
1277 2 1641 1643 1644
1278 3 1642 1645 1648
1279 2 1643 1644 1646
1280 2 1644 1646 1647
1281 3 1645 1648 1651
1282 2 1646 1647 1649
1283 2 1647 1649 1650
1284 1 1648 1651 1654
1285 2 1649 1650 1652
1286 2 1650 1652 1653
1287 2 1652 1653 1655
1288 2 1653 1655 1656
1289 1 1657 1660 1663
1290 2 1658 1659 1661
1291 2 1659 1661 1662
1292 3 1660 1663 1666
1293 2 1661 1662 1664
1294 2 1662 1664 1665
1295 3 1663 1666 1669
1296 2 1664 1665 1667
1297 2 1665 1667 1668
1298 1 1666 1669 1672
1299 2 1667 1668 1670
1300 2 1668 1670 1671
1301 2 1670 1671 1673
1302 2 1671 1673 1674
1303 1 1675 1678 1681
1304 2 1676 1677 1679
1305 2 1677 1679 1680
1306 3 1678 1681 1684
1307 2 1679 1680 1682
1308 2 1680 1682 1683
1309 3 1681 1684 1687
1310 2 1682 1683 1685
1311 2 1683 1685 1686
1312 1 1684 1687 1690
1313 2 1685 1686 1688
1314 2 1686 1688 1689
1315 2 1688 1689 1691
1316 2 1689 1691 1692
1317 1 1693 1696 1699
1318 2 1694 1695 1697
1319 2 1695 1697 1698
1320 3 1696 1699 1702
1321 2 1697 1698 1700
1322 2 1698 1700 1701
1323 3 1699 1702 1705
1324 2 1700 1701 1703
1325 2 1701 1703 1704
1326 1 1702 1705 1708
1327 2 1703 1704 1706
1328 2 1704 1706 1707
1329 2 1706 1707 1709
1330 2 1707 1709 1710
1331 1 1711 1714 1717
1332 2 1712 1713 1715
1333 2 1713 1715 1716
1334 3 1714 1717 1720
1335 2 1715 1716 1718
1336 2 1716 1718 1719
1337 3 1717 1720 1723
1338 2 1718 1719 1721
1339 2 1719 1721 1722
1340 1 1720 1723 1726
1341 2 1721 1722 1724
1342 2 1722 1724 1725
1343 2 1724 1725 1727
1344 2 1725 1727 1728
1345 1 1729 1732 1735
1346 2 1730 1731 1733
1347 2 1731 1733 1734
1348 3 1732 1735 1738
1349 2 1733 1734 1736
1350 2 1734 1736 1737
1351 3 1735 1738 1741
1352 2 1736 1737 1739
1353 2 1737 1739 1740
1354 1 1738 1741 1744
1355 2 1739 1740 1742
1356 2 1740 1742 1743
1357 2 1742 1743 1745
1358 2 1743 1745 1746
1359 1 1747 1750 1753
1360 2 1748 1749 1751
1361 2 1749 1751 1752
1362 3 1750 1753 1756
1363 2 1751 1752 1754
1364 2 1752 1754 1755
1365 3 1753 1756 1759
1366 2 1754 1755 1757
1367 2 1755 1757 1758
1368 1 1756 1759 1762
1369 2 1757 1758 1760
1370 2 1758 1760 1761
1371 2 1760 1761 1763
1372 2 1761 1763 1764
1373 1 1765 1768 1771
1374 2 1766 1767 1769
1375 2 1767 1769 1770
1376 3 1768 1771 1774
1377 2 1769 1770 1772
1378 2 1770 1772 1773
1379 3 1771 1774 1777
1380 2 1772 1773 1775
1381 2 1773 1775 1776
1382 1 1774 1777 1780
1383 2 1775 1776 1778
1384 2 1776 1778 1779
1385 2 1778 1779 1781
1386 2 1779 1781 1782
1387 1 1783 1786 1789
1388 2 1784 1785 1787
1389 2 1785 1787 1788
1390 3 1786 1789 1792
1391 2 1787 1788 1790
1392 2 1788 1790 1791
1393 3 1789 1792 1795
1394 2 1790 1791 1793
1395 2 1791 1793 1794
1396 1 1792 1795 1798
1397 2 1793 1794 1796
1398 2 1794 1796 1797
1399 2 1796 1797 1799
1400 2 1797 1799 1800
1401 1 1801 1804 1807
1402 2 1802 1803 1805
1403 2 1803 1805 1806
1404 3 1804 1807 1810
1405 2 1805 1806 1808
1406 2 1806 1808 1809
1407 3 1807 1810 1813
1408 2 1808 1809 1811
1409 2 1809 1811 1812
1410 1 1810 1813 1816
1411 2 1811 1812 1814
1412 2 1812 1814 1815
1413 2 1814 1815 1817
1414 2 1815 1817 1818
1415 1 1819 1822 1825
1416 2 1820 1821 1823
1417 2 1821 1823 1824
1418 3 1822 1825 1828
1419 2 1823 1824 1826
1420 2 1824 1826 1827
1421 3 1825 1828 1831
1422 2 1826 1827 1829
1423 2 1827 1829 1830
1424 1 1828 1831 1834
1425 2 1829 1830 1832
1426 2 1830 1832 1833
1427 2 1832 1833 1835
1428 2 1833 1835 1836
1429 1 1837 1840 1843
1430 2 1838 1839 1841
1431 2 1839 1841 1842
1432 3 1840 1843 1846
1433 2 1841 1842 1844
1434 2 1842 1844 1845
1435 3 1843 1846 1849
1436 2 1844 1845 1847
1437 2 1845 1847 1848
1438 1 1846 1849 1852
1439 2 1847 1848 1850
1440 2 1848 1850 1851
1441 2 1850 1851 1853
1442 2 1851 1853 1854
1443 1 1855 1858 1861
1444 2 1856 1857 1859
1445 2 1857 1859 1860
1446 3 1858 1861 1864
1447 2 1859 1860 1862
1448 2 1860 1862 1863
1449 3 1861 1864 1867
1450 2 1862 1863 1865
1451 2 1863 1865 1866
1452 1 1864 1867 1870
1453 2 1865 1866 1868
1454 2 1866 1868 1869
1455 2 1868 1869 1871
1456 2 1869 1871 1872
1457 1 1873 1876 1879
1458 2 1874 1875 1877
1459 2 1875 1877 1878
1460 3 1876 1879 1882
1461 2 1877 1878 1880
1462 2 1878 1880 1881
1463 3 1879 1882 1885
1464 2 1880 1881 1883
1465 2 1881 1883 1884
1466 1 1882 1885 1888
1467 2 1883 1884 1886
1468 2 1884 1886 1887
1469 2 1886 1887 1889
1470 2 1887 1889 1890
1471 1 1891 1894 1897
1472 2 1892 1893 1895
1473 2 1893 1895 1896
1474 3 1894 1897 1900
1475 2 1895 1896 1898
1476 2 1896 1898 1899
1477 3 1897 1900 1903
1478 2 1898 1899 1901
1479 2 1899 1901 1902
1480 1 1900 1903 1906
1481 2 1901 1902 1904
1482 2 1902 1904 1905
1483 2 1904 1905 1907
1484 2 1905 1907 1908
1485 1 1909 1912 1915
1486 2 1910 1911 1913
1487 2 1911 1913 1914
1488 3 1912 1915 1918
1489 2 1913 1914 1916
1490 2 1914 1916 1917
1491 3 1915 1918 1921
1492 2 1916 1917 1919
1493 2 1917 1919 1920
1494 1 1918 1921 1924
1495 2 1919 1920 1922
1496 2 1920 1922 1923
1497 2 1922 1923 1925
1498 2 1923 1925 1926
1499 1 1927 1930 1933
1500 2 1928 1929 1931
1501 2 1929 1931 1932
1502 3 1930 1933 1936
1503 2 1931 1932 1934
1504 2 1932 1934 1935
1505 3 1933 1936 1939
1506 2 1934 1935 1937
1507 2 1935 1937 1938
1508 1 1936 1939 1942
1509 2 1937 1938 1940
1510 2 1938 1940 1941
1511 2 1940 1941 1943
1512 2 1941 1943 1944
1513 1 1945 1948 1951
1514 2 1946 1947 1949
1515 2 1947 1949 1950
1516 3 1948 1951 1954
1517 2 1949 1950 1952
1518 2 1950 1952 1953
1519 3 1951 1954 1957
1520 2 1952 1953 1955
1521 2 1953 1955 1956
1522 1 1954 1957 1960
1523 2 1955 1956 1958
1524 2 1956 1958 1959
1525 2 1958 1959 1961
1526 2 1959 1961 1962
1527 1 1963 1966 1969
1528 2 1964 1965 1967
1529 2 1965 1967 1968
1530 3 1966 1969 1972
1531 2 1967 1968 1970
1532 2 1968 1970 1971
1533 3 1969 1972 1975
1534 2 1970 1971 1973
1535 2 1971 1973 1974
1536 1 1972 1975 1978
1537 2 1973 1974 1976
1538 2 1974 1976 1977
1539 2 1976 1977 1979
1540 2 1977 1979 1980
1541 1 1981 1984 1987
1542 2 1982 1983 1985
1543 2 1983 1985 1986
1544 3 1984 1987 1990
1545 2 1985 1986 1988
1546 2 1986 1988 1989
1547 3 1987 1990 1993
1548 2 1988 1989 1991
1549 2 1989 1991 1992
1550 1 1990 1993 1996
1551 2 1991 1992 1994
1552 2 1992 1994 1995
1553 2 1994 1995 1997
1554 2 1995 1997 1998
1555 1 1999 2002 2005
1556 2 2000 2001 2003
1557 2 2001 2003 2004
1558 3 2002 2005 2008
1559 2 2003 2004 2006
1560 2 2004 2006 2007
1561 3 2005 2008 2011
1562 2 2006 2007 2009
1563 2 2007 2009 2010
1564 1 2008 2011 2014
1565 2 2009 2010 2012
1566 2 2010 2012 2013
1567 2 2012 2013 2015
1568 2 2013 2015 2016
1569 1 2017 2020 2023
1570 2 2018 2019 2021
1571 2 2019 2021 2022
1572 3 2020 2023 2026
1573 2 2021 2022 2024
1574 2 2022 2024 2025
1575 3 2023 2026 2029
1576 2 2024 2025 2027
1577 2 2025 2027 2028
1578 1 2026 2029 2032
1579 2 2027 2028 2030
1580 2 2028 2030 2031
1581 2 2030 2031 2033
1582 2 2031 2033 2034
1583 1 2035 2038 2041
1584 2 2036 2037 2039
1585 2 2037 2039 2040
1586 3 2038 2041 2044
1587 2 2039 2040 2042
1588 2 2040 2042 2043
1589 3 2041 2044 2047
1590 2 2042 2043 2045
1591 2 2043 2045 2046
1592 1 2044 2047 2050
1593 2 2045 2046 2048
1594 2 2046 2048 2049
1595 2 2048 2049 2051
1596 2 2049 2051 2052
1597 1 2053 2056 2059
1598 2 2054 2055 2057
1599 2 2055 2057 2058
1600 3 2056 2059 2062
1601 2 2057 2058 2060
1602 2 2058 2060 2061
1603 3 2059 2062 2065
1604 2 2060 2061 2063
1605 2 2061 2063 2064
1606 1 2062 2065 2068
1607 2 2063 2064 2066
1608 2 2064 2066 2067
1609 2 2066 2067 2069
1610 2 2067 2069 2070
1611 1 2071 2074 2077
1612 2 2072 2073 2075
1613 2 2073 2075 2076
1614 3 2074 2077 2080
1615 2 2075 2076 2078
1616 2 2076 2078 2079
1617 3 2077 2080 2083
1618 2 2078 2079 2081
1619 2 2079 2081 2082
1620 1 2080 2083 2086
1621 2 2081 2082 2084
1622 2 2082 2084 2085
1623 2 2084 2085 2087
1624 2 2085 2087 2088
1625 1 2089 2092 2095
1626 2 2090 2091 2093
1627 2 2091 2093 2094
1628 3 2092 2095 2098
1629 2 2093 2094 2096
1630 2 2094 2096 2097
1631 3 2095 2098 2101
1632 2 2096 2097 2099
1633 2 2097 2099 2100
1634 1 2098 2101 2104
1635 2 2099 2100 2102
1636 2 2100 2102 2103
1637 2 2102 2103 2105
1638 2 2103 2105 2106
1639 1 2107 2110 2113
1640 2 2108 2109 2111
1641 2 2109 2111 2112
1642 3 2110 2113 2116
1643 2 2111 2112 2114
1644 2 2112 2114 2115
1645 3 2113 2116 2119
1646 2 2114 2115 2117
1647 2 2115 2117 2118
1648 1 2116 2119 2122
1649 2 2117 2118 2120
1650 2 2118 2120 2121
1651 2 2120 2121 2123
1652 2 2121 2123 2124
1653 1 2125 2128 2131
1654 2 2126 2127 2129
1655 2 2127 2129 2130
1656 3 2128 2131 2134
1657 2 2129 2130 2132
1658 2 2130 2132 2133
1659 3 2131 2134 2137
1660 2 2132 2133 2135
1661 2 2133 2135 2136
1662 1 2134 2137 2140
1663 2 2135 2136 2138
1664 2 2136 2138 2139
1665 2 2138 2139 2141
1666 2 2139 2141 2142
1667 1 2143 2146 2149
1668 2 2144 2145 2147
1669 2 2145 2147 2148
1670 3 2146 2149 2152
1671 2 2147 2148 2150
1672 2 2148 2150 2151
1673 3 2149 2152 2155
1674 2 2150 2151 2153
1675 2 2151 2153 2154
1676 1 2152 2155 2158
1677 2 2153 2154 2156
1678 2 2154 2156 2157
1679 2 2156 2157 2159
1680 2 2157 2159 2160
1681 1 2161 2164 2167
1682 2 2162 2163 2165
1683 2 2163 2165 2166
1684 3 2164 2167 2170
1685 2 2165 2166 2168
1686 2 2166 2168 2169
1687 3 2167 2170 2173
1688 2 2168 2169 2171
1689 2 2169 2171 2172
1690 1 2170 2173 2176
1691 2 2171 2172 2174
1692 2 2172 2174 2175
1693 2 2174 2175 2177
1694 2 2175 2177 2178
1695 1 2179 2182 2185
1696 2 2180 2181 2183
1697 2 2181 2183 2184
1698 3 2182 2185 2188
1699 2 2183 2184 2186
1700 2 2184 2186 2187
1701 3 2185 2188 2191
1702 2 2186 2187 2189
1703 2 2187 2189 2190
1704 1 2188 2191 2194
1705 2 2189 2190 2192
1706 2 2190 2192 2193
1707 2 2192 2193 2195
1708 2 2193 2195 2196
1709 1 2197 2200 2203
1710 2 2198 2199 2201
1711 2 2199 2201 2202
1712 3 2200 2203 2206
1713 2 2201 2202 2204
1714 2 2202 2204 2205
1715 3 2203 2206 2209
1716 2 2204 2205 2207
1717 2 2205 2207 2208
1718 1 2206 2209 2212
1719 2 2207 2208 2210
1720 2 2208 2210 2211
1721 2 2210 2211 2213
1722 2 2211 2213 2214
1723 1 2215 2218 2221
1724 2 2216 2217 2219
1725 2 2217 2219 2220
1726 3 2218 2221 2224
1727 2 2219 2220 2222
1728 2 2220 2222 2223
1729 3 2221 2224 2227
1730 2 2222 2223 2225
1731 2 2223 2225 2226
1732 1 2224 2227 2230
1733 2 2225 2226 2228
1734 2 2226 2228 2229
1735 2 2228 2229 2231
1736 2 2229 2231 2232
1737 1 2233 2236 2239
1738 2 2234 2235 2237
1739 2 2235 2237 2238
1740 3 2236 2239 2242
1741 2 2237 2238 2240
1742 2 2238 2240 2241
1743 3 2239 2242 2245
1744 2 2240 2241 2243
1745 2 2241 2243 2244
1746 1 2242 2245 2248
1747 2 2243 2244 2246
1748 2 2244 2246 2247
1749 2 2246 2247 2249
1750 2 2247 2249 2250
1751 1 2251 2254 2257
1752 2 2252 2253 2255
1753 2 2253 2255 2256
1754 3 2254 2257 2260
1755 2 2255 2256 2258
1756 2 2256 2258 2259
1757 3 2257 2260 2263
1758 2 2258 2259 2261
1759 2 2259 2261 2262
1760 1 2260 2263 2266
1761 2 2261 2262 2264
1762 2 2262 2264 2265
1763 2 2264 2265 2267
1764 2 2265 2267 2268
1765 1 2269 2272 2275
1766 2 2270 2271 2273
1767 2 2271 2273 2274
1768 3 2272 2275 2278
1769 2 2273 2274 2276
1770 2 2274 2276 2277
1771 3 2275 2278 2281
1772 2 2276 2277 2279
1773 2 2277 2279 2280
1774 1 2278 2281 2284
1775 2 2279 2280 2282
1776 2 2280 2282 2283
1777 2 2282 2283 2285
1778 2 2283 2285 2286
1779 1 2287 2290 2293
1780 2 2288 2289 2291
1781 2 2289 2291 2292
1782 3 2290 2293 2296
1783 2 2291 2292 2294
1784 2 2292 2294 2295
1785 3 2293 2296 2299
1786 2 2294 2295 2297
1787 2 2295 2297 2298
1788 1 2296 2299 2302
1789 2 2297 2298 2300
1790 2 2298 2300 2301
1791 2 2300 2301 2303
1792 2 2301 2303 2304
1793 1 2305 2308 2311
1794 2 2306 2307 2309
1795 2 2307 2309 2310
1796 3 2308 2311 2314
1797 2 2309 2310 2312
1798 2 2310 2312 2313
1799 3 2311 2314 2317
1800 2 2312 2313 2315
1801 2 2313 2315 2316
1802 1 2314 2317 2320
1803 2 2315 2316 2318
1804 2 2316 2318 2319
1805 2 2318 2319 2321
1806 2 2319 2321 2322
1807 1 2323 2326 2329
1808 2 2324 2325 2327
1809 2 2325 2327 2328
1810 3 2326 2329 2332
1811 2 2327 2328 2330
1812 2 2328 2330 2331
1813 3 2329 2332 2335
1814 2 2330 2331 2333
1815 2 2331 2333 2334
1816 1 2332 2335 2338
1817 2 2333 2334 2336
1818 2 2334 2336 2337
1819 2 2336 2337 2339
1820 2 2337 2339 2340
1821 1 2341 2344 2347
1822 2 2342 2343 2345
1823 2 2343 2345 2346
1824 3 2344 2347 2350
1825 2 2345 2346 2348
1826 2 2346 2348 2349
1827 3 2347 2350 2353
1828 2 2348 2349 2351
1829 2 2349 2351 2352
1830 1 2350 2353 2356
1831 2 2351 2352 2354
1832 2 2352 2354 2355
1833 2 2354 2355 2357
1834 2 2355 2357 2358
1835 1 2359 2362 2365
1836 2 2360 2361 2363
1837 2 2361 2363 2364
1838 3 2362 2365 2368
1839 2 2363 2364 2366
1840 2 2364 2366 2367
1841 3 2365 2368 2371
1842 2 2366 2367 2369
1843 2 2367 2369 2370
1844 1 2368 2371 2374
1845 2 2369 2370 2372
1846 2 2370 2372 2373
1847 2 2372 2373 2375
1848 2 2373 2375 2376
1849 1 2377 2380 2383
1850 2 2378 2379 2381
1851 2 2379 2381 2382
1852 3 2380 2383 2386
1853 2 2381 2382 2384
1854 2 2382 2384 2385
1855 3 2383 2386 2389
1856 2 2384 2385 2387
1857 2 2385 2387 2388
1858 1 2386 2389 2392
1859 2 2387 2388 2390
1860 2 2388 2390 2391
1861 2 2390 2391 2393
1862 2 2391 2393 2394
1863 1 2395 2398 2401
1864 2 2396 2397 2399
1865 2 2397 2399 2400
1866 3 2398 2401 2404
1867 2 2399 2400 2402
1868 2 2400 2402 2403
1869 3 2401 2404 2407
1870 2 2402 2403 2405
1871 2 2403 2405 2406
1872 1 2404 2407 2410
1873 2 2405 2406 2408
1874 2 2406 2408 2409
1875 2 2408 2409 2411
1876 2 2409 2411 2412
1877 1 2413 2416 2419
1878 2 2414 2415 2417
1879 2 2415 2417 2418
1880 3 2416 2419 2422
1881 2 2417 2418 2420
1882 2 2418 2420 2421
1883 3 2419 2422 2425
1884 2 2420 2421 2423
1885 2 2421 2423 2424
1886 1 2422 2425 2428
1887 2 2423 2424 2426
1888 2 2424 2426 2427
1889 2 2426 2427 2429
1890 2 2427 2429 2430
1891 1 2431 2434 2437
1892 2 2432 2433 2435
1893 2 2433 2435 2436
1894 3 2434 2437 2440
1895 2 2435 2436 2438
1896 2 2436 2438 2439
1897 3 2437 2440 2443
1898 2 2438 2439 2441
1899 2 2439 2441 2442
1900 1 2440 2443 2446
1901 2 2441 2442 2444
1902 2 2442 2444 2445
1903 2 2444 2445 2447
1904 2 2445 2447 2448
1905 1 2449 2452 2455
1906 2 2450 2451 2453
1907 2 2451 2453 2454
1908 3 2452 2455 2458
1909 2 2453 2454 2456
1910 2 2454 2456 2457
1911 3 2455 2458 2461
1912 2 2456 2457 2459
1913 2 2457 2459 2460
1914 1 2458 2461 2464
1915 2 2459 2460 2462
1916 2 2460 2462 2463
1917 2 2462 2463 2465
1918 2 2463 2465 2466
1919 1 2467 2470 2473
1920 2 2468 2469 2471
1921 2 2469 2471 2472
1922 3 2470 2473 2476
1923 2 2471 2472 2474
1924 2 2472 2474 2475
1925 3 2473 2476 2479
1926 2 2474 2475 2477
1927 2 2475 2477 2478
1928 1 2476 2479 2482
1929 2 2477 2478 2480
1930 2 2478 2480 2481
1931 2 2480 2481 2483
1932 2 2481 2483 2484
1933 1 2485 2488 2491
1934 2 2486 2487 2489
1935 2 2487 2489 2490
1936 3 2488 2491 2494
1937 2 2489 2490 2492
1938 2 2490 2492 2493
1939 3 2491 2494 2497
1940 2 2492 2493 2495
1941 2 2493 2495 2496
1942 1 2494 2497 2500
1943 2 2495 2496 2498
1944 2 2496 2498 2499
1945 2 2498 2499 2501
1946 2 2499 2501 2502
1947 1 2503 2506 2509
1948 2 2504 2505 2507
1949 2 2505 2507 2508
1950 3 2506 2509 2512
1951 2 2507 2508 2510
1952 2 2508 2510 2511
1953 3 2509 2512 2515
1954 2 2510 2511 2513
1955 2 2511 2513 2514
1956 1 2512 2515 2518
1957 2 2513 2514 2516
1958 2 2514 2516 2517
1959 2 2516 2517 2519
1960 2 2517 2519 2520
1961 1 2521 2524 2527
1962 2 2522 2523 2525
1963 2 2523 2525 2526
1964 3 2524 2527 2530
1965 2 2525 2526 2528
1966 2 2526 2528 2529
1967 3 2527 2530 2533
1968 2 2528 2529 2531
1969 2 2529 2531 2532
1970 1 2530 2533 2536
1971 2 2531 2532 2534
1972 2 2532 2534 2535
1973 2 2534 2535 2537
1974 2 2535 2537 2538
1975 1 2539 2542 2545
1976 2 2540 2541 2543
1977 2 2541 2543 2544
1978 3 2542 2545 2548
1979 2 2543 2544 2546
1980 2 2544 2546 2547
1981 3 2545 2548 2551
1982 2 2546 2547 2549
1983 2 2547 2549 2550
1984 1 2548 2551 2554
1985 2 2549 2550 2552
1986 2 2550 2552 2553
1987 2 2552 2553 2555
1988 2 2553 2555 2556
1989 1 2557 2560 2563
1990 2 2558 2559 2561
1991 2 2559 2561 2562
1992 3 2560 2563 2566
1993 2 2561 2562 2564
1994 2 2562 2564 2565
1995 3 2563 2566 2569
1996 2 2564 2565 2567
1997 2 2565 2567 2568
1998 1 2566 2569 2572
1999 2 2567 2568 2570
2000 2 2568 2570 2571
2001 2 2570 2571 2573
2002 2 2571 2573 2574
2003 1 2575 2578 2581
2004 2 2576 2577 2579
2005 2 2577 2579 2580
2006 3 2578 2581 2584
2007 2 2579 2580 2582
2008 2 2580 2582 2583
2009 3 2581 2584 2587
2010 2 2582 2583 2585
2011 2 2583 2585 2586
2012 1 2584 2587 2590
2013 2 2585 2586 2588
2014 2 2586 2588 2589
2015 2 2588 2589 2591
2016 2 2589 2591 2592
2017 1 2593 2596 2599
2018 2 2594 2595 2597
2019 2 2595 2597 2598
2020 3 2596 2599 2602
2021 2 2597 2598 2600
2022 2 2598 2600 2601
2023 3 2599 2602 2605
2024 2 2600 2601 2603
2025 2 2601 2603 2604
2026 1 2602 2605 2608
2027 2 2603 2604 2606
2028 2 2604 2606 2607
2029 2 2606 2607 2609
2030 2 2607 2609 2610
2031 1 2611 2614 2617
2032 2 2612 2613 2615
2033 2 2613 2615 2616
2034 3 2614 2617 2620
2035 2 2615 2616 2618
2036 2 2616 2618 2619
2037 3 2617 2620 2623
2038 2 2618 2619 2621
2039 2 2619 2621 2622
2040 1 2620 2623 2626
2041 2 2621 2622 2624
2042 2 2622 2624 2625
2043 2 2624 2625 2627
2044 2 2625 2627 2628
2045 1 2629 2632 2635
2046 2 2630 2631 2633
2047 2 2631 2633 2634
2048 3 2632 2635 2638
2049 2 2633 2634 2636
2050 2 2634 2636 2637
2051 3 2635 2638 2641
2052 2 2636 2637 2639
2053 2 2637 2639 2640
2054 1 2638 2641 2644
2055 2 2639 2640 2642
2056 2 2640 2642 2643
2057 2 2642 2643 2645
2058 2 2643 2645 2646
2059 1 2647 2650 2653
2060 2 2648 2649 2651
2061 2 2649 2651 2652
2062 3 2650 2653 2656
2063 2 2651 2652 2654
2064 2 2652 2654 2655
2065 3 2653 2656 2659
2066 2 2654 2655 2657
2067 2 2655 2657 2658
2068 1 2656 2659 2662
2069 2 2657 2658 2660
2070 2 2658 2660 2661
2071 2 2660 2661 2663
2072 2 2661 2663 2664
2073 1 2665 2668 2671
2074 2 2666 2667 2669
2075 2 2667 2669 2670
2076 3 2668 2671 2674
2077 2 2669 2670 2672
2078 2 2670 2672 2673
2079 3 2671 2674 2677
2080 2 2672 2673 2675
2081 2 2673 2675 2676
2082 1 2674 2677 2680
2083 2 2675 2676 2678
2084 2 2676 2678 2679
2085 2 2678 2679 2681
2086 2 2679 2681 2682
2087 1 2683 2686 2689
2088 2 2684 2685 2687
2089 2 2685 2687 2688
2090 3 2686 2689 2692
2091 2 2687 2688 2690
2092 2 2688 2690 2691
2093 3 2689 2692 2695
2094 2 2690 2691 2693
2095 2 2691 2693 2694
2096 1 2692 2695 2698
2097 2 2693 2694 2696
2098 2 2694 2696 2697
2099 2 2696 2697 2699
2100 2 2697 2699 2700
2101 1 2701 2704 2707
2102 2 2702 2703 2705
2103 2 2703 2705 2706
2104 3 2704 2707 2710
2105 2 2705 2706 2708
2106 2 2706 2708 2709
2107 3 2707 2710 2713
2108 2 2708 2709 2711
2109 2 2709 2711 2712
2110 1 2710 2713 2716
2111 2 2711 2712 2714
2112 2 2712 2714 2715
2113 2 2714 2715 2717
2114 2 2715 2717 2718
2115 1 2719 2722 2725
2116 2 2720 2721 2723
2117 2 2721 2723 2724
2118 3 2722 2725 2728
2119 2 2723 2724 2726
2120 2 2724 2726 2727
2121 3 2725 2728 2731
2122 2 2726 2727 2729
2123 2 2727 2729 2730
2124 1 2728 2731 2734
2125 2 2729 2730 2732
2126 2 2730 2732 2733
2127 2 2732 2733 2735
2128 2 2733 2735 2736
2129 1 2737 2740 2743
2130 2 2738 2739 2741
2131 2 2739 2741 2742
2132 3 2740 2743 2746
2133 2 2741 2742 2744
2134 2 2742 2744 2745
2135 3 2743 2746 2749
2136 2 2744 2745 2747
2137 2 2745 2747 2748
2138 1 2746 2749 2752
2139 2 2747 2748 2750
2140 2 2748 2750 2751
2141 2 2750 2751 2753
2142 2 2751 2753 2754
2143 1 2755 2758 2761
2144 2 2756 2757 2759
2145 2 2757 2759 2760
2146 3 2758 2761 2764
2147 2 2759 2760 2762
2148 2 2760 2762 2763
2149 3 2761 2764 2767
2150 2 2762 2763 2765
2151 2 2763 2765 2766
2152 1 2764 2767 2770
2153 2 2765 2766 2768
2154 2 2766 2768 2769
2155 2 2768 2769 2771
2156 2 2769 2771 2772
2157 1 2773 2776 2779
2158 2 2774 2775 2777
2159 2 2775 2777 2778
2160 3 2776 2779 2782
2161 2 2777 2778 2780
2162 2 2778 2780 2781
2163 3 2779 2782 2785
2164 2 2780 2781 2783
2165 2 2781 2783 2784
2166 1 2782 2785 2788
2167 2 2783 2784 2786
2168 2 2784 2786 2787
2169 2 2786 2787 2789
2170 2 2787 2789 2790
2171 1 2791 2794 2797
2172 2 2792 2793 2795
2173 2 2793 2795 2796
2174 3 2794 2797 2800
2175 2 2795 2796 2798
2176 2 2796 2798 2799
2177 3 2797 2800 2803
2178 2 2798 2799 2801
2179 2 2799 2801 2802
2180 1 2800 2803 2806
2181 2 2801 2802 2804
2182 2 2802 2804 2805
2183 2 2804 2805 2807
2184 2 2805 2807 2808
2185 1 2809 2812 2815
2186 2 2810 2811 2813
2187 2 2811 2813 2814
2188 3 2812 2815 2818
2189 2 2813 2814 2816
2190 2 2814 2816 2817
2191 3 2815 2818 2821
2192 2 2816 2817 2819
2193 2 2817 2819 2820
2194 1 2818 2821 2824
2195 2 2819 2820 2822
2196 2 2820 2822 2823
2197 2 2822 2823 2825
2198 2 2823 2825 2826
2199 1 2827 2830 2833
2200 2 2828 2829 2831
2201 2 2829 2831 2832
2202 3 2830 2833 2836
2203 2 2831 2832 2834
2204 2 2832 2834 2835
2205 3 2833 2836 2839
2206 2 2834 2835 2837
2207 2 2835 2837 2838
2208 1 2836 2839 2842
2209 2 2837 2838 2840
2210 2 2838 2840 2841
2211 2 2840 2841 2843
2212 2 2841 2843 2844
2213 1 2845 2848 2851
2214 2 2846 2847 2849
2215 2 2847 2849 2850
2216 3 2848 2851 2854
2217 2 2849 2850 2852
2218 2 2850 2852 2853
2219 3 2851 2854 2857
2220 2 2852 2853 2855
2221 2 2853 2855 2856
2222 1 2854 2857 2860
2223 2 2855 2856 2858
2224 2 2856 2858 2859
2225 2 2858 2859 2861
2226 2 2859 2861 2862
2227 1 2863 2866 2869
2228 2 2864 2865 2867
2229 2 2865 2867 2868
2230 3 2866 2869 2872
2231 2 2867 2868 2870
2232 2 2868 2870 2871
2233 3 2869 2872 2875
2234 2 2870 2871 2873
2235 2 2871 2873 2874
2236 1 2872 2875 2878
2237 2 2873 2874 2876
2238 2 2874 2876 2877
2239 2 2876 2877 2879
2240 2 2877 2879 2880
2241 1 2881 2884 2887
2242 2 2882 2883 2885
2243 2 2883 2885 2886
2244 3 2884 2887 2890
2245 2 2885 2886 2888
2246 2 2886 2888 2889
2247 3 2887 2890 2893
2248 2 2888 2889 2891
2249 2 2889 2891 2892
2250 1 2890 2893 2896
2251 2 2891 2892 2894
2252 2 2892 2894 2895
2253 2 2894 2895 2897
2254 2 2895 2897 2898
2255 1 2899 2902 2905
2256 2 2900 2901 2903
2257 2 2901 2903 2904
2258 3 2902 2905 2908
2259 2 2903 2904 2906
2260 2 2904 2906 2907
2261 3 2905 2908 2911
2262 2 2906 2907 2909
2263 2 2907 2909 2910
2264 1 2908 2911 2914
2265 2 2909 2910 2912
2266 2 2910 2912 2913
2267 2 2912 2913 2915
2268 2 2913 2915 2916
2269 1 2917 2920 2923
2270 2 2918 2919 2921
2271 2 2919 2921 2922
2272 3 2920 2923 2926
2273 2 2921 2922 2924
2274 2 2922 2924 2925
2275 3 2923 2926 2929
2276 2 2924 2925 2927
2277 2 2925 2927 2928
2278 1 2926 2929 2932
2279 2 2927 2928 2930
2280 2 2928 2930 2931
2281 2 2930 2931 2933
2282 2 2931 2933 2934
2283 1 2935 2938 2941
2284 2 2936 2937 2939
2285 2 2937 2939 2940
2286 3 2938 2941 2944
2287 2 2939 2940 2942
2288 2 2940 2942 2943
2289 3 2941 2944 2947
2290 2 2942 2943 2945
2291 2 2943 2945 2946
2292 1 2944 2947 2950
2293 2 2945 2946 2948
2294 2 2946 2948 2949
2295 2 2948 2949 2951
2296 2 2949 2951 2952
2297 1 2953 2956 2959
2298 2 2954 2955 2957
2299 2 2955 2957 2958
2300 3 2956 2959 2962
2301 2 2957 2958 2960
2302 2 2958 2960 2961
2303 3 2959 2962 2965
2304 2 2960 2961 2963
2305 2 2961 2963 2964
2306 1 2962 2965 2968
2307 2 2963 2964 2966
2308 2 2964 2966 2967
2309 2 2966 2967 2969
2310 2 2967 2969 2970
2311 1 2971 2974 2977
2312 2 2972 2973 2975
2313 2 2973 2975 2976
2314 3 2974 2977 2980
2315 2 2975 2976 2978
2316 2 2976 2978 2979
2317 3 2977 2980 2983
2318 2 2978 2979 2981
2319 2 2979 2981 2982
2320 1 2980 2983 2986
2321 2 2981 2982 2984
2322 2 2982 2984 2985
2323 2 2984 2985 2987
2324 2 2985 2987 2988
2325 1 2989 2992 2995
2326 2 2990 2991 2993
2327 2 2991 2993 2994
2328 3 2992 2995 2998
2329 2 2993 2994 2996
2330 2 2994 2996 2997
2331 3 2995 2998 3001
2332 2 2996 2997 2999
2333 2 2997 2999 3000
2334 1 2998 3001 3004
2335 2 2999 3000 3002
2336 2 3000 3002 3003
2337 2 3002 3003 3005
2338 2 3003 3005 3006
2339 1 3007 3010 3013
2340 2 3008 3009 3011
2341 2 3009 3011 3012
2342 3 3010 3013 3016
2343 2 3011 3012 3014
2344 2 3012 3014 3015
2345 3 3013 3016 3019
2346 2 3014 3015 3017
2347 2 3015 3017 3018
2348 1 3016 3019 3022
2349 2 3017 3018 3020
2350 2 3018 3020 3021
2351 2 3020 3021 3023
2352 2 3021 3023 3024
2353 1 3025 3028 3031
2354 2 3026 3027 3029
2355 2 3027 3029 3030
2356 3 3028 3031 3034
2357 2 3029 3030 3032
2358 2 3030 3032 3033
2359 3 3031 3034 3037
2360 2 3032 3033 3035
2361 2 3033 3035 3036
2362 1 3034 3037 3040
2363 2 3035 3036 3038
2364 2 3036 3038 3039
2365 2 3038 3039 3041
2366 2 3039 3041 3042
2367 1 3043 3046 3049
2368 2 3044 3045 3047
2369 2 3045 3047 3048
2370 3 3046 3049 3052
2371 2 3047 3048 3050
2372 2 3048 3050 3051
2373 3 3049 3052 3055
2374 2 3050 3051 3053
2375 2 3051 3053 3054
2376 1 3052 3055 3058
2377 2 3053 3054 3056
2378 2 3054 3056 3057
2379 2 3056 3057 3059
2380 2 3057 3059 3060
2381 1 3061 3064 3067
2382 2 3062 3063 3065
2383 2 3063 3065 3066
2384 3 3064 3067 3070
2385 2 3065 3066 3068
2386 2 3066 3068 3069
2387 3 3067 3070 3073
2388 2 3068 3069 3071
2389 2 3069 3071 3072
2390 1 3070 3073 3076
2391 2 3071 3072 3074
2392 2 3072 3074 3075
2393 2 3074 3075 3077
2394 2 3075 3077 3078
2395 1 3079 3082 3085
2396 2 3080 3081 3083
2397 2 3081 3083 3084
2398 3 3082 3085 3088
2399 2 3083 3084 3086
2400 2 3084 3086 3087
2401 3 3085 3088 3091
2402 2 3086 3087 3089
2403 2 3087 3089 3090
2404 1 3088 3091 3094
2405 2 3089 3090 3092
2406 2 3090 3092 3093
2407 2 3092 3093 3095
2408 2 3093 3095 3096
2409 1 3097 3100 3103
2410 2 3098 3099 3101
2411 2 3099 3101 3102
2412 3 3100 3103 3106
2413 2 3101 3102 3104
2414 2 3102 3104 3105
2415 3 3103 3106 3109
2416 2 3104 3105 3107
2417 2 3105 3107 3108
2418 1 3106 3109 3112
2419 2 3107 3108 3110
2420 2 3108 3110 3111
2421 2 3110 3111 3113
2422 2 3111 3113 3114
2423 1 3115 3118 3121
2424 2 3116 3117 3119
2425 2 3117 3119 3120
2426 3 3118 3121 3124
2427 2 3119 3120 3122
2428 2 3120 3122 3123
2429 3 3121 3124 3127
2430 2 3122 3123 3125
2431 2 3123 3125 3126
2432 1 3124 3127 3130
2433 2 3125 3126 3128
2434 2 3126 3128 3129
2435 2 3128 3129 3131
2436 2 3129 3131 3132
2437 1 3133 3136 3139
2438 2 3134 3135 3137
2439 2 3135 3137 3138
2440 3 3136 3139 3142
2441 2 3137 3138 3140
2442 2 3138 3140 3141
2443 3 3139 3142 3145
2444 2 3140 3141 3143
2445 2 3141 3143 3144
2446 1 3142 3145 3148
2447 2 3143 3144 3146
2448 2 3144 3146 3147
2449 2 3146 3147 3149
2450 2 3147 3149 3150
2451 1 3151 3154 3157
2452 2 3152 3153 3155
2453 2 3153 3155 3156
2454 3 3154 3157 3160
2455 2 3155 3156 3158
2456 2 3156 3158 3159
2457 3 3157 3160 3163
2458 2 3158 3159 3161
2459 2 3159 3161 3162
2460 1 3160 3163 3166
2461 2 3161 3162 3164
2462 2 3162 3164 3165
2463 2 3164 3165 3167
2464 2 3165 3167 3168
2465 1 3169 3172 3175
2466 2 3170 3171 3173
2467 2 3171 3173 3174
2468 3 3172 3175 3178
2469 2 3173 3174 3176
2470 2 3174 3176 3177
2471 3 3175 3178 3181
2472 2 3176 3177 3179
2473 2 3177 3179 3180
2474 1 3178 3181 3184
2475 2 3179 3180 3182
2476 2 3180 3182 3183
2477 2 3182 3183 3185
2478 2 3183 3185 3186
2479 1 3187 3190 3193
2480 2 3188 3189 3191
2481 2 3189 3191 3192
2482 3 3190 3193 3196
2483 2 3191 3192 3194
2484 2 3192 3194 3195
2485 3 3193 3196 3199
2486 2 3194 3195 3197
2487 2 3195 3197 3198
2488 1 3196 3199 3202
2489 2 3197 3198 3200
2490 2 3198 3200 3201
2491 2 3200 3201 3203
2492 2 3201 3203 3204
2493 1 3205 3208 3211
2494 2 3206 3207 3209
2495 2 3207 3209 3210
2496 3 3208 3211 3214
2497 2 3209 3210 3212
2498 2 3210 3212 3213
2499 3 3211 3214 3217
2500 2 3212 3213 3215
2501 2 3213 3215 3216
2502 1 3214 3217 3220
2503 2 3215 3216 3218
2504 2 3216 3218 3219
2505 2 3218 3219 3221
2506 2 3219 3221 3222
2507 1 3223 3226 3229
2508 2 3224 3225 3227
2509 2 3225 3227 3228
2510 3 3226 3229 3232
2511 2 3227 3228 3230
2512 2 3228 3230 3231
2513 3 3229 3232 3235
2514 2 3230 3231 3233
2515 2 3231 3233 3234
2516 1 3232 3235 3238
2517 2 3233 3234 3236
2518 2 3234 3236 3237
2519 2 3236 3237 3239
2520 2 3237 3239 3240
2521 1 3241 3244 3247
2522 2 3242 3243 3245
2523 2 3243 3245 3246
2524 3 3244 3247 3250
2525 2 3245 3246 3248
2526 2 3246 3248 3249
2527 3 3247 3250 3253
2528 2 3248 3249 3251
2529 2 3249 3251 3252
2530 1 3250 3253 3256
2531 2 3251 3252 3254
2532 2 3252 3254 3255
2533 2 3254 3255 3257
2534 2 3255 3257 3258
2535 1 3259 3262 3265
2536 2 3260 3261 3263
2537 2 3261 3263 3264
2538 3 3262 3265 3268
2539 2 3263 3264 3266
2540 2 3264 3266 3267
2541 3 3265 3268 3271
2542 2 3266 3267 3269
2543 2 3267 3269 3270
2544 1 3268 3271 3274
2545 2 3269 3270 3272
2546 2 3270 3272 3273
2547 2 3272 3273 3275
2548 2 3273 3275 3276
2549 1 3277 3280 3283
2550 2 3278 3279 3281
2551 2 3279 3281 3282
2552 3 3280 3283 3286
2553 2 3281 3282 3284
2554 2 3282 3284 3285
2555 3 3283 3286 3289
2556 2 3284 3285 3287
2557 2 3285 3287 3288
2558 1 3286 3289 3292
2559 2 3287 3288 3290
2560 2 3288 3290 3291
2561 2 3290 3291 3293
2562 2 3291 3293 3294
2563 1 3295 3298 3301
2564 2 3296 3297 3299
2565 2 3297 3299 3300
2566 3 3298 3301 3304
2567 2 3299 3300 3302
2568 2 3300 3302 3303
2569 3 3301 3304 3307
2570 2 3302 3303 3305
2571 2 3303 3305 3306
2572 1 3304 3307 3310
2573 2 3305 3306 3308
2574 2 3306 3308 3309
2575 2 3308 3309 3311
2576 2 3309 3311 3312
2577 1 3313 3316 3319
2578 2 3314 3315 3317
2579 2 3315 3317 3318
2580 3 3316 3319 3322
2581 2 3317 3318 3320
2582 2 3318 3320 3321
2583 3 3319 3322 3325
2584 2 3320 3321 3323
2585 2 3321 3323 3324
2586 1 3322 3325 3328
2587 2 3323 3324 3326
2588 2 3324 3326 3327
2589 2 3326 3327 3329
2590 2 3327 3329 3330
2591 1 3331 3334 3337
2592 2 3332 3333 3335
2593 2 3333 3335 3336
2594 3 3334 3337 3340
2595 2 3335 3336 3338
2596 2 3336 3338 3339
2597 3 3337 3340 3343
2598 2 3338 3339 3341
2599 2 3339 3341 3342
2600 1 3340 3343 3346
2601 2 3341 3342 3344
2602 2 3342 3344 3345
2603 2 3344 3345 3347
2604 2 3345 3347 3348
2605 1 3349 3352 3355
2606 2 3350 3351 3353
2607 2 3351 3353 3354
2608 3 3352 3355 3358
2609 2 3353 3354 3356
2610 2 3354 3356 3357
2611 3 3355 3358 3361
2612 2 3356 3357 3359
2613 2 3357 3359 3360
2614 1 3358 3361 3364
2615 2 3359 3360 3362
2616 2 3360 3362 3363
2617 2 3362 3363 3365
2618 2 3363 3365 3366
2619 1 3367 3370 3373
2620 2 3368 3369 3371
2621 2 3369 3371 3372
2622 3 3370 3373 3376
2623 2 3371 3372 3374
2624 2 3372 3374 3375
2625 3 3373 3376 3379
2626 2 3374 3375 3377
2627 2 3375 3377 3378
2628 1 3376 3379 3382
2629 2 3377 3378 3380
2630 2 3378 3380 3381
2631 2 3380 3381 3383
2632 2 3381 3383 3384
2633 1 3385 3388 3391
2634 2 3386 3387 3389
2635 2 3387 3389 3390
2636 3 3388 3391 3394
2637 2 3389 3390 3392
2638 2 3390 3392 3393
2639 3 3391 3394 3397
2640 2 3392 3393 3395
2641 2 3393 3395 3396
2642 1 3394 3397 3400
2643 2 3395 3396 3398
2644 2 3396 3398 3399
2645 2 3398 3399 3401
2646 2 3399 3401 3402
2647 1 3403 3406 3409
2648 2 3404 3405 3407
2649 2 3405 3407 3408
2650 3 3406 3409 3412
2651 2 3407 3408 3410
2652 2 3408 3410 3411
2653 3 3409 3412 3415
2654 2 3410 3411 3413
2655 2 3411 3413 3414
2656 1 3412 3415 3418
2657 2 3413 3414 3416
2658 2 3414 3416 3417
2659 2 3416 3417 3419
2660 2 3417 3419 3420
2661 1 3421 3424 3427
2662 2 3422 3423 3425
2663 2 3423 3425 3426
2664 3 3424 3427 3430
2665 2 3425 3426 3428
2666 2 3426 3428 3429
2667 3 3427 3430 3433
2668 2 3428 3429 3431
2669 2 3429 3431 3432
2670 1 3430 3433 3436
2671 2 3431 3432 3434
2672 2 3432 3434 3435
2673 2 3434 3435 3437
2674 2 3435 3437 3438
2675 1 3439 3442 3445
2676 2 3440 3441 3443
2677 2 3441 3443 3444
2678 3 3442 3445 3448
2679 2 3443 3444 3446
2680 2 3444 3446 3447
2681 3 3445 3448 3451
2682 2 3446 3447 3449
2683 2 3447 3449 3450
2684 1 3448 3451 3454
2685 2 3449 3450 3452
2686 2 3450 3452 3453
2687 2 3452 3453 3455
2688 2 3453 3455 3456
2689 1 3457 3460 3463
2690 2 3458 3459 3461
2691 2 3459 3461 3462
2692 3 3460 3463 3466
2693 2 3461 3462 3464
2694 2 3462 3464 3465
2695 3 3463 3466 3469
2696 2 3464 3465 3467
2697 2 3465 3467 3468
2698 1 3466 3469 3472
2699 2 3467 3468 3470
2700 2 3468 3470 3471
2701 2 3470 3471 3473
2702 2 3471 3473 3474
2703 1 3475 3478 3481
2704 2 3476 3477 3479
2705 2 3477 3479 3480
2706 3 3478 3481 3484
2707 2 3479 3480 3482
2708 2 3480 3482 3483
2709 3 3481 3484 3487
2710 2 3482 3483 3485
2711 2 3483 3485 3486
2712 1 3484 3487 3490
2713 2 3485 3486 3488
2714 2 3486 3488 3489
2715 2 3488 3489 3491
2716 2 3489 3491 3492
2717 1 3493 3496 3499
2718 2 3494 3495 3497
2719 2 3495 3497 3498
2720 3 3496 3499 3502
2721 2 3497 3498 3500
2722 2 3498 3500 3501
2723 3 3499 3502 3505
2724 2 3500 3501 3503
2725 2 3501 3503 3504
2726 1 3502 3505 3508
2727 2 3503 3504 3506
2728 2 3504 3506 3507
2729 2 3506 3507 3509
2730 2 3507 3509 3510
2731 1 3511 3514 3517
2732 2 3512 3513 3515
2733 2 3513 3515 3516
2734 3 3514 3517 3520
2735 2 3515 3516 3518
2736 2 3516 3518 3519
2737 3 3517 3520 3523
2738 2 3518 3519 3521
2739 2 3519 3521 3522
2740 1 3520 3523 3526
2741 2 3521 3522 3524
2742 2 3522 3524 3525
2743 2 3524 3525 3527
2744 2 3525 3527 3528
2745 1 3529 3532 3535
2746 2 3530 3531 3533
2747 2 3531 3533 3534
2748 3 3532 3535 3538
2749 2 3533 3534 3536
2750 2 3534 3536 3537
2751 3 3535 3538 3541
2752 2 3536 3537 3539
2753 2 3537 3539 3540
2754 1 3538 3541 3544
2755 2 3539 3540 3542
2756 2 3540 3542 3543
2757 2 3542 3543 3545
2758 2 3543 3545 3546
2759 1 3547 3550 3553
2760 2 3548 3549 3551
2761 2 3549 3551 3552
2762 3 3550 3553 3556
2763 2 3551 3552 3554
2764 2 3552 3554 3555
2765 3 3553 3556 3559
2766 2 3554 3555 3557
2767 2 3555 3557 3558
2768 1 3556 3559 3562
2769 2 3557 3558 3560
2770 2 3558 3560 3561
2771 2 3560 3561 3563
2772 2 3561 3563 3564
2773 1 3565 3568 3571
2774 2 3566 3567 3569
2775 2 3567 3569 3570
2776 3 3568 3571 3574
2777 2 3569 3570 3572
2778 2 3570 3572 3573
2779 3 3571 3574 3577
2780 2 3572 3573 3575
2781 2 3573 3575 3576
2782 1 3574 3577 3580
2783 2 3575 3576 3578
2784 2 3576 3578 3579
2785 2 3578 3579 3581
2786 2 3579 3581 3582
2787 1 3583 3586 3589
2788 2 3584 3585 3587
2789 2 3585 3587 3588
2790 3 3586 3589 3592
2791 2 3587 3588 3590
2792 2 3588 3590 3591
2793 3 3589 3592 3595
2794 2 3590 3591 3593
2795 2 3591 3593 3594
2796 1 3592 3595 3598
2797 2 3593 3594 3596
2798 2 3594 3596 3597
2799 2 3596 3597 3599
2800 2 3597 3599 3600
2801 1 3601 3604 3607
2802 2 3602 3603 3605
2803 2 3603 3605 3606
2804 3 3604 3607 3610
2805 2 3605 3606 3608
2806 2 3606 3608 3609
2807 3 3607 3610 3613
2808 2 3608 3609 3611
2809 2 3609 3611 3612
2810 1 3610 3613 3616
2811 2 3611 3612 3614
2812 2 3612 3614 3615
2813 2 3614 3615 3617
2814 2 3615 3617 3618
2815 1 3619 3622 3625
2816 2 3620 3621 3623
2817 2 3621 3623 3624
2818 3 3622 3625 3628
2819 2 3623 3624 3626
2820 2 3624 3626 3627
2821 3 3625 3628 3631
2822 2 3626 3627 3629
2823 2 3627 3629 3630
2824 1 3628 3631 3634
2825 2 3629 3630 3632
2826 2 3630 3632 3633
2827 2 3632 3633 3635
2828 2 3633 3635 3636
2829 1 3637 3640 3643
2830 2 3638 3639 3641
2831 2 3639 3641 3642
2832 3 3640 3643 3646
2833 2 3641 3642 3644
2834 2 3642 3644 3645
2835 3 3643 3646 3649
2836 2 3644 3645 3647
2837 2 3645 3647 3648
2838 1 3646 3649 3652
2839 2 3647 3648 3650
2840 2 3648 3650 3651
2841 2 3650 3651 3653
2842 2 3651 3653 3654
2843 1 3655 3658 3661
2844 2 3656 3657 3659
2845 2 3657 3659 3660
2846 3 3658 3661 3664
2847 2 3659 3660 3662
2848 2 3660 3662 3663
2849 3 3661 3664 3667
2850 2 3662 3663 3665
2851 2 3663 3665 3666
2852 1 3664 3667 3670
2853 2 3665 3666 3668
2854 2 3666 3668 3669
2855 2 3668 3669 3671
2856 2 3669 3671 3672
2857 1 3673 3676 3679
2858 2 3674 3675 3677
2859 2 3675 3677 3678
2860 3 3676 3679 3682
2861 2 3677 3678 3680
2862 2 3678 3680 3681
2863 3 3679 3682 3685
2864 2 3680 3681 3683
2865 2 3681 3683 3684
2866 1 3682 3685 3688
2867 2 3683 3684 3686
2868 2 3684 3686 3687
2869 2 3686 3687 3689
2870 2 3687 3689 3690
2871 1 3691 3694 3697
2872 2 3692 3693 3695
2873 2 3693 3695 3696
2874 3 3694 3697 3700
2875 2 3695 3696 3698
2876 2 3696 3698 3699
2877 3 3697 3700 3703
2878 2 3698 3699 3701
2879 2 3699 3701 3702
2880 1 3700 3703 3706
2881 2 3701 3702 3704
2882 2 3702 3704 3705
2883 2 3704 3705 3707
2884 2 3705 3707 3708
2885 1 3709 3712 3715
2886 2 3710 3711 3713
2887 2 3711 3713 3714
2888 3 3712 3715 3718
2889 2 3713 3714 3716
2890 2 3714 3716 3717
2891 3 3715 3718 3721
2892 2 3716 3717 3719
2893 2 3717 3719 3720
2894 1 3718 3721 3724
2895 2 3719 3720 3722
2896 2 3720 3722 3723
2897 2 3722 3723 3725
2898 2 3723 3725 3726
2899 1 3727 3730 3733
2900 2 3728 3729 3731
2901 2 3729 3731 3732
2902 3 3730 3733 3736
2903 2 3731 3732 3734
2904 2 3732 3734 3735
2905 3 3733 3736 3739
2906 2 3734 3735 3737
2907 2 3735 3737 3738
2908 1 3736 3739 3742
2909 2 3737 3738 3740
2910 2 3738 3740 3741
2911 2 3740 3741 3743
2912 2 3741 3743 3744
2913 1 3745 3748 3751
2914 2 3746 3747 3749
2915 2 3747 3749 3750
2916 3 3748 3751 3754
2917 2 3749 3750 3752
2918 2 3750 3752 3753
2919 3 3751 3754 3757
2920 2 3752 3753 3755
2921 2 3753 3755 3756
2922 1 3754 3757 3760
2923 2 3755 3756 3758
2924 2 3756 3758 3759
2925 2 3758 3759 3761
2926 2 3759 3761 3762
2927 1 3763 3766 3769
2928 2 3764 3765 3767
2929 2 3765 3767 3768
2930 3 3766 3769 3772
2931 2 3767 3768 3770
2932 2 3768 3770 3771
2933 3 3769 3772 3775
2934 2 3770 3771 3773
2935 2 3771 3773 3774
2936 1 3772 3775 3778
2937 2 3773 3774 3776
2938 2 3774 3776 3777
2939 2 3776 3777 3779
2940 2 3777 3779 3780
2941 1 3781 3784 3787
2942 2 3782 3783 3785
2943 2 3783 3785 3786
2944 3 3784 3787 3790
2945 2 3785 3786 3788
2946 2 3786 3788 3789
2947 3 3787 3790 3793
2948 2 3788 3789 3791
2949 2 3789 3791 3792
2950 1 3790 3793 3796
2951 2 3791 3792 3794
2952 2 3792 3794 3795
2953 2 3794 3795 3797
2954 2 3795 3797 3798
2955 1 3799 3802 3805
2956 2 3800 3801 3803
2957 2 3801 3803 3804
2958 3 3802 3805 3808
2959 2 3803 3804 3806
2960 2 3804 3806 3807
2961 3 3805 3808 3811
2962 2 3806 3807 3809
2963 2 3807 3809 3810
2964 1 3808 3811 3814
2965 2 3809 3810 3812
2966 2 3810 3812 3813
2967 2 3812 3813 3815
2968 2 3813 3815 3816
2969 1 3817 3820 3823
2970 2 3818 3819 3821
2971 2 3819 3821 3822
2972 3 3820 3823 3826
2973 2 3821 3822 3824
2974 2 3822 3824 3825
2975 3 3823 3826 3829
2976 2 3824 3825 3827
2977 2 3825 3827 3828
2978 1 3826 3829 3832
2979 2 3827 3828 3830
2980 2 3828 3830 3831
2981 2 3830 3831 3833
2982 2 3831 3833 3834
2983 1 3835 3838 3841
2984 2 3836 3837 3839
2985 2 3837 3839 3840
2986 3 3838 3841 3844
2987 2 3839 3840 3842
2988 2 3840 3842 3843
2989 3 3841 3844 3847
2990 2 3842 3843 3845
2991 2 3843 3845 3846
2992 1 3844 3847 3850
2993 2 3845 3846 3848
2994 2 3846 3848 3849
2995 2 3848 3849 3851
2996 2 3849 3851 3852
2997 1 3853 3856 3859
2998 2 3854 3855 3857
2999 2 3855 3857 3858
3000 3 3856 3859 3862
3001 2 3857 3858 3860
3002 2 3858 3860 3861
3003 3 3859 3862 3865
3004 2 3860 3861 3863
3005 2 3861 3863 3864
3006 1 3862 3865 3868
3007 2 3863 3864 3866
3008 2 3864 3866 3867
3009 2 3866 3867 3869
3010 2 3867 3869 3870
3011 1 3871 3874 3877
3012 2 3872 3873 3875
3013 2 3873 3875 3876
3014 3 3874 3877 3880
3015 2 3875 3876 3878
3016 2 3876 3878 3879
3017 3 3877 3880 3883
3018 2 3878 3879 3881
3019 2 3879 3881 3882
3020 1 3880 3883 3886
3021 2 3881 3882 3884
3022 2 3882 3884 3885
3023 2 3884 3885 3887
3024 2 3885 3887 3888
3025 1 3889 3892 3895
3026 2 3890 3891 3893
3027 2 3891 3893 3894
3028 3 3892 3895 3898
3029 2 3893 3894 3896
3030 2 3894 3896 3897
3031 3 3895 3898 3901
3032 2 3896 3897 3899
3033 2 3897 3899 3900
3034 1 3898 3901 3904
3035 2 3899 3900 3902
3036 2 3900 3902 3903
3037 2 3902 3903 3905
3038 2 3903 3905 3906
3039 1 3907 3910 3913
3040 2 3908 3909 3911
3041 2 3909 3911 3912
3042 3 3910 3913 3916
3043 2 3911 3912 3914
3044 2 3912 3914 3915
3045 3 3913 3916 3919
3046 2 3914 3915 3917
3047 2 3915 3917 3918
3048 1 3916 3919 3922
3049 2 3917 3918 3920
3050 2 3918 3920 3921
3051 2 3920 3921 3923
3052 2 3921 3923 3924
3053 1 3925 3928 3931
3054 2 3926 3927 3929
3055 2 3927 3929 3930
3056 3 3928 3931 3934
3057 2 3929 3930 3932
3058 2 3930 3932 3933
3059 3 3931 3934 3937
3060 2 3932 3933 3935
3061 2 3933 3935 3936
3062 1 3934 3937 3940
3063 2 3935 3936 3938
3064 2 3936 3938 3939
3065 2 3938 3939 3941
3066 2 3939 3941 3942
3067 1 3943 3946 3949
3068 2 3944 3945 3947
3069 2 3945 3947 3948
3070 3 3946 3949 3952
3071 2 3947 3948 3950
3072 2 3948 3950 3951
3073 3 3949 3952 3955
3074 2 3950 3951 3953
3075 2 3951 3953 3954
3076 1 3952 3955 3958
3077 2 3953 3954 3956
3078 2 3954 3956 3957
3079 2 3956 3957 3959
3080 2 3957 3959 3960
3081 1 3961 3964 3967
3082 2 3962 3963 3965
3083 2 3963 3965 3966
3084 3 3964 3967 3970
3085 2 3965 3966 3968
3086 2 3966 3968 3969
3087 3 3967 3970 3973
3088 2 3968 3969 3971
3089 2 3969 3971 3972
3090 1 3970 3973 3976
3091 2 3971 3972 3974
3092 2 3972 3974 3975
3093 2 3974 3975 3977
3094 2 3975 3977 3978
3095 1 3979 3982 3985
3096 2 3980 3981 3983
3097 2 3981 3983 3984
3098 3 3982 3985 3988
3099 2 3983 3984 3986
3100 2 3984 3986 3987
3101 3 3985 3988 3991
3102 2 3986 3987 3989
3103 2 3987 3989 3990
3104 1 3988 3991 3994
3105 2 3989 3990 3992
3106 2 3990 3992 3993
3107 2 3992 3993 3995
3108 2 3993 3995 3996
3109 1 3997 4000 4003
3110 2 3998 3999 4001
3111 2 3999 4001 4002
3112 3 4000 4003 4006
3113 2 4001 4002 4004
3114 2 4002 4004 4005
3115 3 4003 4006 4009
3116 2 4004 4005 4007
3117 2 4005 4007 4008
3118 1 4006 4009 4012
3119 2 4007 4008 4010
3120 2 4008 4010 4011
3121 2 4010 4011 4013
3122 2 4011 4013 4014
3123 1 4015 4018 4021
3124 2 4016 4017 4019
3125 2 4017 4019 4020
3126 3 4018 4021 4024
3127 2 4019 4020 4022
3128 2 4020 4022 4023
3129 3 4021 4024 4027
3130 2 4022 4023 4025
3131 2 4023 4025 4026
3132 1 4024 4027 4030
3133 2 4025 4026 4028
3134 2 4026 4028 4029
3135 2 4028 4029 4031
3136 2 4029 4031 4032
3137 1 4033 4036 4039
3138 2 4034 4035 4037
3139 2 4035 4037 4038
3140 3 4036 4039 4042
3141 2 4037 4038 4040
3142 2 4038 4040 4041
3143 3 4039 4042 4045
3144 2 4040 4041 4043
3145 2 4041 4043 4044
3146 1 4042 4045 4048
3147 2 4043 4044 4046
3148 2 4044 4046 4047
3149 2 4046 4047 4049
3150 2 4047 4049 4050
3151 1 4051 4054 4057
3152 2 4052 4053 4055
3153 2 4053 4055 4056
3154 3 4054 4057 4060
3155 2 4055 4056 4058
3156 2 4056 4058 4059
3157 3 4057 4060 4063
3158 2 4058 4059 4061
3159 2 4059 4061 4062
3160 1 4060 4063 4066
3161 2 4061 4062 4064
3162 2 4062 4064 4065
3163 2 4064 4065 4067
3164 2 4065 4067 4068
3165 1 4069 4072 4075
3166 2 4070 4071 4073
3167 2 4071 4073 4074
3168 3 4072 4075 4078
3169 2 4073 4074 4076
3170 2 4074 4076 4077
3171 3 4075 4078 4081
3172 2 4076 4077 4079
3173 2 4077 4079 4080
3174 1 4078 4081 4084
3175 2 4079 4080 4082
3176 2 4080 4082 4083
3177 2 4082 4083 4085
3178 2 4083 4085 4086
3179 1 4087 4090 4093
3180 2 4088 4089 4091
3181 2 4089 4091 4092
3182 3 4090 4093 4096
3183 2 4091 4092 4094
3184 2 4092 4094 4095
3185 3 4093 4096 4099
3186 2 4094 4095 4097
3187 2 4095 4097 4098
3188 1 4096 4099 4102
3189 2 4097 4098 4100
3190 2 4098 4100 4101
3191 2 4100 4101 4103
3192 2 4101 4103 4104
3193 1 4105 4108 4111
3194 2 4106 4107 4109
3195 2 4107 4109 4110
3196 3 4108 4111 4114
3197 2 4109 4110 4112
3198 2 4110 4112 4113
3199 3 4111 4114 4117
3200 2 4112 4113 4115
3201 2 4113 4115 4116
3202 1 4114 4117 4120
3203 2 4115 4116 4118
3204 2 4116 4118 4119
3205 2 4118 4119 4121
3206 2 4119 4121 4122
3207 1 4123 4126 4129
3208 2 4124 4125 4127
3209 2 4125 4127 4128
3210 3 4126 4129 4132
3211 2 4127 4128 4130
3212 2 4128 4130 4131
3213 3 4129 4132 4135
3214 2 4130 4131 4133
3215 2 4131 4133 4134
3216 1 4132 4135 4138
3217 2 4133 4134 4136
3218 2 4134 4136 4137
3219 2 4136 4137 4139
3220 2 4137 4139 4140
3221 1 4141 4144 4147
3222 2 4142 4143 4145
3223 2 4143 4145 4146
3224 3 4144 4147 4150
3225 2 4145 4146 4148
3226 2 4146 4148 4149
3227 3 4147 4150 4153
3228 2 4148 4149 4151
3229 2 4149 4151 4152
3230 1 4150 4153 4156
3231 2 4151 4152 4154
3232 2 4152 4154 4155
3233 2 4154 4155 4157
3234 2 4155 4157 4158
3235 1 4159 4162 4165
3236 2 4160 4161 4163
3237 2 4161 4163 4164
3238 3 4162 4165 4168
3239 2 4163 4164 4166
3240 2 4164 4166 4167
3241 3 4165 4168 4171
3242 2 4166 4167 4169
3243 2 4167 4169 4170
3244 1 4168 4171 4174
3245 2 4169 4170 4172
3246 2 4170 4172 4173
3247 2 4172 4173 4175
3248 2 4173 4175 4176
3249 1 4177 4180 4183
3250 2 4178 4179 4181
3251 2 4179 4181 4182
3252 3 4180 4183 4186
3253 2 4181 4182 4184
3254 2 4182 4184 4185
3255 3 4183 4186 4189
3256 2 4184 4185 4187
3257 2 4185 4187 4188
3258 1 4186 4189 4192
3259 2 4187 4188 4190
3260 2 4188 4190 4191
3261 2 4190 4191 4193
3262 2 4191 4193 4194
3263 1 4195 4198 4201
3264 2 4196 4197 4199
3265 2 4197 4199 4200
3266 3 4198 4201 4204
3267 2 4199 4200 4202
3268 2 4200 4202 4203
3269 3 4201 4204 4207
3270 2 4202 4203 4205
3271 2 4203 4205 4206
3272 1 4204 4207 4210
3273 2 4205 4206 4208
3274 2 4206 4208 4209
3275 2 4208 4209 4211
3276 2 4209 4211 4212
3277 1 4213 4216 4219
3278 2 4214 4215 4217
3279 2 4215 4217 4218
3280 3 4216 4219 4222
3281 2 4217 4218 4220
3282 2 4218 4220 4221
3283 3 4219 4222 4225
3284 2 4220 4221 4223
3285 2 4221 4223 4224
3286 1 4222 4225 4228
3287 2 4223 4224 4226
3288 2 4224 4226 4227
3289 2 4226 4227 4229
3290 2 4227 4229 4230
3291 1 4231 4234 4237
3292 2 4232 4233 4235
3293 2 4233 4235 4236
3294 3 4234 4237 4240
3295 2 4235 4236 4238
3296 2 4236 4238 4239
3297 3 4237 4240 4243
3298 2 4238 4239 4241
3299 2 4239 4241 4242
3300 1 4240 4243 4246
3301 2 4241 4242 4244
3302 2 4242 4244 4245
3303 2 4244 4245 4247
3304 2 4245 4247 4248
3305 1 4249 4252 4255
3306 2 4250 4251 4253
3307 2 4251 4253 4254
3308 3 4252 4255 4258
3309 2 4253 4254 4256
3310 2 4254 4256 4257
3311 3 4255 4258 4261
3312 2 4256 4257 4259
3313 2 4257 4259 4260
3314 1 4258 4261 4264
3315 2 4259 4260 4262
3316 2 4260 4262 4263
3317 2 4262 4263 4265
3318 2 4263 4265 4266
3319 1 4267 4270 4273
3320 2 4268 4269 4271
3321 2 4269 4271 4272
3322 3 4270 4273 4276
3323 2 4271 4272 4274
3324 2 4272 4274 4275
3325 3 4273 4276 4279
3326 2 4274 4275 4277
3327 2 4275 4277 4278
3328 1 4276 4279 4282
3329 2 4277 4278 4280
3330 2 4278 4280 4281
3331 2 4280 4281 4283
3332 2 4281 4283 4284
3333 1 4285 4288 4291
3334 2 4286 4287 4289
3335 2 4287 4289 4290
3336 3 4288 4291 4294
3337 2 4289 4290 4292
3338 2 4290 4292 4293
3339 3 4291 4294 4297
3340 2 4292 4293 4295
3341 2 4293 4295 4296
3342 1 4294 4297 4300
3343 2 4295 4296 4298
3344 2 4296 4298 4299
3345 2 4298 4299 4301
3346 2 4299 4301 4302
3347 1 4303 4306 4309
3348 2 4304 4305 4307
3349 2 4305 4307 4308
3350 3 4306 4309 4312
3351 2 4307 4308 4310
3352 2 4308 4310 4311
3353 3 4309 4312 4315
3354 2 4310 4311 4313
3355 2 4311 4313 4314
3356 1 4312 4315 4318
3357 2 4313 4314 4316
3358 2 4314 4316 4317
3359 2 4316 4317 4319
3360 2 4317 4319 4320
3361 1 4321 4324 4327
3362 2 4322 4323 4325
3363 2 4323 4325 4326
3364 3 4324 4327 4330
3365 2 4325 4326 4328
3366 2 4326 4328 4329
3367 3 4327 4330 4333
3368 2 4328 4329 4331
3369 2 4329 4331 4332
3370 1 4330 4333 4336
3371 2 4331 4332 4334
3372 2 4332 4334 4335
3373 2 4334 4335 4337
3374 2 4335 4337 4338
3375 1 4339 4342 4345
3376 2 4340 4341 4343
3377 2 4341 4343 4344
3378 3 4342 4345 4348
3379 2 4343 4344 4346
3380 2 4344 4346 4347
3381 3 4345 4348 4351
3382 2 4346 4347 4349
3383 2 4347 4349 4350
3384 1 4348 4351 4354
3385 2 4349 4350 4352
3386 2 4350 4352 4353
3387 2 4352 4353 4355
3388 2 4353 4355 4356
3389 1 4357 4360 4363
3390 2 4358 4359 4361
3391 2 4359 4361 4362
3392 3 4360 4363 4366
3393 2 4361 4362 4364
3394 2 4362 4364 4365
3395 3 4363 4366 4369
3396 2 4364 4365 4367
3397 2 4365 4367 4368
3398 1 4366 4369 4372
3399 2 4367 4368 4370
3400 2 4368 4370 4371
3401 2 4370 4371 4373
3402 2 4371 4373 4374
3403 1 4375 4378 4381
3404 2 4376 4377 4379
3405 2 4377 4379 4380
3406 3 4378 4381 4384
3407 2 4379 4380 4382
3408 2 4380 4382 4383
3409 3 4381 4384 4387
3410 2 4382 4383 4385
3411 2 4383 4385 4386
3412 1 4384 4387 4390
3413 2 4385 4386 4388
3414 2 4386 4388 4389
3415 2 4388 4389 4391
3416 2 4389 4391 4392
3417 1 4393 4396 4399
3418 2 4394 4395 4397
3419 2 4395 4397 4398
3420 3 4396 4399 4402
3421 2 4397 4398 4400
3422 2 4398 4400 4401
3423 3 4399 4402 4405
3424 2 4400 4401 4403
3425 2 4401 4403 4404
3426 1 4402 4405 4408
3427 2 4403 4404 4406
3428 2 4404 4406 4407
3429 2 4406 4407 4409
3430 2 4407 4409 4410
3431 1 4411 4414 4417
3432 2 4412 4413 4415
3433 2 4413 4415 4416
3434 3 4414 4417 4420
3435 2 4415 4416 4418
3436 2 4416 4418 4419
3437 3 4417 4420 4423
3438 2 4418 4419 4421
3439 2 4419 4421 4422
3440 1 4420 4423 4426
3441 2 4421 4422 4424
3442 2 4422 4424 4425
3443 2 4424 4425 4427
3444 2 4425 4427 4428
3445 1 4429 4432 4435
3446 2 4430 4431 4433
3447 2 4431 4433 4434
3448 3 4432 4435 4438
3449 2 4433 4434 4436
3450 2 4434 4436 4437
3451 3 4435 4438 4441
3452 2 4436 4437 4439
3453 2 4437 4439 4440
3454 1 4438 4441 4444
3455 2 4439 4440 4442
3456 2 4440 4442 4443
3457 2 4442 4443 4445
3458 2 4443 4445 4446
3459 1 4447 4450 4453
3460 2 4448 4449 4451
3461 2 4449 4451 4452
3462 3 4450 4453 4456
3463 2 4451 4452 4454
3464 2 4452 4454 4455
3465 3 4453 4456 4459
3466 2 4454 4455 4457
3467 2 4455 4457 4458
3468 1 4456 4459 4462
3469 2 4457 4458 4460
3470 2 4458 4460 4461
3471 2 4460 4461 4463
3472 2 4461 4463 4464
3473 1 4465 4468 4471
3474 2 4466 4467 4469
3475 2 4467 4469 4470
3476 3 4468 4471 4474
3477 2 4469 4470 4472
3478 2 4470 4472 4473
3479 3 4471 4474 4477
3480 2 4472 4473 4475
3481 2 4473 4475 4476
3482 1 4474 4477 4480
3483 2 4475 4476 4478
3484 2 4476 4478 4479
3485 2 4478 4479 4481
3486 2 4479 4481 4482
3487 1 4483 4486 4489
3488 2 4484 4485 4487
3489 2 4485 4487 4488
3490 3 4486 4489 4492
3491 2 4487 4488 4490
3492 2 4488 4490 4491
3493 3 4489 4492 4495
3494 2 4490 4491 4493
3495 2 4491 4493 4494
3496 1 4492 4495 4498
3497 2 4493 4494 4496
3498 2 4494 4496 4497
3499 2 4496 4497 4499
3500 2 4497 4499 4500
3501 1 4501 4504 4507
3502 2 4502 4503 4505
3503 2 4503 4505 4506
3504 3 4504 4507 4510
3505 2 4505 4506 4508
3506 2 4506 4508 4509
3507 3 4507 4510 4513
3508 2 4508 4509 4511
3509 2 4509 4511 4512
3510 1 4510 4513 4516
3511 2 4511 4512 4514
3512 2 4512 4514 4515
3513 2 4514 4515 4517
3514 2 4515 4517 4518
3515 1 4519 4522 4525
3516 2 4520 4521 4523
3517 2 4521 4523 4524
3518 3 4522 4525 4528
3519 2 4523 4524 4526
3520 2 4524 4526 4527
3521 3 4525 4528 4531
3522 2 4526 4527 4529
3523 2 4527 4529 4530
3524 1 4528 4531 4534
3525 2 4529 4530 4532
3526 2 4530 4532 4533
3527 2 4532 4533 4535
3528 2 4533 4535 4536
3529 1 4537 4540 4543
3530 2 4538 4539 4541
3531 2 4539 4541 4542
3532 3 4540 4543 4546
3533 2 4541 4542 4544
3534 2 4542 4544 4545
3535 3 4543 4546 4549
3536 2 4544 4545 4547
3537 2 4545 4547 4548
3538 1 4546 4549 4552
3539 2 4547 4548 4550
3540 2 4548 4550 4551
3541 2 4550 4551 4553
3542 2 4551 4553 4554
3543 1 4555 4558 4561
3544 2 4556 4557 4559
3545 2 4557 4559 4560
3546 3 4558 4561 4564
3547 2 4559 4560 4562
3548 2 4560 4562 4563
3549 3 4561 4564 4567
3550 2 4562 4563 4565
3551 2 4563 4565 4566
3552 1 4564 4567 4570
3553 2 4565 4566 4568
3554 2 4566 4568 4569
3555 2 4568 4569 4571
3556 2 4569 4571 4572
3557 1 4573 4576 4579
3558 2 4574 4575 4577
3559 2 4575 4577 4578
3560 3 4576 4579 4582
3561 2 4577 4578 4580
3562 2 4578 4580 4581
3563 3 4579 4582 4585
3564 2 4580 4581 4583
3565 2 4581 4583 4584
3566 1 4582 4585 4588
3567 2 4583 4584 4586
3568 2 4584 4586 4587
3569 2 4586 4587 4589
3570 2 4587 4589 4590
3571 1 4591 4594 4597
3572 2 4592 4593 4595
3573 2 4593 4595 4596
3574 3 4594 4597 4600
3575 2 4595 4596 4598
3576 2 4596 4598 4599
3577 3 4597 4600 4603
3578 2 4598 4599 4601
3579 2 4599 4601 4602
3580 1 4600 4603 4606
3581 2 4601 4602 4604
3582 2 4602 4604 4605
3583 2 4604 4605 4607
3584 2 4605 4607 4608
3585 1 4609 4612 4615
3586 2 4610 4611 4613
3587 2 4611 4613 4614
3588 3 4612 4615 4618
3589 2 4613 4614 4616
3590 2 4614 4616 4617
3591 3 4615 4618 4621
3592 2 4616 4617 4619
3593 2 4617 4619 4620
3594 1 4618 4621 4624
3595 2 4619 4620 4622
3596 2 4620 4622 4623
3597 2 4622 4623 4625
3598 2 4623 4625 4626
3599 1 4627 4630 4633
3600 2 4628 4629 4631
3601 2 4629 4631 4632
3602 3 4630 4633 4636
3603 2 4631 4632 4634
3604 2 4632 4634 4635
3605 3 4633 4636 4639
3606 2 4634 4635 4637
3607 2 4635 4637 4638
3608 1 4636 4639 4642
3609 2 4637 4638 4640
3610 2 4638 4640 4641
3611 2 4640 4641 4643
3612 2 4641 4643 4644
3613 1 4645 4648 4651
3614 2 4646 4647 4649
3615 2 4647 4649 4650
3616 3 4648 4651 4654
3617 2 4649 4650 4652
3618 2 4650 4652 4653
3619 3 4651 4654 4657
3620 2 4652 4653 4655
3621 2 4653 4655 4656
3622 1 4654 4657 4660
3623 2 4655 4656 4658
3624 2 4656 4658 4659
3625 2 4658 4659 4661
3626 2 4659 4661 4662
3627 1 4663 4666 4669
3628 2 4664 4665 4667
3629 2 4665 4667 4668
3630 3 4666 4669 4672
3631 2 4667 4668 4670
3632 2 4668 4670 4671
3633 3 4669 4672 4675
3634 2 4670 4671 4673
3635 2 4671 4673 4674
3636 1 4672 4675 4678
3637 2 4673 4674 4676
3638 2 4674 4676 4677
3639 2 4676 4677 4679
3640 2 4677 4679 4680
3641 1 4681 4684 4687
3642 2 4682 4683 4685
3643 2 4683 4685 4686
3644 3 4684 4687 4690
3645 2 4685 4686 4688
3646 2 4686 4688 4689
3647 3 4687 4690 4693
3648 2 4688 4689 4691
3649 2 4689 4691 4692
3650 1 4690 4693 4696
3651 2 4691 4692 4694
3652 2 4692 4694 4695
3653 2 4694 4695 4697
3654 2 4695 4697 4698
3655 1 4699 4702 4705
3656 2 4700 4701 4703
3657 2 4701 4703 4704
3658 3 4702 4705 4708
3659 2 4703 4704 4706
3660 2 4704 4706 4707
3661 3 4705 4708 4711
3662 2 4706 4707 4709
3663 2 4707 4709 4710
3664 1 4708 4711 4714
3665 2 4709 4710 4712
3666 2 4710 4712 4713
3667 2 4712 4713 4715
3668 2 4713 4715 4716
3669 1 4717 4720 4723
3670 2 4718 4719 4721
3671 2 4719 4721 4722
3672 3 4720 4723 4726
3673 2 4721 4722 4724
3674 2 4722 4724 4725
3675 3 4723 4726 4729
3676 2 4724 4725 4727
3677 2 4725 4727 4728
3678 1 4726 4729 4732
3679 2 4727 4728 4730
3680 2 4728 4730 4731
3681 2 4730 4731 4733
3682 2 4731 4733 4734
3683 1 4735 4738 4741
3684 2 4736 4737 4739
3685 2 4737 4739 4740
3686 3 4738 4741 4744
3687 2 4739 4740 4742
3688 2 4740 4742 4743
3689 3 4741 4744 4747
3690 2 4742 4743 4745
3691 2 4743 4745 4746
3692 1 4744 4747 4750
3693 2 4745 4746 4748
3694 2 4746 4748 4749
3695 2 4748 4749 4751
3696 2 4749 4751 4752
3697 1 4753 4756 4759
3698 2 4754 4755 4757
3699 2 4755 4757 4758
3700 3 4756 4759 4762
3701 2 4757 4758 4760
3702 2 4758 4760 4761
3703 3 4759 4762 4765
3704 2 4760 4761 4763
3705 2 4761 4763 4764
3706 1 4762 4765 4768
3707 2 4763 4764 4766
3708 2 4764 4766 4767
3709 2 4766 4767 4769
3710 2 4767 4769 4770
3711 1 4771 4774 4777
3712 2 4772 4773 4775
3713 2 4773 4775 4776
3714 3 4774 4777 4780
3715 2 4775 4776 4778
3716 2 4776 4778 4779
3717 3 4777 4780 4783
3718 2 4778 4779 4781
3719 2 4779 4781 4782
3720 1 4780 4783 4786
3721 2 4781 4782 4784
3722 2 4782 4784 4785
3723 2 4784 4785 4787
3724 2 4785 4787 4788
3725 1 4789 4792 4795
3726 2 4790 4791 4793
3727 2 4791 4793 4794
3728 3 4792 4795 4798
3729 2 4793 4794 4796
3730 2 4794 4796 4797
3731 3 4795 4798 4801
3732 2 4796 4797 4799
3733 2 4797 4799 4800
3734 1 4798 4801 4804
3735 2 4799 4800 4802
3736 2 4800 4802 4803
3737 2 4802 4803 4805
3738 2 4803 4805 4806
3739 1 4807 4810 4813
3740 2 4808 4809 4811
3741 2 4809 4811 4812
3742 3 4810 4813 4816
3743 2 4811 4812 4814
3744 2 4812 4814 4815
3745 3 4813 4816 4819
3746 2 4814 4815 4817
3747 2 4815 4817 4818
3748 1 4816 4819 4822
3749 2 4817 4818 4820
3750 2 4818 4820 4821
3751 2 4820 4821 4823
3752 2 4821 4823 4824
3753 1 4825 4828 4831
3754 2 4826 4827 4829
3755 2 4827 4829 4830
3756 3 4828 4831 4834
3757 2 4829 4830 4832
3758 2 4830 4832 4833
3759 3 4831 4834 4837
3760 2 4832 4833 4835
3761 2 4833 4835 4836
3762 1 4834 4837 4840
3763 2 4835 4836 4838
3764 2 4836 4838 4839
3765 2 4838 4839 4841
3766 2 4839 4841 4842
3767 1 4843 4846 4849
3768 2 4844 4845 4847
3769 2 4845 4847 4848
3770 3 4846 4849 4852
3771 2 4847 4848 4850
3772 2 4848 4850 4851
3773 3 4849 4852 4855
3774 2 4850 4851 4853
3775 2 4851 4853 4854
3776 1 4852 4855 4858
3777 2 4853 4854 4856
3778 2 4854 4856 4857
3779 2 4856 4857 4859
3780 2 4857 4859 4860
3781 1 4861 4864 4867
3782 2 4862 4863 4865
3783 2 4863 4865 4866
3784 3 4864 4867 4870
3785 2 4865 4866 4868
3786 2 4866 4868 4869
3787 3 4867 4870 4873
3788 2 4868 4869 4871
3789 2 4869 4871 4872
3790 1 4870 4873 4876
3791 2 4871 4872 4874
3792 2 4872 4874 4875
3793 2 4874 4875 4877
3794 2 4875 4877 4878
3795 1 4879 4882 4885
3796 2 4880 4881 4883
3797 2 4881 4883 4884
3798 3 4882 4885 4888
3799 2 4883 4884 4886
3800 2 4884 4886 4887
3801 3 4885 4888 4891
3802 2 4886 4887 4889
3803 2 4887 4889 4890
3804 1 4888 4891 4894
3805 2 4889 4890 4892
3806 2 4890 4892 4893
3807 2 4892 4893 4895
3808 2 4893 4895 4896
3809 1 4897 4900 4903
3810 2 4898 4899 4901
3811 2 4899 4901 4902
3812 3 4900 4903 4906
3813 2 4901 4902 4904
3814 2 4902 4904 4905
3815 3 4903 4906 4909
3816 2 4904 4905 4907
3817 2 4905 4907 4908
3818 1 4906 4909 4912
3819 2 4907 4908 4910
3820 2 4908 4910 4911
3821 2 4910 4911 4913
3822 2 4911 4913 4914
3823 1 4915 4918 4921
3824 2 4916 4917 4919
3825 2 4917 4919 4920
3826 3 4918 4921 4924
3827 2 4919 4920 4922
3828 2 4920 4922 4923
3829 3 4921 4924 4927
3830 2 4922 4923 4925
3831 2 4923 4925 4926
3832 1 4924 4927 4930
3833 2 4925 4926 4928
3834 2 4926 4928 4929
3835 2 4928 4929 4931
3836 2 4929 4931 4932
3837 1 4933 4936 4939
3838 2 4934 4935 4937
3839 2 4935 4937 4938
3840 3 4936 4939 4942
3841 2 4937 4938 4940
3842 2 4938 4940 4941
3843 3 4939 4942 4945
3844 2 4940 4941 4943
3845 2 4941 4943 4944
3846 1 4942 4945 4948
3847 2 4943 4944 4946
3848 2 4944 4946 4947
3849 2 4946 4947 4949
3850 2 4947 4949 4950
3851 1 4951 4954 4957
3852 2 4952 4953 4955
3853 2 4953 4955 4956
3854 3 4954 4957 4960
3855 2 4955 4956 4958
3856 2 4956 4958 4959
3857 3 4957 4960 4963
3858 2 4958 4959 4961
3859 2 4959 4961 4962
3860 1 4960 4963 4966
3861 2 4961 4962 4964
3862 2 4962 4964 4965
3863 2 4964 4965 4967
3864 2 4965 4967 4968
3865 1 4969 4972 4975
3866 2 4970 4971 4973
3867 2 4971 4973 4974
3868 3 4972 4975 4978
3869 2 4973 4974 4976
3870 2 4974 4976 4977
3871 3 4975 4978 4981
3872 2 4976 4977 4979
3873 2 4977 4979 4980
3874 1 4978 4981 4984
3875 2 4979 4980 4982
3876 2 4980 4982 4983
3877 2 4982 4983 4985
3878 2 4983 4985 4986
3879 1 4987 4990 4993
3880 2 4988 4989 4991
3881 2 4989 4991 4992
3882 3 4990 4993 4996
3883 2 4991 4992 4994
3884 2 4992 4994 4995
3885 3 4993 4996 4999
3886 2 4994 4995 4997
3887 2 4995 4997 4998
3888 1 4996 4999 5002
3889 2 4997 4998 5000
3890 2 4998 5000 5001
3891 2 5000 5001 5003
3892 2 5001 5003 5004
3893 1 5005 5008 5011
3894 2 5006 5007 5009
3895 2 5007 5009 5010
3896 3 5008 5011 5014
3897 2 5009 5010 5012
3898 2 5010 5012 5013
3899 3 5011 5014 5017
3900 2 5012 5013 5015
3901 2 5013 5015 5016
3902 1 5014 5017 5020
3903 2 5015 5016 5018
3904 2 5016 5018 5019
3905 2 5018 5019 5021
3906 2 5019 5021 5022
3907 1 5023 5026 5029
3908 2 5024 5025 5027
3909 2 5025 5027 5028
3910 3 5026 5029 5032
3911 2 5027 5028 5030
3912 2 5028 5030 5031
3913 3 5029 5032 5035
3914 2 5030 5031 5033
3915 2 5031 5033 5034
3916 1 5032 5035 5038
3917 2 5033 5034 5036
3918 2 5034 5036 5037
3919 2 5036 5037 5039
3920 2 5037 5039 5040
3921 1 5041 5044 5047
3922 2 5042 5043 5045
3923 2 5043 5045 5046
3924 3 5044 5047 5050
3925 2 5045 5046 5048
3926 2 5046 5048 5049
3927 3 5047 5050 5053
3928 2 5048 5049 5051
3929 2 5049 5051 5052
3930 1 5050 5053 5056
3931 2 5051 5052 5054
3932 2 5052 5054 5055
3933 2 5054 5055 5057
3934 2 5055 5057 5058
3935 1 5059 5062 5065
3936 2 5060 5061 5063
3937 2 5061 5063 5064
3938 3 5062 5065 5068
3939 2 5063 5064 5066
3940 2 5064 5066 5067
3941 3 5065 5068 5071
3942 2 5066 5067 5069
3943 2 5067 5069 5070
3944 1 5068 5071 5074
3945 2 5069 5070 5072
3946 2 5070 5072 5073
3947 2 5072 5073 5075
3948 2 5073 5075 5076
3949 1 5077 5080 5083
3950 2 5078 5079 5081
3951 2 5079 5081 5082
3952 3 5080 5083 5086
3953 2 5081 5082 5084
3954 2 5082 5084 5085
3955 3 5083 5086 5089
3956 2 5084 5085 5087
3957 2 5085 5087 5088
3958 1 5086 5089 5092
3959 2 5087 5088 5090
3960 2 5088 5090 5091
3961 2 5090 5091 5093
3962 2 5091 5093 5094
3963 1 5095 5098 5101
3964 2 5096 5097 5099
3965 2 5097 5099 5100
3966 3 5098 5101 5104
3967 2 5099 5100 5102
3968 2 5100 5102 5103
3969 3 5101 5104 5107
3970 2 5102 5103 5105
3971 2 5103 5105 5106
3972 1 5104 5107 5110
3973 2 5105 5106 5108
3974 2 5106 5108 5109
3975 2 5108 5109 5111
3976 2 5109 5111 5112
3977 1 5113 5116 5119
3978 2 5114 5115 5117
3979 2 5115 5117 5118
3980 3 5116 5119 5122
3981 2 5117 5118 5120
3982 2 5118 5120 5121
3983 3 5119 5122 5125
3984 2 5120 5121 5123
3985 2 5121 5123 5124
3986 1 5122 5125 5128
3987 2 5123 5124 5126
3988 2 5124 5126 5127
3989 2 5126 5127 5129
3990 2 5127 5129 5130
3991 1 5131 5134 5137
3992 2 5132 5133 5135
3993 2 5133 5135 5136
3994 3 5134 5137 5140
3995 2 5135 5136 5138
3996 2 5136 5138 5139
3997 3 5137 5140 5143
3998 2 5138 5139 5141
3999 2 5139 5141 5142
4000 1 5140 5143 5146
4001 2 5141 5142 5144
4002 2 5142 5144 5145
4003 2 5144 5145 5147
4004 2 5145 5147 5148
4005 1 5149 5152 5155
4006 2 5150 5151 5153
4007 2 5151 5153 5154
4008 3 5152 5155 5158
4009 2 5153 5154 5156
4010 2 5154 5156 5157
4011 3 5155 5158 5161
4012 2 5156 5157 5159
4013 2 5157 5159 5160
4014 1 5158 5161 5164
4015 2 5159 5160 5162
4016 2 5160 5162 5163
4017 2 5162 5163 5165
4018 2 5163 5165 5166
4019 1 5167 5170 5173
4020 2 5168 5169 5171
4021 2 5169 5171 5172
4022 3 5170 5173 5176
4023 2 5171 5172 5174
4024 2 5172 5174 5175
4025 3 5173 5176 5179
4026 2 5174 5175 5177
4027 2 5175 5177 5178
4028 1 5176 5179 5182
4029 2 5177 5178 5180
4030 2 5178 5180 5181
4031 2 5180 5181 5183
4032 2 5181 5183 5184
4033 1 5185 5188 5191
4034 2 5186 5187 5189
4035 2 5187 5189 5190
4036 3 5188 5191 5194
4037 2 5189 5190 5192
4038 2 5190 5192 5193
4039 3 5191 5194 5197
4040 2 5192 5193 5195
4041 2 5193 5195 5196
4042 1 5194 5197 5200
4043 2 5195 5196 5198
4044 2 5196 5198 5199
4045 2 5198 5199 5201
4046 2 5199 5201 5202
4047 1 5203 5206 5209
4048 2 5204 5205 5207
4049 2 5205 5207 5208
4050 3 5206 5209 5212
4051 2 5207 5208 5210
4052 2 5208 5210 5211
4053 3 5209 5212 5215
4054 2 5210 5211 5213
4055 2 5211 5213 5214
4056 1 5212 5215 5218
4057 2 5213 5214 5216
4058 2 5214 5216 5217
4059 2 5216 5217 5219
4060 2 5217 5219 5220
4061 1 5221 5224 5227
4062 2 5222 5223 5225
4063 2 5223 5225 5226
4064 3 5224 5227 5230
4065 2 5225 5226 5228
4066 2 5226 5228 5229
4067 3 5227 5230 5233
4068 2 5228 5229 5231
4069 2 5229 5231 5232
4070 1 5230 5233 5236
4071 2 5231 5232 5234
4072 2 5232 5234 5235
4073 2 5234 5235 5237
4074 2 5235 5237 5238
4075 1 5239 5242 5245
4076 2 5240 5241 5243
4077 2 5241 5243 5244
4078 3 5242 5245 5248
4079 2 5243 5244 5246
4080 2 5244 5246 5247
4081 3 5245 5248 5251
4082 2 5246 5247 5249
4083 2 5247 5249 5250
4084 1 5248 5251 5254
4085 2 5249 5250 5252
4086 2 5250 5252 5253
4087 2 5252 5253 5255
4088 2 5253 5255 5256
4089 1 5257 5260 5263
4090 2 5258 5259 5261
4091 2 5259 5261 5262
4092 3 5260 5263 5266
4093 2 5261 5262 5264
4094 2 5262 5264 5265
4095 3 5263 5266 5269
4096 2 5264 5265 5267
4097 2 5265 5267 5268
4098 1 5266 5269 5272
4099 2 5267 5268 5270
4100 2 5268 5270 5271
4101 2 5270 5271 5273
4102 2 5271 5273 5274
4103 1 5275 5278 5281
4104 2 5276 5277 5279
4105 2 5277 5279 5280
4106 3 5278 5281 5284
4107 2 5279 5280 5282
4108 2 5280 5282 5283
4109 3 5281 5284 5287
4110 2 5282 5283 5285
4111 2 5283 5285 5286
4112 1 5284 5287 5290
4113 2 5285 5286 5288
4114 2 5286 5288 5289
4115 2 5288 5289 5291
4116 2 5289 5291 5292
4117 1 5293 5296 5299
4118 2 5294 5295 5297
4119 2 5295 5297 5298
4120 3 5296 5299 5302
4121 2 5297 5298 5300
4122 2 5298 5300 5301
4123 3 5299 5302 5305
4124 2 5300 5301 5303
4125 2 5301 5303 5304
4126 1 5302 5305 5308
4127 2 5303 5304 5306
4128 2 5304 5306 5307
4129 2 5306 5307 5309
4130 2 5307 5309 5310
4131 1 5311 5314 5317
4132 2 5312 5313 5315
4133 2 5313 5315 5316
4134 3 5314 5317 5320
4135 2 5315 5316 5318
4136 2 5316 5318 5319
4137 3 5317 5320 5323
4138 2 5318 5319 5321
4139 2 5319 5321 5322
4140 1 5320 5323 5326
4141 2 5321 5322 5324
4142 2 5322 5324 5325
4143 2 5324 5325 5327
4144 2 5325 5327 5328
4145 1 5329 5332 5335
4146 2 5330 5331 5333
4147 2 5331 5333 5334
4148 3 5332 5335 5338
4149 2 5333 5334 5336
4150 2 5334 5336 5337
4151 3 5335 5338 5341
4152 2 5336 5337 5339
4153 2 5337 5339 5340
4154 1 5338 5341 5344
4155 2 5339 5340 5342
4156 2 5340 5342 5343
4157 2 5342 5343 5345
4158 2 5343 5345 5346
4159 1 5347 5350 5353
4160 2 5348 5349 5351
4161 2 5349 5351 5352
4162 3 5350 5353 5356
4163 2 5351 5352 5354
4164 2 5352 5354 5355
4165 3 5353 5356 5359
4166 2 5354 5355 5357
4167 2 5355 5357 5358
4168 1 5356 5359 5362
4169 2 5357 5358 5360
4170 2 5358 5360 5361
4171 2 5360 5361 5363
4172 2 5361 5363 5364
4173 1 5365 5368 5371
4174 2 5366 5367 5369
4175 2 5367 5369 5370
4176 3 5368 5371 5374
4177 2 5369 5370 5372
4178 2 5370 5372 5373
4179 3 5371 5374 5377
4180 2 5372 5373 5375
4181 2 5373 5375 5376
4182 1 5374 5377 5380
4183 2 5375 5376 5378
4184 2 5376 5378 5379
4185 2 5378 5379 5381
4186 2 5379 5381 5382
4187 1 5383 5386 5389
4188 2 5384 5385 5387
4189 2 5385 5387 5388
4190 3 5386 5389 5392
4191 2 5387 5388 5390
4192 2 5388 5390 5391
4193 3 5389 5392 5395
4194 2 5390 5391 5393
4195 2 5391 5393 5394
4196 1 5392 5395 5398
4197 2 5393 5394 5396
4198 2 5394 5396 5397
4199 2 5396 5397 5399
4200 2 5397 5399 5400
4201 1 5401 5404 5407
4202 2 5402 5403 5405
4203 2 5403 5405 5406
4204 3 5404 5407 5410
4205 2 5405 5406 5408
4206 2 5406 5408 5409
4207 3 5407 5410 5413
4208 2 5408 5409 5411
4209 2 5409 5411 5412
4210 1 5410 5413 5416
4211 2 5411 5412 5414
4212 2 5412 5414 5415
4213 2 5414 5415 5417
4214 2 5415 5417 5418
4215 1 5419 5422 5425
4216 2 5420 5421 5423
4217 2 5421 5423 5424
4218 3 5422 5425 5428
4219 2 5423 5424 5426
4220 2 5424 5426 5427
4221 3 5425 5428 5431
4222 2 5426 5427 5429
4223 2 5427 5429 5430
4224 1 5428 5431 5434
4225 2 5429 5430 5432
4226 2 5430 5432 5433
4227 2 5432 5433 5435
4228 2 5433 5435 5436
4229 1 5437 5440 5443
4230 2 5438 5439 5441
4231 2 5439 5441 5442
4232 3 5440 5443 5446
4233 2 5441 5442 5444
4234 2 5442 5444 5445
4235 3 5443 5446 5449
4236 2 5444 5445 5447
4237 2 5445 5447 5448
4238 1 5446 5449 5452
4239 2 5447 5448 5450
4240 2 5448 5450 5451
4241 2 5450 5451 5453
4242 2 5451 5453 5454
4243 1 5455 5458 5461
4244 2 5456 5457 5459
4245 2 5457 5459 5460
4246 3 5458 5461 5464
4247 2 5459 5460 5462
4248 2 5460 5462 5463
4249 3 5461 5464 5467
4250 2 5462 5463 5465
4251 2 5463 5465 5466
4252 1 5464 5467 5470
4253 2 5465 5466 5468
4254 2 5466 5468 5469
4255 2 5468 5469 5471
4256 2 5469 5471 5472
4257 1 5473 5476 5479
4258 2 5474 5475 5477
4259 2 5475 5477 5478
4260 3 5476 5479 5482
4261 2 5477 5478 5480
4262 2 5478 5480 5481
4263 3 5479 5482 5485
4264 2 5480 5481 5483
4265 2 5481 5483 5484
4266 1 5482 5485 5488
4267 2 5483 5484 5486
4268 2 5484 5486 5487
4269 2 5486 5487 5489
4270 2 5487 5489 5490
4271 1 5491 5494 5497
4272 2 5492 5493 5495
4273 2 5493 5495 5496
4274 3 5494 5497 5500
4275 2 5495 5496 5498
4276 2 5496 5498 5499
4277 3 5497 5500 5503
4278 2 5498 5499 5501
4279 2 5499 5501 5502
4280 1 5500 5503 5506
4281 2 5501 5502 5504
4282 2 5502 5504 5505
4283 2 5504 5505 5507
4284 2 5505 5507 5508
4285 1 5509 5512 5515
4286 2 5510 5511 5513
4287 2 5511 5513 5514
4288 3 5512 5515 5518
4289 2 5513 5514 5516
4290 2 5514 5516 5517
4291 3 5515 5518 5521
4292 2 5516 5517 5519
4293 2 5517 5519 5520
4294 1 5518 5521 5524
4295 2 5519 5520 5522
4296 2 5520 5522 5523
4297 2 5522 5523 5525
4298 2 5523 5525 5526
4299 1 5527 5530 5533
4300 2 5528 5529 5531
4301 2 5529 5531 5532
4302 3 5530 5533 5536
4303 2 5531 5532 5534
4304 2 5532 5534 5535
4305 3 5533 5536 5539
4306 2 5534 5535 5537
4307 2 5535 5537 5538
4308 1 5536 5539 5542
4309 2 5537 5538 5540
4310 2 5538 5540 5541
4311 2 5540 5541 5543
4312 2 5541 5543 5544
4313 1 5545 5548 5551
4314 2 5546 5547 5549
4315 2 5547 5549 5550
4316 3 5548 5551 5554
4317 2 5549 5550 5552
4318 2 5550 5552 5553
4319 3 5551 5554 5557
4320 2 5552 5553 5555
4321 2 5553 5555 5556
4322 1 5554 5557 5560
4323 2 5555 5556 5558
4324 2 5556 5558 5559
4325 2 5558 5559 5561
4326 2 5559 5561 5562
4327 1 5563 5566 5569
4328 2 5564 5565 5567
4329 2 5565 5567 5568
4330 3 5566 5569 5572
4331 2 5567 5568 5570
4332 2 5568 5570 5571
4333 3 5569 5572 5575
4334 2 5570 5571 5573
4335 2 5571 5573 5574
4336 1 5572 5575 5578
4337 2 5573 5574 5576
4338 2 5574 5576 5577
4339 2 5576 5577 5579
4340 2 5577 5579 5580
4341 1 5581 5584 5587
4342 2 5582 5583 5585
4343 2 5583 5585 5586
4344 3 5584 5587 5590
4345 2 5585 5586 5588
4346 2 5586 5588 5589
4347 3 5587 5590 5593
4348 2 5588 5589 5591
4349 2 5589 5591 5592
4350 1 5590 5593 5596
4351 2 5591 5592 5594
4352 2 5592 5594 5595
4353 2 5594 5595 5597
4354 2 5595 5597 5598
4355 1 5599 5602 5605
4356 2 5600 5601 5603
4357 2 5601 5603 5604
4358 3 5602 5605 5608
4359 2 5603 5604 5606
4360 2 5604 5606 5607
4361 3 5605 5608 5611
4362 2 5606 5607 5609
4363 2 5607 5609 5610
4364 1 5608 5611 5614
4365 2 5609 5610 5612
4366 2 5610 5612 5613
4367 2 5612 5613 5615
4368 2 5613 5615 5616
4369 1 5617 5620 5623
4370 2 5618 5619 5621
4371 2 5619 5621 5622
4372 3 5620 5623 5626
4373 2 5621 5622 5624
4374 2 5622 5624 5625
4375 3 5623 5626 5629
4376 2 5624 5625 5627
4377 2 5625 5627 5628
4378 1 5626 5629 5632
4379 2 5627 5628 5630
4380 2 5628 5630 5631
4381 2 5630 5631 5633
4382 2 5631 5633 5634
4383 1 5635 5638 5641
4384 2 5636 5637 5639
4385 2 5637 5639 5640
4386 3 5638 5641 5644
4387 2 5639 5640 5642
4388 2 5640 5642 5643
4389 3 5641 5644 5647
4390 2 5642 5643 5645
4391 2 5643 5645 5646
4392 1 5644 5647 5650
4393 2 5645 5646 5648
4394 2 5646 5648 5649
4395 2 5648 5649 5651
4396 2 5649 5651 5652
4397 1 5653 5656 5659
4398 2 5654 5655 5657
4399 2 5655 5657 5658
4400 3 5656 5659 5662
4401 2 5657 5658 5660
4402 2 5658 5660 5661
4403 3 5659 5662 5665
4404 2 5660 5661 5663
4405 2 5661 5663 5664
4406 1 5662 5665 5668
4407 2 5663 5664 5666
4408 2 5664 5666 5667
4409 2 5666 5667 5669
4410 2 5667 5669 5670
4411 1 5671 5674 5677
4412 2 5672 5673 5675
4413 2 5673 5675 5676
4414 3 5674 5677 5680
4415 2 5675 5676 5678
4416 2 5676 5678 5679
4417 3 5677 5680 5683
4418 2 5678 5679 5681
4419 2 5679 5681 5682
4420 1 5680 5683 5686
4421 2 5681 5682 5684
4422 2 5682 5684 5685
4423 2 5684 5685 5687
4424 2 5685 5687 5688
4425 1 5689 5692 5695
4426 2 5690 5691 5693
4427 2 5691 5693 5694
4428 3 5692 5695 5698
4429 2 5693 5694 5696
4430 2 5694 5696 5697
4431 3 5695 5698 5701
4432 2 5696 5697 5699
4433 2 5697 5699 5700
4434 1 5698 5701 5704
4435 2 5699 5700 5702
4436 2 5700 5702 5703
4437 2 5702 5703 5705
4438 2 5703 5705 5706
4439 1 5707 5710 5713
4440 2 5708 5709 5711
4441 2 5709 5711 5712
4442 3 5710 5713 5716
4443 2 5711 5712 5714
4444 2 5712 5714 5715
4445 3 5713 5716 5719
4446 2 5714 5715 5717
4447 2 5715 5717 5718
4448 1 5716 5719 5722
4449 2 5717 5718 5720
4450 2 5718 5720 5721
4451 2 5720 5721 5723
4452 2 5721 5723 5724
4453 1 5725 5728 5731
4454 2 5726 5727 5729
4455 2 5727 5729 5730
4456 3 5728 5731 5734
4457 2 5729 5730 5732
4458 2 5730 5732 5733
4459 3 5731 5734 5737
4460 2 5732 5733 5735
4461 2 5733 5735 5736
4462 1 5734 5737 5740
4463 2 5735 5736 5738
4464 2 5736 5738 5739
4465 2 5738 5739 5741
4466 2 5739 5741 5742
4467 1 5743 5746 5749
4468 2 5744 5745 5747
4469 2 5745 5747 5748
4470 3 5746 5749 5752
4471 2 5747 5748 5750
4472 2 5748 5750 5751
4473 3 5749 5752 5755
4474 2 5750 5751 5753
4475 2 5751 5753 5754
4476 1 5752 5755 5758
4477 2 5753 5754 5756
4478 2 5754 5756 5757
4479 2 5756 5757 5759
4480 2 5757 5759 5760
4481 1 5761 5764 5767
4482 2 5762 5763 5765
4483 2 5763 5765 5766
4484 3 5764 5767 5770
4485 2 5765 5766 5768
4486 2 5766 5768 5769
4487 3 5767 5770 5773
4488 2 5768 5769 5771
4489 2 5769 5771 5772
4490 1 5770 5773 5776
4491 2 5771 5772 5774
4492 2 5772 5774 5775
4493 2 5774 5775 5777
4494 2 5775 5777 5778
4495 1 5779 5782 5785
4496 2 5780 5781 5783
4497 2 5781 5783 5784
4498 3 5782 5785 5788
4499 2 5783 5784 5786
4500 2 5784 5786 5787
4501 3 5785 5788 5791
4502 2 5786 5787 5789
4503 2 5787 5789 5790
4504 1 5788 5791 5794
4505 2 5789 5790 5792
4506 2 5790 5792 5793
4507 2 5792 5793 5795
4508 2 5793 5795 5796
4509 1 5797 5800 5803
4510 2 5798 5799 5801
4511 2 5799 5801 5802
4512 3 5800 5803 5806
4513 2 5801 5802 5804
4514 2 5802 5804 5805
4515 3 5803 5806 5809
4516 2 5804 5805 5807
4517 2 5805 5807 5808
4518 1 5806 5809 5812
4519 2 5807 5808 5810
4520 2 5808 5810 5811
4521 2 5810 5811 5813
4522 2 5811 5813 5814
4523 1 5815 5818 5821
4524 2 5816 5817 5819
4525 2 5817 5819 5820
4526 3 5818 5821 5824
4527 2 5819 5820 5822
4528 2 5820 5822 5823
4529 3 5821 5824 5827
4530 2 5822 5823 5825
4531 2 5823 5825 5826
4532 1 5824 5827 5830
4533 2 5825 5826 5828
4534 2 5826 5828 5829
4535 2 5828 5829 5831
4536 2 5829 5831 5832
4537 1 5833 5836 5839
4538 2 5834 5835 5837
4539 2 5835 5837 5838
4540 3 5836 5839 5842
4541 2 5837 5838 5840
4542 2 5838 5840 5841
4543 3 5839 5842 5845
4544 2 5840 5841 5843
4545 2 5841 5843 5844
4546 1 5842 5845 5848
4547 2 5843 5844 5846
4548 2 5844 5846 5847
4549 2 5846 5847 5849
4550 2 5847 5849 5850
4551 1 5851 5854 5857
4552 2 5852 5853 5855
4553 2 5853 5855 5856
4554 3 5854 5857 5860
4555 2 5855 5856 5858
4556 2 5856 5858 5859
4557 3 5857 5860 5863
4558 2 5858 5859 5861
4559 2 5859 5861 5862
4560 1 5860 5863 5866
4561 2 5861 5862 5864
4562 2 5862 5864 5865
4563 2 5864 5865 5867
4564 2 5865 5867 5868
4565 1 5869 5872 5875
4566 2 5870 5871 5873
4567 2 5871 5873 5874
4568 3 5872 5875 5878
4569 2 5873 5874 5876
4570 2 5874 5876 5877
4571 3 5875 5878 5881
4572 2 5876 5877 5879
4573 2 5877 5879 5880
4574 1 5878 5881 5884
4575 2 5879 5880 5882
4576 2 5880 5882 5883
4577 2 5882 5883 5885
4578 2 5883 5885 5886
4579 1 5887 5890 5893
4580 2 5888 5889 5891
4581 2 5889 5891 5892
4582 3 5890 5893 5896
4583 2 5891 5892 5894
4584 2 5892 5894 5895
4585 3 5893 5896 5899
4586 2 5894 5895 5897
4587 2 5895 5897 5898
4588 1 5896 5899 5902
4589 2 5897 5898 5900
4590 2 5898 5900 5901
4591 2 5900 5901 5903
4592 2 5901 5903 5904
4593 1 5905 5908 5911
4594 2 5906 5907 5909
4595 2 5907 5909 5910
4596 3 5908 5911 5914
4597 2 5909 5910 5912
4598 2 5910 5912 5913
4599 3 5911 5914 5917
4600 2 5912 5913 5915
4601 2 5913 5915 5916
4602 1 5914 5917 5920
4603 2 5915 5916 5918
4604 2 5916 5918 5919
4605 2 5918 5919 5921
4606 2 5919 5921 5922
4607 1 5923 5926 5929
4608 2 5924 5925 5927
4609 2 5925 5927 5928
4610 3 5926 5929 5932
4611 2 5927 5928 5930
4612 2 5928 5930 5931
4613 3 5929 5932 5935
4614 2 5930 5931 5933
4615 2 5931 5933 5934
4616 1 5932 5935 5938
4617 2 5933 5934 5936
4618 2 5934 5936 5937
4619 2 5936 5937 5939
4620 2 5937 5939 5940
4621 1 5941 5944 5947
4622 2 5942 5943 5945
4623 2 5943 5945 5946
4624 3 5944 5947 5950
4625 2 5945 5946 5948
4626 2 5946 5948 5949
4627 3 5947 5950 5953
4628 2 5948 5949 5951
4629 2 5949 5951 5952
4630 1 5950 5953 5956
4631 2 5951 5952 5954
4632 2 5952 5954 5955
4633 2 5954 5955 5957
4634 2 5955 5957 5958
4635 1 5959 5962 5965
4636 2 5960 5961 5963
4637 2 5961 5963 5964
4638 3 5962 5965 5968
4639 2 5963 5964 5966
4640 2 5964 5966 5967
4641 3 5965 5968 5971
4642 2 5966 5967 5969
4643 2 5967 5969 5970
4644 1 5968 5971 5974
4645 2 5969 5970 5972
4646 2 5970 5972 5973
4647 2 5972 5973 5975
4648 2 5973 5975 5976
4649 1 5977 5980 5983
4650 2 5978 5979 5981
4651 2 5979 5981 5982
4652 3 5980 5983 5986
4653 2 5981 5982 5984
4654 2 5982 5984 5985
4655 3 5983 5986 5989
4656 2 5984 5985 5987
4657 2 5985 5987 5988
4658 1 5986 5989 5992
4659 2 5987 5988 5990
4660 2 5988 5990 5991
4661 2 5990 5991 5993
4662 2 5991 5993 5994
4663 1 5995 5998 6001
4664 2 5996 5997 5999
4665 2 5997 5999 6000
4666 3 5998 6001 6004
4667 2 5999 6000 6002
4668 2 6000 6002 6003
4669 3 6001 6004 6007
4670 2 6002 6003 6005
4671 2 6003 6005 6006
4672 1 6004 6007 6010
4673 2 6005 6006 6008
4674 2 6006 6008 6009
4675 2 6008 6009 6011
4676 2 6009 6011 6012
4677 1 6013 6016 6019
4678 2 6014 6015 6017
4679 2 6015 6017 6018
4680 3 6016 6019 6022
4681 2 6017 6018 6020
4682 2 6018 6020 6021
4683 3 6019 6022 6025
4684 2 6020 6021 6023
4685 2 6021 6023 6024
4686 1 6022 6025 6028
4687 2 6023 6024 6026
4688 2 6024 6026 6027
4689 2 6026 6027 6029
4690 2 6027 6029 6030
4691 1 6031 6034 6037
4692 2 6032 6033 6035
4693 2 6033 6035 6036
4694 3 6034 6037 6040
4695 2 6035 6036 6038
4696 2 6036 6038 6039
4697 3 6037 6040 6043
4698 2 6038 6039 6041
4699 2 6039 6041 6042
4700 1 6040 6043 6046
4701 2 6041 6042 6044
4702 2 6042 6044 6045
4703 2 6044 6045 6047
4704 2 6045 6047 6048
4705 1 6049 6052 6055
4706 2 6050 6051 6053
4707 2 6051 6053 6054
4708 3 6052 6055 6058
4709 2 6053 6054 6056
4710 2 6054 6056 6057
4711 3 6055 6058 6061
4712 2 6056 6057 6059
4713 2 6057 6059 6060
4714 1 6058 6061 6064
4715 2 6059 6060 6062
4716 2 6060 6062 6063
4717 2 6062 6063 6065
4718 2 6063 6065 6066
4719 1 6067 6070 6073
4720 2 6068 6069 6071
4721 2 6069 6071 6072
4722 3 6070 6073 6076
4723 2 6071 6072 6074
4724 2 6072 6074 6075
4725 3 6073 6076 6079
4726 2 6074 6075 6077
4727 2 6075 6077 6078
4728 1 6076 6079 6082
4729 2 6077 6078 6080
4730 2 6078 6080 6081
4731 2 6080 6081 6083
4732 2 6081 6083 6084
4733 1 6085 6088 6091
4734 2 6086 6087 6089
4735 2 6087 6089 6090
4736 3 6088 6091 6094
4737 2 6089 6090 6092
4738 2 6090 6092 6093
4739 3 6091 6094 6097
4740 2 6092 6093 6095
4741 2 6093 6095 6096
4742 1 6094 6097 6100
4743 2 6095 6096 6098
4744 2 6096 6098 6099
4745 2 6098 6099 6101
4746 2 6099 6101 6102
4747 1 6103 6106 6109
4748 2 6104 6105 6107
4749 2 6105 6107 6108
4750 3 6106 6109 6112
4751 2 6107 6108 6110
4752 2 6108 6110 6111
4753 3 6109 6112 6115
4754 2 6110 6111 6113
4755 2 6111 6113 6114
4756 1 6112 6115 6118
4757 2 6113 6114 6116
4758 2 6114 6116 6117
4759 2 6116 6117 6119
4760 2 6117 6119 6120
4761 1 6121 6124 6127
4762 2 6122 6123 6125
4763 2 6123 6125 6126
4764 3 6124 6127 6130
4765 2 6125 6126 6128
4766 2 6126 6128 6129
4767 3 6127 6130 6133
4768 2 6128 6129 6131
4769 2 6129 6131 6132
4770 1 6130 6133 6136
4771 2 6131 6132 6134
4772 2 6132 6134 6135
4773 2 6134 6135 6137
4774 2 6135 6137 6138
4775 1 6139 6142 6145
4776 2 6140 6141 6143
4777 2 6141 6143 6144
4778 3 6142 6145 6148
4779 2 6143 6144 6146
4780 2 6144 6146 6147
4781 3 6145 6148 6151
4782 2 6146 6147 6149
4783 2 6147 6149 6150
4784 1 6148 6151 6154
4785 2 6149 6150 6152
4786 2 6150 6152 6153
4787 2 6152 6153 6155
4788 2 6153 6155 6156
4789 1 6157 6160 6163
4790 2 6158 6159 6161
4791 2 6159 6161 6162
4792 3 6160 6163 6166
4793 2 6161 6162 6164
4794 2 6162 6164 6165
4795 3 6163 6166 6169
4796 2 6164 6165 6167
4797 2 6165 6167 6168
4798 1 6166 6169 6172
4799 2 6167 6168 6170
4800 2 6168 6170 6171
4801 2 6170 6171 6173
4802 2 6171 6173 6174
4803 1 6175 6178 6181
4804 2 6176 6177 6179
4805 2 6177 6179 6180
4806 3 6178 6181 6184
4807 2 6179 6180 6182
4808 2 6180 6182 6183
4809 3 6181 6184 6187
4810 2 6182 6183 6185
4811 2 6183 6185 6186
4812 1 6184 6187 6190
4813 2 6185 6186 6188
4814 2 6186 6188 6189
4815 2 6188 6189 6191
4816 2 6189 6191 6192
4817 1 6193 6196 6199
4818 2 6194 6195 6197
4819 2 6195 6197 6198
4820 3 6196 6199 6202
4821 2 6197 6198 6200
4822 2 6198 6200 6201
4823 3 6199 6202 6205
4824 2 6200 6201 6203
4825 2 6201 6203 6204
4826 1 6202 6205 6208
4827 2 6203 6204 6206
4828 2 6204 6206 6207
4829 2 6206 6207 6209
4830 2 6207 6209 6210
4831 1 6211 6214 6217
4832 2 6212 6213 6215
4833 2 6213 6215 6216
4834 3 6214 6217 6220
4835 2 6215 6216 6218
4836 2 6216 6218 6219
4837 3 6217 6220 6223
4838 2 6218 6219 6221
4839 2 6219 6221 6222
4840 1 6220 6223 6226
4841 2 6221 6222 6224
4842 2 6222 6224 6225
4843 2 6224 6225 6227
4844 2 6225 6227 6228
4845 1 6229 6232 6235
4846 2 6230 6231 6233
4847 2 6231 6233 6234
4848 3 6232 6235 6238
4849 2 6233 6234 6236
4850 2 6234 6236 6237
4851 3 6235 6238 6241
4852 2 6236 6237 6239
4853 2 6237 6239 6240
4854 1 6238 6241 6244
4855 2 6239 6240 6242
4856 2 6240 6242 6243
4857 2 6242 6243 6245
4858 2 6243 6245 6246
4859 1 6247 6250 6253
4860 2 6248 6249 6251
4861 2 6249 6251 6252
4862 3 6250 6253 6256
4863 2 6251 6252 6254
4864 2 6252 6254 6255
4865 3 6253 6256 6259
4866 2 6254 6255 6257
4867 2 6255 6257 6258
4868 1 6256 6259 6262
4869 2 6257 6258 6260
4870 2 6258 6260 6261
4871 2 6260 6261 6263
4872 2 6261 6263 6264
4873 1 6265 6268 6271
4874 2 6266 6267 6269
4875 2 6267 6269 6270
4876 3 6268 6271 6274
4877 2 6269 6270 6272
4878 2 6270 6272 6273
4879 3 6271 6274 6277
4880 2 6272 6273 6275
4881 2 6273 6275 6276
4882 1 6274 6277 6280
4883 2 6275 6276 6278
4884 2 6276 6278 6279
4885 2 6278 6279 6281
4886 2 6279 6281 6282
4887 1 6283 6286 6289
4888 2 6284 6285 6287
4889 2 6285 6287 6288
4890 3 6286 6289 6292
4891 2 6287 6288 6290
4892 2 6288 6290 6291
4893 3 6289 6292 6295
4894 2 6290 6291 6293
4895 2 6291 6293 6294
4896 1 6292 6295 6298
4897 2 6293 6294 6296
4898 2 6294 6296 6297
4899 2 6296 6297 6299
4900 2 6297 6299 6300
4901 1 6301 6304 6307
4902 2 6302 6303 6305
4903 2 6303 6305 6306
4904 3 6304 6307 6310
4905 2 6305 6306 6308
4906 2 6306 6308 6309
4907 3 6307 6310 6313
4908 2 6308 6309 6311
4909 2 6309 6311 6312
4910 1 6310 6313 6316
4911 2 6311 6312 6314
4912 2 6312 6314 6315
4913 2 6314 6315 6317
4914 2 6315 6317 6318
4915 1 6319 6322 6325
4916 2 6320 6321 6323
4917 2 6321 6323 6324
4918 3 6322 6325 6328
4919 2 6323 6324 6326
4920 2 6324 6326 6327
4921 3 6325 6328 6331
4922 2 6326 6327 6329
4923 2 6327 6329 6330
4924 1 6328 6331 6334
4925 2 6329 6330 6332
4926 2 6330 6332 6333
4927 2 6332 6333 6335
4928 2 6333 6335 6336
4929 1 6337 6340 6343
4930 2 6338 6339 6341
4931 2 6339 6341 6342
4932 3 6340 6343 6346
4933 2 6341 6342 6344
4934 2 6342 6344 6345
4935 3 6343 6346 6349
4936 2 6344 6345 6347
4937 2 6345 6347 6348
4938 1 6346 6349 6352
4939 2 6347 6348 6350
4940 2 6348 6350 6351
4941 2 6350 6351 6353
4942 2 6351 6353 6354
4943 1 6355 6358 6361
4944 2 6356 6357 6359
4945 2 6357 6359 6360
4946 3 6358 6361 6364
4947 2 6359 6360 6362
4948 2 6360 6362 6363
4949 3 6361 6364 6367
4950 2 6362 6363 6365
4951 2 6363 6365 6366
4952 1 6364 6367 6370
4953 2 6365 6366 6368
4954 2 6366 6368 6369
4955 2 6368 6369 6371
4956 2 6369 6371 6372
4957 1 6373 6376 6379
4958 2 6374 6375 6377
4959 2 6375 6377 6378
4960 3 6376 6379 6382
4961 2 6377 6378 6380
4962 2 6378 6380 6381
4963 3 6379 6382 6385
4964 2 6380 6381 6383
4965 2 6381 6383 6384
4966 1 6382 6385 6388
4967 2 6383 6384 6386
4968 2 6384 6386 6387
4969 2 6386 6387 6389
4970 2 6387 6389 6390
4971 1 6391 6394 6397
4972 2 6392 6393 6395
4973 2 6393 6395 6396
4974 3 6394 6397 6400
4975 2 6395 6396 6398
4976 2 6396 6398 6399
4977 3 6397 6400 6403
4978 2 6398 6399 6401
4979 2 6399 6401 6402
4980 1 6400 6403 6406
4981 2 6401 6402 6404
4982 2 6402 6404 6405
4983 2 6404 6405 6407
4984 2 6405 6407 6408
4985 1 6409 6412 6415
4986 2 6410 6411 6413
4987 2 6411 6413 6414
4988 3 6412 6415 6418
4989 2 6413 6414 6416
4990 2 6414 6416 6417
4991 3 6415 6418 6421
4992 2 6416 6417 6419
4993 2 6417 6419 6420
4994 1 6418 6421 6424
4995 2 6419 6420 6422
4996 2 6420 6422 6423
4997 2 6422 6423 6425
4998 2 6423 6425 6426
4999 1 6427 6430 6433
5000 2 6428 6429 6431
5001 2 6429 6431 6432
5002 3 6430 6433 6436
5003 2 6431 6432 6434
5004 2 6432 6434 6435
5005 3 6433 6436 6439
5006 2 6434 6435 6437
5007 2 6435 6437 6438
5008 1 6436 6439 6442
5009 2 6437 6438 6440
5010 2 6438 6440 6441
5011 2 6440 6441 6443
5012 2 6441 6443 6444
5013 1 6445 6448 6451
5014 2 6446 6447 6449
5015 2 6447 6449 6450
5016 3 6448 6451 6454
5017 2 6449 6450 6452
5018 2 6450 6452 6453
5019 3 6451 6454 6457
5020 2 6452 6453 6455
5021 2 6453 6455 6456
5022 1 6454 6457 6460
5023 2 6455 6456 6458
5024 2 6456 6458 6459
5025 2 6458 6459 6461
5026 2 6459 6461 6462
5027 1 6463 6466 6469
5028 2 6464 6465 6467
5029 2 6465 6467 6468
5030 3 6466 6469 6472
5031 2 6467 6468 6470
5032 2 6468 6470 6471
5033 3 6469 6472 6475
5034 2 6470 6471 6473
5035 2 6471 6473 6474
5036 1 6472 6475 6478
5037 2 6473 6474 6476
5038 2 6474 6476 6477
5039 2 6476 6477 6479
5040 2 6477 6479 6480
5041 1 6481 6484 6487
5042 2 6482 6483 6485
5043 2 6483 6485 6486
5044 3 6484 6487 6490
5045 2 6485 6486 6488
5046 2 6486 6488 6489
5047 3 6487 6490 6493
5048 2 6488 6489 6491
5049 2 6489 6491 6492
5050 1 6490 6493 6496
5051 2 6491 6492 6494
5052 2 6492 6494 6495
5053 2 6494 6495 6497
5054 2 6495 6497 6498
5055 1 6499 6502 6505
5056 2 6500 6501 6503
5057 2 6501 6503 6504
5058 3 6502 6505 6508
5059 2 6503 6504 6506
5060 2 6504 6506 6507
5061 3 6505 6508 6511
5062 2 6506 6507 6509
5063 2 6507 6509 6510
5064 1 6508 6511 6514
5065 2 6509 6510 6512
5066 2 6510 6512 6513
5067 2 6512 6513 6515
5068 2 6513 6515 6516
5069 1 6517 6520 6523
5070 2 6518 6519 6521
5071 2 6519 6521 6522
5072 3 6520 6523 6526
5073 2 6521 6522 6524
5074 2 6522 6524 6525
5075 3 6523 6526 6529
5076 2 6524 6525 6527
5077 2 6525 6527 6528
5078 1 6526 6529 6532
5079 2 6527 6528 6530
5080 2 6528 6530 6531
5081 2 6530 6531 6533
5082 2 6531 6533 6534
5083 1 6535 6538 6541
5084 2 6536 6537 6539
5085 2 6537 6539 6540
5086 3 6538 6541 6544
5087 2 6539 6540 6542
5088 2 6540 6542 6543
5089 3 6541 6544 6547
5090 2 6542 6543 6545
5091 2 6543 6545 6546
5092 1 6544 6547 6550
5093 2 6545 6546 6548
5094 2 6546 6548 6549
5095 2 6548 6549 6551
5096 2 6549 6551 6552
5097 1 6553 6556 6559
5098 2 6554 6555 6557
5099 2 6555 6557 6558
5100 3 6556 6559 6562
5101 2 6557 6558 6560
5102 2 6558 6560 6561
5103 3 6559 6562 6565
5104 2 6560 6561 6563
5105 2 6561 6563 6564
5106 1 6562 6565 6568
5107 2 6563 6564 6566
5108 2 6564 6566 6567
5109 2 6566 6567 6569
5110 2 6567 6569 6570
5111 1 6571 6574 6577
5112 2 6572 6573 6575
5113 2 6573 6575 6576
5114 3 6574 6577 6580
5115 2 6575 6576 6578
5116 2 6576 6578 6579
5117 3 6577 6580 6583
5118 2 6578 6579 6581
5119 2 6579 6581 6582
5120 1 6580 6583 6586
5121 2 6581 6582 6584
5122 2 6582 6584 6585
5123 2 6584 6585 6587
5124 2 6585 6587 6588
5125 1 6589 6592 6595
5126 2 6590 6591 6593
5127 2 6591 6593 6594
5128 3 6592 6595 6598
5129 2 6593 6594 6596
5130 2 6594 6596 6597
5131 3 6595 6598 6601
5132 2 6596 6597 6599
5133 2 6597 6599 6600
5134 1 6598 6601 6604
5135 2 6599 6600 6602
5136 2 6600 6602 6603
5137 2 6602 6603 6605
5138 2 6603 6605 6606
5139 1 6607 6610 6613
5140 2 6608 6609 6611
5141 2 6609 6611 6612
5142 3 6610 6613 6616
5143 2 6611 6612 6614
5144 2 6612 6614 6615
5145 3 6613 6616 6619
5146 2 6614 6615 6617
5147 2 6615 6617 6618
5148 1 6616 6619 6622
5149 2 6617 6618 6620
5150 2 6618 6620 6621
5151 2 6620 6621 6623
5152 2 6621 6623 6624
5153 1 6625 6628 6631
5154 2 6626 6627 6629
5155 2 6627 6629 6630
5156 3 6628 6631 6634
5157 2 6629 6630 6632
5158 2 6630 6632 6633
5159 3 6631 6634 6637
5160 2 6632 6633 6635
5161 2 6633 6635 6636
5162 1 6634 6637 6640
5163 2 6635 6636 6638
5164 2 6636 6638 6639
5165 2 6638 6639 6641
5166 2 6639 6641 6642
5167 1 6643 6646 6649
5168 2 6644 6645 6647
5169 2 6645 6647 6648
5170 3 6646 6649 6652
5171 2 6647 6648 6650
5172 2 6648 6650 6651
5173 3 6649 6652 6655
5174 2 6650 6651 6653
5175 2 6651 6653 6654
5176 1 6652 6655 6658
5177 2 6653 6654 6656
5178 2 6654 6656 6657
5179 2 6656 6657 6659
5180 2 6657 6659 6660
5181 1 6661 6664 6667
5182 2 6662 6663 6665
5183 2 6663 6665 6666
5184 3 6664 6667 6670
5185 2 6665 6666 6668
5186 2 6666 6668 6669
5187 3 6667 6670 6673
5188 2 6668 6669 6671
5189 2 6669 6671 6672
5190 1 6670 6673 6676
5191 2 6671 6672 6674
5192 2 6672 6674 6675
5193 2 6674 6675 6677
5194 2 6675 6677 6678
5195 1 6679 6682 6685
5196 2 6680 6681 6683
5197 2 6681 6683 6684
5198 3 6682 6685 6688
5199 2 6683 6684 6686
5200 2 6684 6686 6687
5201 3 6685 6688 6691
5202 2 6686 6687 6689
5203 2 6687 6689 6690
5204 1 6688 6691 6694
5205 2 6689 6690 6692
5206 2 6690 6692 6693
5207 2 6692 6693 6695
5208 2 6693 6695 6696
5209 1 6697 6700 6703
5210 2 6698 6699 6701
5211 2 6699 6701 6702
5212 3 6700 6703 6706
5213 2 6701 6702 6704
5214 2 6702 6704 6705
5215 3 6703 6706 6709
5216 2 6704 6705 6707
5217 2 6705 6707 6708
5218 1 6706 6709 6712
5219 2 6707 6708 6710
5220 2 6708 6710 6711
5221 2 6710 6711 6713
5222 2 6711 6713 6714
5223 1 6715 6718 6721
5224 2 6716 6717 6719
5225 2 6717 6719 6720
5226 3 6718 6721 6724
5227 2 6719 6720 6722
5228 2 6720 6722 6723
5229 3 6721 6724 6727
5230 2 6722 6723 6725
5231 2 6723 6725 6726
5232 1 6724 6727 6730
5233 2 6725 6726 6728
5234 2 6726 6728 6729
5235 2 6728 6729 6731
5236 2 6729 6731 6732
5237 1 6733 6736 6739
5238 2 6734 6735 6737
5239 2 6735 6737 6738
5240 3 6736 6739 6742
5241 2 6737 6738 6740
5242 2 6738 6740 6741
5243 3 6739 6742 6745
5244 2 6740 6741 6743
5245 2 6741 6743 6744
5246 1 6742 6745 6748
5247 2 6743 6744 6746
5248 2 6744 6746 6747
5249 2 6746 6747 6749
5250 2 6747 6749 6750
5251 1 6751 6754 6757
5252 2 6752 6753 6755
5253 2 6753 6755 6756
5254 3 6754 6757 6760
5255 2 6755 6756 6758
5256 2 6756 6758 6759
5257 3 6757 6760 6763
5258 2 6758 6759 6761
5259 2 6759 6761 6762
5260 1 6760 6763 6766
5261 2 6761 6762 6764
5262 2 6762 6764 6765
5263 2 6764 6765 6767
5264 2 6765 6767 6768
5265 1 6769 6772 6775
5266 2 6770 6771 6773
5267 2 6771 6773 6774
5268 3 6772 6775 6778
5269 2 6773 6774 6776
5270 2 6774 6776 6777
5271 3 6775 6778 6781
5272 2 6776 6777 6779
5273 2 6777 6779 6780
5274 1 6778 6781 6784
5275 2 6779 6780 6782
5276 2 6780 6782 6783
5277 2 6782 6783 6785
5278 2 6783 6785 6786
5279 1 6787 6790 6793
5280 2 6788 6789 6791
5281 2 6789 6791 6792
5282 3 6790 6793 6796
5283 2 6791 6792 6794
5284 2 6792 6794 6795
5285 3 6793 6796 6799
5286 2 6794 6795 6797
5287 2 6795 6797 6798
5288 1 6796 6799 6802
5289 2 6797 6798 6800
5290 2 6798 6800 6801
5291 2 6800 6801 6803
5292 2 6801 6803 6804
5293 1 6805 6808 6811
5294 2 6806 6807 6809
5295 2 6807 6809 6810
5296 3 6808 6811 6814
5297 2 6809 6810 6812
5298 2 6810 6812 6813
5299 3 6811 6814 6817
5300 2 6812 6813 6815
5301 2 6813 6815 6816
5302 1 6814 6817 6820
5303 2 6815 6816 6818
5304 2 6816 6818 6819
5305 2 6818 6819 6821
5306 2 6819 6821 6822
5307 1 6823 6826 6829
5308 2 6824 6825 6827
5309 2 6825 6827 6828
5310 3 6826 6829 6832
5311 2 6827 6828 6830
5312 2 6828 6830 6831
5313 3 6829 6832 6835
5314 2 6830 6831 6833
5315 2 6831 6833 6834
5316 1 6832 6835 6838
5317 2 6833 6834 6836
5318 2 6834 6836 6837
5319 2 6836 6837 6839
5320 2 6837 6839 6840
5321 1 6841 6844 6847
5322 2 6842 6843 6845
5323 2 6843 6845 6846
5324 3 6844 6847 6850
5325 2 6845 6846 6848
5326 2 6846 6848 6849
5327 3 6847 6850 6853
5328 2 6848 6849 6851
5329 2 6849 6851 6852
5330 1 6850 6853 6856
5331 2 6851 6852 6854
5332 2 6852 6854 6855
5333 2 6854 6855 6857
5334 2 6855 6857 6858
5335 1 6859 6862 6865
5336 2 6860 6861 6863
5337 2 6861 6863 6864
5338 3 6862 6865 6868
5339 2 6863 6864 6866
5340 2 6864 6866 6867
5341 3 6865 6868 6871
5342 2 6866 6867 6869
5343 2 6867 6869 6870
5344 1 6868 6871 6874
5345 2 6869 6870 6872
5346 2 6870 6872 6873
5347 2 6872 6873 6875
5348 2 6873 6875 6876
5349 1 6877 6880 6883
5350 2 6878 6879 6881
5351 2 6879 6881 6882
5352 3 6880 6883 6886
5353 2 6881 6882 6884
5354 2 6882 6884 6885
5355 3 6883 6886 6889
5356 2 6884 6885 6887
5357 2 6885 6887 6888
5358 1 6886 6889 6892
5359 2 6887 6888 6890
5360 2 6888 6890 6891
5361 2 6890 6891 6893
5362 2 6891 6893 6894
5363 1 6895 6898 6901
5364 2 6896 6897 6899
5365 2 6897 6899 6900
5366 3 6898 6901 6904
5367 2 6899 6900 6902
5368 2 6900 6902 6903
5369 3 6901 6904 6907
5370 2 6902 6903 6905
5371 2 6903 6905 6906
5372 1 6904 6907 6910
5373 2 6905 6906 6908
5374 2 6906 6908 6909
5375 2 6908 6909 6911
5376 2 6909 6911 6912
5377 1 6913 6916 6919
5378 2 6914 6915 6917
5379 2 6915 6917 6918
5380 3 6916 6919 6922
5381 2 6917 6918 6920
5382 2 6918 6920 6921
5383 3 6919 6922 6925
5384 2 6920 6921 6923
5385 2 6921 6923 6924
5386 1 6922 6925 6928
5387 2 6923 6924 6926
5388 2 6924 6926 6927
5389 2 6926 6927 6929
5390 2 6927 6929 6930
5391 1 6931 6934 6937
5392 2 6932 6933 6935
5393 2 6933 6935 6936
5394 3 6934 6937 6940
5395 2 6935 6936 6938
5396 2 6936 6938 6939
5397 3 6937 6940 6943
5398 2 6938 6939 6941
5399 2 6939 6941 6942
5400 1 6940 6943 6946
5401 2 6941 6942 6944
5402 2 6942 6944 6945
5403 2 6944 6945 6947
5404 2 6945 6947 6948
5405 1 6949 6952 6955
5406 2 6950 6951 6953
5407 2 6951 6953 6954
5408 3 6952 6955 6958
5409 2 6953 6954 6956
5410 2 6954 6956 6957
5411 3 6955 6958 6961
5412 2 6956 6957 6959
5413 2 6957 6959 6960
5414 1 6958 6961 6964
5415 2 6959 6960 6962
5416 2 6960 6962 6963
5417 2 6962 6963 6965
5418 2 6963 6965 6966
5419 1 6967 6970 6973
5420 2 6968 6969 6971
5421 2 6969 6971 6972
5422 3 6970 6973 6976
5423 2 6971 6972 6974
5424 2 6972 6974 6975
5425 3 6973 6976 6979
5426 2 6974 6975 6977
5427 2 6975 6977 6978
5428 1 6976 6979 6982
5429 2 6977 6978 6980
5430 2 6978 6980 6981
5431 2 6980 6981 6983
5432 2 6981 6983 6984
5433 1 6985 6988 6991
5434 2 6986 6987 6989
5435 2 6987 6989 6990
5436 3 6988 6991 6994
5437 2 6989 6990 6992
5438 2 6990 6992 6993
5439 3 6991 6994 6997
5440 2 6992 6993 6995
5441 2 6993 6995 6996
5442 1 6994 6997 7000
5443 2 6995 6996 6998
5444 2 6996 6998 6999
5445 2 6998 6999 7001
5446 2 6999 7001 7002
5447 1 7003 7006 7009
5448 2 7004 7005 7007
5449 2 7005 7007 7008
5450 3 7006 7009 7012
5451 2 7007 7008 7010
5452 2 7008 7010 7011
5453 3 7009 7012 7015
5454 2 7010 7011 7013
5455 2 7011 7013 7014
5456 1 7012 7015 7018
5457 2 7013 7014 7016
5458 2 7014 7016 7017
5459 2 7016 7017 7019
5460 2 7017 7019 7020
5461 1 7021 7024 7027
5462 2 7022 7023 7025
5463 2 7023 7025 7026
5464 3 7024 7027 7030
5465 2 7025 7026 7028
5466 2 7026 7028 7029
5467 3 7027 7030 7033
5468 2 7028 7029 7031
5469 2 7029 7031 7032
5470 1 7030 7033 7036
5471 2 7031 7032 7034
5472 2 7032 7034 7035
5473 2 7034 7035 7037
5474 2 7035 7037 7038
5475 1 7039 7042 7045
5476 2 7040 7041 7043
5477 2 7041 7043 7044
5478 3 7042 7045 7048
5479 2 7043 7044 7046
5480 2 7044 7046 7047
5481 3 7045 7048 7051
5482 2 7046 7047 7049
5483 2 7047 7049 7050
5484 1 7048 7051 7054
5485 2 7049 7050 7052
5486 2 7050 7052 7053
5487 2 7052 7053 7055
5488 2 7053 7055 7056
5489 1 7057 7060 7063
5490 2 7058 7059 7061
5491 2 7059 7061 7062
5492 3 7060 7063 7066
5493 2 7061 7062 7064
5494 2 7062 7064 7065
5495 3 7063 7066 7069
5496 2 7064 7065 7067
5497 2 7065 7067 7068
5498 1 7066 7069 7072
5499 2 7067 7068 7070
5500 2 7068 7070 7071
5501 2 7070 7071 7073
5502 2 7071 7073 7074
5503 1 7075 7078 7081
5504 2 7076 7077 7079
5505 2 7077 7079 7080
5506 3 7078 7081 7084
5507 2 7079 7080 7082
5508 2 7080 7082 7083
5509 3 7081 7084 7087
5510 2 7082 7083 7085
5511 2 7083 7085 7086
5512 1 7084 7087 7090
5513 2 7085 7086 7088
5514 2 7086 7088 7089
5515 2 7088 7089 7091
5516 2 7089 7091 7092
5517 1 7093 7096 7099
5518 2 7094 7095 7097
5519 2 7095 7097 7098
5520 3 7096 7099 7102
5521 2 7097 7098 7100
5522 2 7098 7100 7101
5523 3 7099 7102 7105
5524 2 7100 7101 7103
5525 2 7101 7103 7104
5526 1 7102 7105 7108
5527 2 7103 7104 7106
5528 2 7104 7106 7107
5529 2 7106 7107 7109
5530 2 7107 7109 7110
5531 1 7111 7114 7117
5532 2 7112 7113 7115
5533 2 7113 7115 7116
5534 3 7114 7117 7120
5535 2 7115 7116 7118
5536 2 7116 7118 7119
5537 3 7117 7120 7123
5538 2 7118 7119 7121
5539 2 7119 7121 7122
5540 1 7120 7123 7126
5541 2 7121 7122 7124
5542 2 7122 7124 7125
5543 2 7124 7125 7127
5544 2 7125 7127 7128
5545 1 7129 7132 7135
5546 2 7130 7131 7133
5547 2 7131 7133 7134
5548 3 7132 7135 7138
5549 2 7133 7134 7136
5550 2 7134 7136 7137
5551 3 7135 7138 7141
5552 2 7136 7137 7139
5553 2 7137 7139 7140
5554 1 7138 7141 7144
5555 2 7139 7140 7142
5556 2 7140 7142 7143
5557 2 7142 7143 7145
5558 2 7143 7145 7146
5559 1 7147 7150 7153
5560 2 7148 7149 7151
5561 2 7149 7151 7152
5562 3 7150 7153 7156
5563 2 7151 7152 7154
5564 2 7152 7154 7155
5565 3 7153 7156 7159
5566 2 7154 7155 7157
5567 2 7155 7157 7158
5568 1 7156 7159 7162
5569 2 7157 7158 7160
5570 2 7158 7160 7161
5571 2 7160 7161 7163
5572 2 7161 7163 7164
5573 1 7165 7168 7171
5574 2 7166 7167 7169
5575 2 7167 7169 7170
5576 3 7168 7171 7174
5577 2 7169 7170 7172
5578 2 7170 7172 7173
5579 3 7171 7174 7177
5580 2 7172 7173 7175
5581 2 7173 7175 7176
5582 1 7174 7177 7180
5583 2 7175 7176 7178
5584 2 7176 7178 7179
5585 2 7178 7179 7181
5586 2 7179 7181 7182
5587 1 7183 7186 7189
5588 2 7184 7185 7187
5589 2 7185 7187 7188
5590 3 7186 7189 7192
5591 2 7187 7188 7190
5592 2 7188 7190 7191
5593 3 7189 7192 7195
5594 2 7190 7191 7193
5595 2 7191 7193 7194
5596 1 7192 7195 7198
5597 2 7193 7194 7196
5598 2 7194 7196 7197
5599 2 7196 7197 7199
5600 2 7197 7199 7200
5601 1 7201 7204 7207
5602 2 7202 7203 7205
5603 2 7203 7205 7206
5604 3 7204 7207 7210
5605 2 7205 7206 7208
5606 2 7206 7208 7209
5607 3 7207 7210 7213
5608 2 7208 7209 7211
5609 2 7209 7211 7212
5610 1 7210 7213 7216
5611 2 7211 7212 7214
5612 2 7212 7214 7215
5613 2 7214 7215 7217
5614 2 7215 7217 7218
5615 1 7219 7222 7225
5616 2 7220 7221 7223
5617 2 7221 7223 7224
5618 3 7222 7225 7228
5619 2 7223 7224 7226
5620 2 7224 7226 7227
5621 3 7225 7228 7231
5622 2 7226 7227 7229
5623 2 7227 7229 7230
5624 1 7228 7231 7234
5625 2 7229 7230 7232
5626 2 7230 7232 7233
5627 2 7232 7233 7235
5628 2 7233 7235 7236
5629 1 7237 7240 7243
5630 2 7238 7239 7241
5631 2 7239 7241 7242
5632 3 7240 7243 7246
5633 2 7241 7242 7244
5634 2 7242 7244 7245
5635 3 7243 7246 7249
5636 2 7244 7245 7247
5637 2 7245 7247 7248
5638 1 7246 7249 7252
5639 2 7247 7248 7250
5640 2 7248 7250 7251
5641 2 7250 7251 7253
5642 2 7251 7253 7254
5643 1 7255 7258 7261
5644 2 7256 7257 7259
5645 2 7257 7259 7260
5646 3 7258 7261 7264
5647 2 7259 7260 7262
5648 2 7260 7262 7263
5649 3 7261 7264 7267
5650 2 7262 7263 7265
5651 2 7263 7265 7266
5652 1 7264 7267 7270
5653 2 7265 7266 7268
5654 2 7266 7268 7269
5655 2 7268 7269 7271
5656 2 7269 7271 7272
5657 1 7273 7276 7279
5658 2 7274 7275 7277
5659 2 7275 7277 7278
5660 3 7276 7279 7282
5661 2 7277 7278 7280
5662 2 7278 7280 7281
5663 3 7279 7282 7285
5664 2 7280 7281 7283
5665 2 7281 7283 7284
5666 1 7282 7285 7288
5667 2 7283 7284 7286
5668 2 7284 7286 7287
5669 2 7286 7287 7289
5670 2 7287 7289 7290
5671 1 7291 7294 7297
5672 2 7292 7293 7295
5673 2 7293 7295 7296
5674 3 7294 7297 7300
5675 2 7295 7296 7298
5676 2 7296 7298 7299
5677 3 7297 7300 7303
5678 2 7298 7299 7301
5679 2 7299 7301 7302
5680 1 7300 7303 7306
5681 2 7301 7302 7304
5682 2 7302 7304 7305
5683 2 7304 7305 7307
5684 2 7305 7307 7308
5685 1 7309 7312 7315
5686 2 7310 7311 7313
5687 2 7311 7313 7314
5688 3 7312 7315 7318
5689 2 7313 7314 7316
5690 2 7314 7316 7317
5691 3 7315 7318 7321
5692 2 7316 7317 7319
5693 2 7317 7319 7320
5694 1 7318 7321 7324
5695 2 7319 7320 7322
5696 2 7320 7322 7323
5697 2 7322 7323 7325
5698 2 7323 7325 7326
5699 1 7327 7330 7333
5700 2 7328 7329 7331
5701 2 7329 7331 7332
5702 3 7330 7333 7336
5703 2 7331 7332 7334
5704 2 7332 7334 7335
5705 3 7333 7336 7339
5706 2 7334 7335 7337
5707 2 7335 7337 7338
5708 1 7336 7339 7342
5709 2 7337 7338 7340
5710 2 7338 7340 7341
5711 2 7340 7341 7343
5712 2 7341 7343 7344
5713 1 7345 7348 7351
5714 2 7346 7347 7349
5715 2 7347 7349 7350
5716 3 7348 7351 7354
5717 2 7349 7350 7352
5718 2 7350 7352 7353
5719 3 7351 7354 7357
5720 2 7352 7353 7355
5721 2 7353 7355 7356
5722 1 7354 7357 7360
5723 2 7355 7356 7358
5724 2 7356 7358 7359
5725 2 7358 7359 7361
5726 2 7359 7361 7362
5727 1 7363 7366 7369
5728 2 7364 7365 7367
5729 2 7365 7367 7368
5730 3 7366 7369 7372
5731 2 7367 7368 7370
5732 2 7368 7370 7371
5733 3 7369 7372 7375
5734 2 7370 7371 7373
5735 2 7371 7373 7374
5736 1 7372 7375 7378
5737 2 7373 7374 7376
5738 2 7374 7376 7377
5739 2 7376 7377 7379
5740 2 7377 7379 7380
5741 1 7381 7384 7387
5742 2 7382 7383 7385
5743 2 7383 7385 7386
5744 3 7384 7387 7390
5745 2 7385 7386 7388
5746 2 7386 7388 7389
5747 3 7387 7390 7393
5748 2 7388 7389 7391
5749 2 7389 7391 7392
5750 1 7390 7393 7396
5751 2 7391 7392 7394
5752 2 7392 7394 7395
5753 2 7394 7395 7397
5754 2 7395 7397 7398
5755 1 7399 7402 7405
5756 2 7400 7401 7403
5757 2 7401 7403 7404
5758 3 7402 7405 7408
5759 2 7403 7404 7406
5760 2 7404 7406 7407
5761 3 7405 7408 7411
5762 2 7406 7407 7409
5763 2 7407 7409 7410
5764 1 7408 7411 7414
5765 2 7409 7410 7412
5766 2 7410 7412 7413
5767 2 7412 7413 7415
5768 2 7413 7415 7416
5769 1 7417 7420 7423
5770 2 7418 7419 7421
5771 2 7419 7421 7422
5772 3 7420 7423 7426
5773 2 7421 7422 7424
5774 2 7422 7424 7425
5775 3 7423 7426 7429
5776 2 7424 7425 7427
5777 2 7425 7427 7428
5778 1 7426 7429 7432
5779 2 7427 7428 7430
5780 2 7428 7430 7431
5781 2 7430 7431 7433
5782 2 7431 7433 7434
5783 1 7435 7438 7441
5784 2 7436 7437 7439
5785 2 7437 7439 7440
5786 3 7438 7441 7444
5787 2 7439 7440 7442
5788 2 7440 7442 7443
5789 3 7441 7444 7447
5790 2 7442 7443 7445
5791 2 7443 7445 7446
5792 1 7444 7447 7450
5793 2 7445 7446 7448
5794 2 7446 7448 7449
5795 2 7448 7449 7451
5796 2 7449 7451 7452
5797 1 7453 7456 7459
5798 2 7454 7455 7457
5799 2 7455 7457 7458
5800 3 7456 7459 7462
5801 2 7457 7458 7460
5802 2 7458 7460 7461
5803 3 7459 7462 7465
5804 2 7460 7461 7463
5805 2 7461 7463 7464
5806 1 7462 7465 7468
5807 2 7463 7464 7466
5808 2 7464 7466 7467
5809 2 7466 7467 7469
5810 2 7467 7469 7470
5811 1 7471 7474 7477
5812 2 7472 7473 7475
5813 2 7473 7475 7476
5814 3 7474 7477 7480
5815 2 7475 7476 7478
5816 2 7476 7478 7479
5817 3 7477 7480 7483
5818 2 7478 7479 7481
5819 2 7479 7481 7482
5820 1 7480 7483 7486
5821 2 7481 7482 7484
5822 2 7482 7484 7485
5823 2 7484 7485 7487
5824 2 7485 7487 7488
5825 1 7489 7492 7495
5826 2 7490 7491 7493
5827 2 7491 7493 7494
5828 3 7492 7495 7498
5829 2 7493 7494 7496
5830 2 7494 7496 7497
5831 3 7495 7498 7501
5832 2 7496 7497 7499
5833 2 7497 7499 7500
5834 1 7498 7501 7504
5835 2 7499 7500 7502
5836 2 7500 7502 7503
5837 2 7502 7503 7505
5838 2 7503 7505 7506
5839 1 7507 7510 7513
5840 2 7508 7509 7511
5841 2 7509 7511 7512
5842 3 7510 7513 7516
5843 2 7511 7512 7514
5844 2 7512 7514 7515
5845 3 7513 7516 7519
5846 2 7514 7515 7517
5847 2 7515 7517 7518
5848 1 7516 7519 7522
5849 2 7517 7518 7520
5850 2 7518 7520 7521
5851 2 7520 7521 7523
5852 2 7521 7523 7524
5853 1 7525 7528 7531
5854 2 7526 7527 7529
5855 2 7527 7529 7530
5856 3 7528 7531 7534
5857 2 7529 7530 7532
5858 2 7530 7532 7533
5859 3 7531 7534 7537
5860 2 7532 7533 7535
5861 2 7533 7535 7536
5862 1 7534 7537 7540
5863 2 7535 7536 7538
5864 2 7536 7538 7539
5865 2 7538 7539 7541
5866 2 7539 7541 7542
5867 1 7543 7546 7549
5868 2 7544 7545 7547
5869 2 7545 7547 7548
5870 3 7546 7549 7552
5871 2 7547 7548 7550
5872 2 7548 7550 7551
5873 3 7549 7552 7555
5874 2 7550 7551 7553
5875 2 7551 7553 7554
5876 1 7552 7555 7558
5877 2 7553 7554 7556
5878 2 7554 7556 7557
5879 2 7556 7557 7559
5880 2 7557 7559 7560
5881 1 7561 7564 7567
5882 2 7562 7563 7565
5883 2 7563 7565 7566
5884 3 7564 7567 7570
5885 2 7565 7566 7568
5886 2 7566 7568 7569
5887 3 7567 7570 7573
5888 2 7568 7569 7571
5889 2 7569 7571 7572
5890 1 7570 7573 7576
5891 2 7571 7572 7574
5892 2 7572 7574 7575
5893 2 7574 7575 7577
5894 2 7575 7577 7578
5895 1 7579 7582 7585
5896 2 7580 7581 7583
5897 2 7581 7583 7584
5898 3 7582 7585 7588
5899 2 7583 7584 7586
5900 2 7584 7586 7587
5901 3 7585 7588 7591
5902 2 7586 7587 7589
5903 2 7587 7589 7590
5904 1 7588 7591 7594
5905 2 7589 7590 7592
5906 2 7590 7592 7593
5907 2 7592 7593 7595
5908 2 7593 7595 7596
5909 1 7597 7600 7603
5910 2 7598 7599 7601
5911 2 7599 7601 7602
5912 3 7600 7603 7606
5913 2 7601 7602 7604
5914 2 7602 7604 7605
5915 3 7603 7606 7609
5916 2 7604 7605 7607
5917 2 7605 7607 7608
5918 1 7606 7609 7612
5919 2 7607 7608 7610
5920 2 7608 7610 7611
5921 2 7610 7611 7613
5922 2 7611 7613 7614
5923 1 7615 7618 7621
5924 2 7616 7617 7619
5925 2 7617 7619 7620
5926 3 7618 7621 7624
5927 2 7619 7620 7622
5928 2 7620 7622 7623
5929 3 7621 7624 7627
5930 2 7622 7623 7625
5931 2 7623 7625 7626
5932 1 7624 7627 7630
5933 2 7625 7626 7628
5934 2 7626 7628 7629
5935 2 7628 7629 7631
5936 2 7629 7631 7632
5937 1 7633 7636 7639
5938 2 7634 7635 7637
5939 2 7635 7637 7638
5940 3 7636 7639 7642
5941 2 7637 7638 7640
5942 2 7638 7640 7641
5943 3 7639 7642 7645
5944 2 7640 7641 7643
5945 2 7641 7643 7644
5946 1 7642 7645 7648
5947 2 7643 7644 7646
5948 2 7644 7646 7647
5949 2 7646 7647 7649
5950 2 7647 7649 7650
5951 1 7651 7654 7657
5952 2 7652 7653 7655
5953 2 7653 7655 7656
5954 3 7654 7657 7660
5955 2 7655 7656 7658
5956 2 7656 7658 7659
5957 3 7657 7660 7663
5958 2 7658 7659 7661
5959 2 7659 7661 7662
5960 1 7660 7663 7666
5961 2 7661 7662 7664
5962 2 7662 7664 7665
5963 2 7664 7665 7667
5964 2 7665 7667 7668
5965 1 7669 7672 7675
5966 2 7670 7671 7673
5967 2 7671 7673 7674
5968 3 7672 7675 7678
5969 2 7673 7674 7676
5970 2 7674 7676 7677
5971 3 7675 7678 7681
5972 2 7676 7677 7679
5973 2 7677 7679 7680
5974 1 7678 7681 7684
5975 2 7679 7680 7682
5976 2 7680 7682 7683
5977 2 7682 7683 7685
5978 2 7683 7685 7686
5979 1 7687 7690 7693
5980 2 7688 7689 7691
5981 2 7689 7691 7692
5982 3 7690 7693 7696
5983 2 7691 7692 7694
5984 2 7692 7694 7695
5985 3 7693 7696 7699
5986 2 7694 7695 7697
5987 2 7695 7697 7698
5988 1 7696 7699 7702
5989 2 7697 7698 7700
5990 2 7698 7700 7701
5991 2 7700 7701 7703
5992 2 7701 7703 7704
5993 1 7705 7708 7711
5994 2 7706 7707 7709
5995 2 7707 7709 7710
5996 3 7708 7711 7714
5997 2 7709 7710 7712
5998 2 7710 7712 7713
5999 3 7711 7714 7717
6000 2 7712 7713 7715
6001 2 7713 7715 7716
6002 1 7714 7717 7720
6003 2 7715 7716 7718
6004 2 7716 7718 7719
6005 2 7718 7719 7721
6006 2 7719 7721 7722
6007 1 7723 7726 7729
6008 2 7724 7725 7727
6009 2 7725 7727 7728
6010 3 7726 7729 7732
6011 2 7727 7728 7730
6012 2 7728 7730 7731
6013 3 7729 7732 7735
6014 2 7730 7731 7733
6015 2 7731 7733 7734
6016 1 7732 7735 7738
6017 2 7733 7734 7736
6018 2 7734 7736 7737
6019 2 7736 7737 7739
6020 2 7737 7739 7740
6021 1 7741 7744 7747
6022 2 7742 7743 7745
6023 2 7743 7745 7746
6024 3 7744 7747 7750
6025 2 7745 7746 7748
6026 2 7746 7748 7749
6027 3 7747 7750 7753
6028 2 7748 7749 7751
6029 2 7749 7751 7752
6030 1 7750 7753 7756
6031 2 7751 7752 7754
6032 2 7752 7754 7755
6033 2 7754 7755 7757
6034 2 7755 7757 7758
6035 1 7759 7762 7765
6036 2 7760 7761 7763
6037 2 7761 7763 7764
6038 3 7762 7765 7768
6039 2 7763 7764 7766
6040 2 7764 7766 7767
6041 3 7765 7768 7771
6042 2 7766 7767 7769
6043 2 7767 7769 7770
6044 1 7768 7771 7774
6045 2 7769 7770 7772
6046 2 7770 7772 7773
6047 2 7772 7773 7775
6048 2 7773 7775 7776
6049 1 7777 7780 7783
6050 2 7778 7779 7781
6051 2 7779 7781 7782
6052 3 7780 7783 7786
6053 2 7781 7782 7784
6054 2 7782 7784 7785
6055 3 7783 7786 7789
6056 2 7784 7785 7787
6057 2 7785 7787 7788
6058 1 7786 7789 7792
6059 2 7787 7788 7790
6060 2 7788 7790 7791
6061 2 7790 7791 7793
6062 2 7791 7793 7794
6063 1 7795 7798 7801
6064 2 7796 7797 7799
6065 2 7797 7799 7800
6066 3 7798 7801 7804
6067 2 7799 7800 7802
6068 2 7800 7802 7803
6069 3 7801 7804 7807
6070 2 7802 7803 7805
6071 2 7803 7805 7806
6072 1 7804 7807 7810
6073 2 7805 7806 7808
6074 2 7806 7808 7809
6075 2 7808 7809 7811
6076 2 7809 7811 7812
6077 1 7813 7816 7819
6078 2 7814 7815 7817
6079 2 7815 7817 7818
6080 3 7816 7819 7822
6081 2 7817 7818 7820
6082 2 7818 7820 7821
6083 3 7819 7822 7825
6084 2 7820 7821 7823
6085 2 7821 7823 7824
6086 1 7822 7825 7828
6087 2 7823 7824 7826
6088 2 7824 7826 7827
6089 2 7826 7827 7829
6090 2 7827 7829 7830
6091 1 7831 7834 7837
6092 2 7832 7833 7835
6093 2 7833 7835 7836
6094 3 7834 7837 7840
6095 2 7835 7836 7838
6096 2 7836 7838 7839
6097 3 7837 7840 7843
6098 2 7838 7839 7841
6099 2 7839 7841 7842
6100 1 7840 7843 7846
6101 2 7841 7842 7844
6102 2 7842 7844 7845
6103 2 7844 7845 7847
6104 2 7845 7847 7848
6105 1 7849 7852 7855
6106 2 7850 7851 7853
6107 2 7851 7853 7854
6108 3 7852 7855 7858
6109 2 7853 7854 7856
6110 2 7854 7856 7857
6111 3 7855 7858 7861
6112 2 7856 7857 7859
6113 2 7857 7859 7860
6114 1 7858 7861 7864
6115 2 7859 7860 7862
6116 2 7860 7862 7863
6117 2 7862 7863 7865
6118 2 7863 7865 7866
6119 1 7867 7870 7873
6120 2 7868 7869 7871
6121 2 7869 7871 7872
6122 3 7870 7873 7876
6123 2 7871 7872 7874
6124 2 7872 7874 7875
6125 3 7873 7876 7879
6126 2 7874 7875 7877
6127 2 7875 7877 7878
6128 1 7876 7879 7882
6129 2 7877 7878 7880
6130 2 7878 7880 7881
6131 2 7880 7881 7883
6132 2 7881 7883 7884
6133 1 7885 7888 7891
6134 2 7886 7887 7889
6135 2 7887 7889 7890
6136 3 7888 7891 7894
6137 2 7889 7890 7892
6138 2 7890 7892 7893
6139 3 7891 7894 7897
6140 2 7892 7893 7895
6141 2 7893 7895 7896
6142 1 7894 7897 7900
6143 2 7895 7896 7898
6144 2 7896 7898 7899
6145 2 7898 7899 7901
6146 2 7899 7901 7902
6147 1 7903 7906 7909
6148 2 7904 7905 7907
6149 2 7905 7907 7908
6150 3 7906 7909 7912
6151 2 7907 7908 7910
6152 2 7908 7910 7911
6153 3 7909 7912 7915
6154 2 7910 7911 7913
6155 2 7911 7913 7914
6156 1 7912 7915 7918
6157 2 7913 7914 7916
6158 2 7914 7916 7917
6159 2 7916 7917 7919
6160 2 7917 7919 7920
6161 1 7921 7924 7927
6162 2 7922 7923 7925
6163 2 7923 7925 7926
6164 3 7924 7927 7930
6165 2 7925 7926 7928
6166 2 7926 7928 7929
6167 3 7927 7930 7933
6168 2 7928 7929 7931
6169 2 7929 7931 7932
6170 1 7930 7933 7936
6171 2 7931 7932 7934
6172 2 7932 7934 7935
6173 2 7934 7935 7937
6174 2 7935 7937 7938
6175 1 7939 7942 7945
6176 2 7940 7941 7943
6177 2 7941 7943 7944
6178 3 7942 7945 7948
6179 2 7943 7944 7946
6180 2 7944 7946 7947
6181 3 7945 7948 7951
6182 2 7946 7947 7949
6183 2 7947 7949 7950
6184 1 7948 7951 7954
6185 2 7949 7950 7952
6186 2 7950 7952 7953
6187 2 7952 7953 7955
6188 2 7953 7955 7956
6189 1 7957 7960 7963
6190 2 7958 7959 7961
6191 2 7959 7961 7962
6192 3 7960 7963 7966
6193 2 7961 7962 7964
6194 2 7962 7964 7965
6195 3 7963 7966 7969
6196 2 7964 7965 7967
6197 2 7965 7967 7968
6198 1 7966 7969 7972
6199 2 7967 7968 7970
6200 2 7968 7970 7971
6201 2 7970 7971 7973
6202 2 7971 7973 7974
6203 1 7975 7978 7981
6204 2 7976 7977 7979
6205 2 7977 7979 7980
6206 3 7978 7981 7984
6207 2 7979 7980 7982
6208 2 7980 7982 7983
6209 3 7981 7984 7987
6210 2 7982 7983 7985
6211 2 7983 7985 7986
6212 1 7984 7987 7990
6213 2 7985 7986 7988
6214 2 7986 7988 7989
6215 2 7988 7989 7991
6216 2 7989 7991 7992
6217 1 7993 7996 7999
6218 2 7994 7995 7997
6219 2 7995 7997 7998
6220 3 7996 7999 8002
6221 2 7997 7998 8000
6222 2 7998 8000 8001
6223 3 7999 8002 8005
6224 2 8000 8001 8003
6225 2 8001 8003 8004
6226 1 8002 8005 8008
6227 2 8003 8004 8006
6228 2 8004 8006 8007
6229 2 8006 8007 8009
6230 2 8007 8009 8010
6231 1 8011 8014 8017
6232 2 8012 8013 8015
6233 2 8013 8015 8016
6234 3 8014 8017 8020
6235 2 8015 8016 8018
6236 2 8016 8018 8019
6237 3 8017 8020 8023
6238 2 8018 8019 8021
6239 2 8019 8021 8022
6240 1 8020 8023 8026
6241 2 8021 8022 8024
6242 2 8022 8024 8025
6243 2 8024 8025 8027
6244 2 8025 8027 8028
6245 1 8029 8032 8035
6246 2 8030 8031 8033
6247 2 8031 8033 8034
6248 3 8032 8035 8038
6249 2 8033 8034 8036
6250 2 8034 8036 8037
6251 3 8035 8038 8041
6252 2 8036 8037 8039
6253 2 8037 8039 8040
6254 1 8038 8041 8044
6255 2 8039 8040 8042
6256 2 8040 8042 8043
6257 2 8042 8043 8045
6258 2 8043 8045 8046
6259 1 8047 8050 8053
6260 2 8048 8049 8051
6261 2 8049 8051 8052
6262 3 8050 8053 8056
6263 2 8051 8052 8054
6264 2 8052 8054 8055
6265 3 8053 8056 8059
6266 2 8054 8055 8057
6267 2 8055 8057 8058
6268 1 8056 8059 8062
6269 2 8057 8058 8060
6270 2 8058 8060 8061
6271 2 8060 8061 8063
6272 2 8061 8063 8064
6273 1 8065 8068 8071
6274 2 8066 8067 8069
6275 2 8067 8069 8070
6276 3 8068 8071 8074
6277 2 8069 8070 8072
6278 2 8070 8072 8073
6279 3 8071 8074 8077
6280 2 8072 8073 8075
6281 2 8073 8075 8076
6282 1 8074 8077 8080
6283 2 8075 8076 8078
6284 2 8076 8078 8079
6285 2 8078 8079 8081
6286 2 8079 8081 8082
6287 1 8083 8086 8089
6288 2 8084 8085 8087
6289 2 8085 8087 8088
6290 3 8086 8089 8092
6291 2 8087 8088 8090
6292 2 8088 8090 8091
6293 3 8089 8092 8095
6294 2 8090 8091 8093
6295 2 8091 8093 8094
6296 1 8092 8095 8098
6297 2 8093 8094 8096
6298 2 8094 8096 8097
6299 2 8096 8097 8099
6300 2 8097 8099 8100
6301 1 8101 8104 8107
6302 2 8102 8103 8105
6303 2 8103 8105 8106
6304 3 8104 8107 8110
6305 2 8105 8106 8108
6306 2 8106 8108 8109
6307 3 8107 8110 8113
6308 2 8108 8109 8111
6309 2 8109 8111 8112
6310 1 8110 8113 8116
6311 2 8111 8112 8114
6312 2 8112 8114 8115
6313 2 8114 8115 8117
6314 2 8115 8117 8118
6315 1 8119 8122 8125
6316 2 8120 8121 8123
6317 2 8121 8123 8124
6318 3 8122 8125 8128
6319 2 8123 8124 8126
6320 2 8124 8126 8127
6321 3 8125 8128 8131
6322 2 8126 8127 8129
6323 2 8127 8129 8130
6324 1 8128 8131 8134
6325 2 8129 8130 8132
6326 2 8130 8132 8133
6327 2 8132 8133 8135
6328 2 8133 8135 8136
6329 1 8137 8140 8143
6330 2 8138 8139 8141
6331 2 8139 8141 8142
6332 3 8140 8143 8146
6333 2 8141 8142 8144
6334 2 8142 8144 8145
6335 3 8143 8146 8149
6336 2 8144 8145 8147
6337 2 8145 8147 8148
6338 1 8146 8149 8152
6339 2 8147 8148 8150
6340 2 8148 8150 8151
6341 2 8150 8151 8153
6342 2 8151 8153 8154
6343 1 8155 8158 8161
6344 2 8156 8157 8159
6345 2 8157 8159 8160
6346 3 8158 8161 8164
6347 2 8159 8160 8162
6348 2 8160 8162 8163
6349 3 8161 8164 8167
6350 2 8162 8163 8165
6351 2 8163 8165 8166
6352 1 8164 8167 8170
6353 2 8165 8166 8168
6354 2 8166 8168 8169
6355 2 8168 8169 8171
6356 2 8169 8171 8172
6357 1 8173 8176 8179
6358 2 8174 8175 8177
6359 2 8175 8177 8178
6360 3 8176 8179 8182
6361 2 8177 8178 8180
6362 2 8178 8180 8181
6363 3 8179 8182 8185
6364 2 8180 8181 8183
6365 2 8181 8183 8184
6366 1 8182 8185 8188
6367 2 8183 8184 8186
6368 2 8184 8186 8187
6369 2 8186 8187 8189
6370 2 8187 8189 8190
6371 1 8191 8194 8197
6372 2 8192 8193 8195
6373 2 8193 8195 8196
6374 3 8194 8197 8200
6375 2 8195 8196 8198
6376 2 8196 8198 8199
6377 3 8197 8200 8203
6378 2 8198 8199 8201
6379 2 8199 8201 8202
6380 1 8200 8203 8206
6381 2 8201 8202 8204
6382 2 8202 8204 8205
6383 2 8204 8205 8207
6384 2 8205 8207 8208
6385 1 8209 8212 8215
6386 2 8210 8211 8213
6387 2 8211 8213 8214
6388 3 8212 8215 8218
6389 2 8213 8214 8216
6390 2 8214 8216 8217
6391 3 8215 8218 8221
6392 2 8216 8217 8219
6393 2 8217 8219 8220
6394 1 8218 8221 8224
6395 2 8219 8220 8222
6396 2 8220 8222 8223
6397 2 8222 8223 8225
6398 2 8223 8225 8226
6399 1 8227 8230 8233
6400 2 8228 8229 8231
6401 2 8229 8231 8232
6402 3 8230 8233 8236
6403 2 8231 8232 8234
6404 2 8232 8234 8235
6405 3 8233 8236 8239
6406 2 8234 8235 8237
6407 2 8235 8237 8238
6408 1 8236 8239 8242
6409 2 8237 8238 8240
6410 2 8238 8240 8241
6411 2 8240 8241 8243
6412 2 8241 8243 8244
6413 1 8245 8248 8251
6414 2 8246 8247 8249
6415 2 8247 8249 8250
6416 3 8248 8251 8254
6417 2 8249 8250 8252
6418 2 8250 8252 8253
6419 3 8251 8254 8257
6420 2 8252 8253 8255
6421 2 8253 8255 8256
6422 1 8254 8257 8260
6423 2 8255 8256 8258
6424 2 8256 8258 8259
6425 2 8258 8259 8261
6426 2 8259 8261 8262
6427 1 8263 8266 8269
6428 2 8264 8265 8267
6429 2 8265 8267 8268
6430 3 8266 8269 8272
6431 2 8267 8268 8270
6432 2 8268 8270 8271
6433 3 8269 8272 8275
6434 2 8270 8271 8273
6435 2 8271 8273 8274
6436 1 8272 8275 8278
6437 2 8273 8274 8276
6438 2 8274 8276 8277
6439 2 8276 8277 8279
6440 2 8277 8279 8280
6441 1 8281 8284 8287
6442 2 8282 8283 8285
6443 2 8283 8285 8286
6444 3 8284 8287 8290
6445 2 8285 8286 8288
6446 2 8286 8288 8289
6447 3 8287 8290 8293
6448 2 8288 8289 8291
6449 2 8289 8291 8292
6450 1 8290 8293 8296
6451 2 8291 8292 8294
6452 2 8292 8294 8295
6453 2 8294 8295 8297
6454 2 8295 8297 8298
6455 1 8299 8302 8305
6456 2 8300 8301 8303
6457 2 8301 8303 8304
6458 3 8302 8305 8308
6459 2 8303 8304 8306
6460 2 8304 8306 8307
6461 3 8305 8308 8311
6462 2 8306 8307 8309
6463 2 8307 8309 8310
6464 1 8308 8311 8314
6465 2 8309 8310 8312
6466 2 8310 8312 8313
6467 2 8312 8313 8315
6468 2 8313 8315 8316
6469 1 8317 8320 8323
6470 2 8318 8319 8321
6471 2 8319 8321 8322
6472 3 8320 8323 8326
6473 2 8321 8322 8324
6474 2 8322 8324 8325
6475 3 8323 8326 8329
6476 2 8324 8325 8327
6477 2 8325 8327 8328
6478 1 8326 8329 8332
6479 2 8327 8328 8330
6480 2 8328 8330 8331
6481 2 8330 8331 8333
6482 2 8331 8333 8334
6483 1 8335 8338 8341
6484 2 8336 8337 8339
6485 2 8337 8339 8340
6486 3 8338 8341 8344
6487 2 8339 8340 8342
6488 2 8340 8342 8343
6489 3 8341 8344 8347
6490 2 8342 8343 8345
6491 2 8343 8345 8346
6492 1 8344 8347 8350
6493 2 8345 8346 8348
6494 2 8346 8348 8349
6495 2 8348 8349 8351
6496 2 8349 8351 8352
6497 1 8353 8356 8359
6498 2 8354 8355 8357
6499 2 8355 8357 8358
6500 3 8356 8359 8362
6501 2 8357 8358 8360
6502 2 8358 8360 8361
6503 3 8359 8362 8365
6504 2 8360 8361 8363
6505 2 8361 8363 8364
6506 1 8362 8365 8368
6507 2 8363 8364 8366
6508 2 8364 8366 8367
6509 2 8366 8367 8369
6510 2 8367 8369 8370
6511 1 8371 8374 8377
6512 2 8372 8373 8375
6513 2 8373 8375 8376
6514 3 8374 8377 8380
6515 2 8375 8376 8378
6516 2 8376 8378 8379
6517 3 8377 8380 8383
6518 2 8378 8379 8381
6519 2 8379 8381 8382
6520 1 8380 8383 8386
6521 2 8381 8382 8384
6522 2 8382 8384 8385
6523 2 8384 8385 8387
6524 2 8385 8387 8388
6525 1 8389 8392 8395
6526 2 8390 8391 8393
6527 2 8391 8393 8394
6528 3 8392 8395 8398
6529 2 8393 8394 8396
6530 2 8394 8396 8397
6531 3 8395 8398 8401
6532 2 8396 8397 8399
6533 2 8397 8399 8400
6534 1 8398 8401 8404
6535 2 8399 8400 8402
6536 2 8400 8402 8403
6537 2 8402 8403 8405
6538 2 8403 8405 8406
6539 1 8407 8410 8413
6540 2 8408 8409 8411
6541 2 8409 8411 8412
6542 3 8410 8413 8416
6543 2 8411 8412 8414
6544 2 8412 8414 8415
6545 3 8413 8416 8419
6546 2 8414 8415 8417
6547 2 8415 8417 8418
6548 1 8416 8419 8422
6549 2 8417 8418 8420
6550 2 8418 8420 8421
6551 2 8420 8421 8423
6552 2 8421 8423 8424
6553 1 8425 8428 8431
6554 2 8426 8427 8429
6555 2 8427 8429 8430
6556 3 8428 8431 8434
6557 2 8429 8430 8432
6558 2 8430 8432 8433
6559 3 8431 8434 8437
6560 2 8432 8433 8435
6561 2 8433 8435 8436
6562 1 8434 8437 8440
6563 2 8435 8436 8438
6564 2 8436 8438 8439
6565 2 8438 8439 8441
6566 2 8439 8441 8442
6567 1 8443 8446 8449
6568 2 8444 8445 8447
6569 2 8445 8447 8448
6570 3 8446 8449 8452
6571 2 8447 8448 8450
6572 2 8448 8450 8451
6573 3 8449 8452 8455
6574 2 8450 8451 8453
6575 2 8451 8453 8454
6576 1 8452 8455 8458
6577 2 8453 8454 8456
6578 2 8454 8456 8457
6579 2 8456 8457 8459
6580 2 8457 8459 8460
6581 1 8461 8464 8467
6582 2 8462 8463 8465
6583 2 8463 8465 8466
6584 3 8464 8467 8470
6585 2 8465 8466 8468
6586 2 8466 8468 8469
6587 3 8467 8470 8473
6588 2 8468 8469 8471
6589 2 8469 8471 8472
6590 1 8470 8473 8476
6591 2 8471 8472 8474
6592 2 8472 8474 8475
6593 2 8474 8475 8477
6594 2 8475 8477 8478
6595 1 8479 8482 8485
6596 2 8480 8481 8483
6597 2 8481 8483 8484
6598 3 8482 8485 8488
6599 2 8483 8484 8486
6600 2 8484 8486 8487
6601 3 8485 8488 8491
6602 2 8486 8487 8489
6603 2 8487 8489 8490
6604 1 8488 8491 8494
6605 2 8489 8490 8492
6606 2 8490 8492 8493
6607 2 8492 8493 8495
6608 2 8493 8495 8496
6609 1 8497 8500 8503
6610 2 8498 8499 8501
6611 2 8499 8501 8502
6612 3 8500 8503 8506
6613 2 8501 8502 8504
6614 2 8502 8504 8505
6615 3 8503 8506 8509
6616 2 8504 8505 8507
6617 2 8505 8507 8508
6618 1 8506 8509 8512
6619 2 8507 8508 8510
6620 2 8508 8510 8511
6621 2 8510 8511 8513
6622 2 8511 8513 8514
6623 1 8515 8518 8521
6624 2 8516 8517 8519
6625 2 8517 8519 8520
6626 3 8518 8521 8524
6627 2 8519 8520 8522
6628 2 8520 8522 8523
6629 3 8521 8524 8527
6630 2 8522 8523 8525
6631 2 8523 8525 8526
6632 1 8524 8527 8530
6633 2 8525 8526 8528
6634 2 8526 8528 8529
6635 2 8528 8529 8531
6636 2 8529 8531 8532
6637 1 8533 8536 8539
6638 2 8534 8535 8537
6639 2 8535 8537 8538
6640 3 8536 8539 8542
6641 2 8537 8538 8540
6642 2 8538 8540 8541
6643 3 8539 8542 8545
6644 2 8540 8541 8543
6645 2 8541 8543 8544
6646 1 8542 8545 8548
6647 2 8543 8544 8546
6648 2 8544 8546 8547
6649 2 8546 8547 8549
6650 2 8547 8549 8550
6651 1 8551 8554 8557
6652 2 8552 8553 8555
6653 2 8553 8555 8556
6654 3 8554 8557 8560
6655 2 8555 8556 8558
6656 2 8556 8558 8559
6657 3 8557 8560 8563
6658 2 8558 8559 8561
6659 2 8559 8561 8562
6660 1 8560 8563 8566
6661 2 8561 8562 8564
6662 2 8562 8564 8565
6663 2 8564 8565 8567
6664 2 8565 8567 8568
6665 1 8569 8572 8575
6666 2 8570 8571 8573
6667 2 8571 8573 8574
6668 3 8572 8575 8578
6669 2 8573 8574 8576
6670 2 8574 8576 8577
6671 3 8575 8578 8581
6672 2 8576 8577 8579
6673 2 8577 8579 8580
6674 1 8578 8581 8584
6675 2 8579 8580 8582
6676 2 8580 8582 8583
6677 2 8582 8583 8585
6678 2 8583 8585 8586
6679 1 8587 8590 8593
6680 2 8588 8589 8591
6681 2 8589 8591 8592
6682 3 8590 8593 8596
6683 2 8591 8592 8594
6684 2 8592 8594 8595
6685 3 8593 8596 8599
6686 2 8594 8595 8597
6687 2 8595 8597 8598
6688 1 8596 8599 8602
6689 2 8597 8598 8600
6690 2 8598 8600 8601
6691 2 8600 8601 8603
6692 2 8601 8603 8604
6693 1 8605 8608 8611
6694 2 8606 8607 8609
6695 2 8607 8609 8610
6696 3 8608 8611 8614
6697 2 8609 8610 8612
6698 2 8610 8612 8613
6699 3 8611 8614 8617
6700 2 8612 8613 8615
6701 2 8613 8615 8616
6702 1 8614 8617 8620
6703 2 8615 8616 8618
6704 2 8616 8618 8619
6705 2 8618 8619 8621
6706 2 8619 8621 8622
6707 1 8623 8626 8629
6708 2 8624 8625 8627
6709 2 8625 8627 8628
6710 3 8626 8629 8632
6711 2 8627 8628 8630
6712 2 8628 8630 8631
6713 3 8629 8632 8635
6714 2 8630 8631 8633
6715 2 8631 8633 8634
6716 1 8632 8635 8638
6717 2 8633 8634 8636
6718 2 8634 8636 8637
6719 2 8636 8637 8639
6720 2 8637 8639 8640
6721 1 8641 8644 8647
6722 2 8642 8643 8645
6723 2 8643 8645 8646
6724 3 8644 8647 8650
6725 2 8645 8646 8648
6726 2 8646 8648 8649
6727 3 8647 8650 8653
6728 2 8648 8649 8651
6729 2 8649 8651 8652
6730 1 8650 8653 8656
6731 2 8651 8652 8654
6732 2 8652 8654 8655
6733 2 8654 8655 8657
6734 2 8655 8657 8658
6735 1 8659 8662 8665
6736 2 8660 8661 8663
6737 2 8661 8663 8664
6738 3 8662 8665 8668
6739 2 8663 8664 8666
6740 2 8664 8666 8667
6741 3 8665 8668 8671
6742 2 8666 8667 8669
6743 2 8667 8669 8670
6744 1 8668 8671 8674
6745 2 8669 8670 8672
6746 2 8670 8672 8673
6747 2 8672 8673 8675
6748 2 8673 8675 8676
6749 1 8677 8680 8683
6750 2 8678 8679 8681
6751 2 8679 8681 8682
6752 3 8680 8683 8686
6753 2 8681 8682 8684
6754 2 8682 8684 8685
6755 3 8683 8686 8689
6756 2 8684 8685 8687
6757 2 8685 8687 8688
6758 1 8686 8689 8692
6759 2 8687 8688 8690
6760 2 8688 8690 8691
6761 2 8690 8691 8693
6762 2 8691 8693 8694
6763 1 8695 8698 8701
6764 2 8696 8697 8699
6765 2 8697 8699 8700
6766 3 8698 8701 8704
6767 2 8699 8700 8702
6768 2 8700 8702 8703
6769 3 8701 8704 8707
6770 2 8702 8703 8705
6771 2 8703 8705 8706
6772 1 8704 8707 8710
6773 2 8705 8706 8708
6774 2 8706 8708 8709
6775 2 8708 8709 8711
6776 2 8709 8711 8712
6777 1 8713 8716 8719
6778 2 8714 8715 8717
6779 2 8715 8717 8718
6780 3 8716 8719 8722
6781 2 8717 8718 8720
6782 2 8718 8720 8721
6783 3 8719 8722 8725
6784 2 8720 8721 8723
6785 2 8721 8723 8724
6786 1 8722 8725 8728
6787 2 8723 8724 8726
6788 2 8724 8726 8727
6789 2 8726 8727 8729
6790 2 8727 8729 8730
6791 1 8731 8734 8737
6792 2 8732 8733 8735
6793 2 8733 8735 8736
6794 3 8734 8737 8740
6795 2 8735 8736 8738
6796 2 8736 8738 8739
6797 3 8737 8740 8743
6798 2 8738 8739 8741
6799 2 8739 8741 8742
6800 1 8740 8743 8746
6801 2 8741 8742 8744
6802 2 8742 8744 8745
6803 2 8744 8745 8747
6804 2 8745 8747 8748
6805 1 8749 8752 8755
6806 2 8750 8751 8753
6807 2 8751 8753 8754
6808 3 8752 8755 8758
6809 2 8753 8754 8756
6810 2 8754 8756 8757
6811 3 8755 8758 8761
6812 2 8756 8757 8759
6813 2 8757 8759 8760
6814 1 8758 8761 8764
6815 2 8759 8760 8762
6816 2 8760 8762 8763
6817 2 8762 8763 8765
6818 2 8763 8765 8766
6819 1 8767 8770 8773
6820 2 8768 8769 8771
6821 2 8769 8771 8772
6822 3 8770 8773 8776
6823 2 8771 8772 8774
6824 2 8772 8774 8775
6825 3 8773 8776 8779
6826 2 8774 8775 8777
6827 2 8775 8777 8778
6828 1 8776 8779 8782
6829 2 8777 8778 8780
6830 2 8778 8780 8781
6831 2 8780 8781 8783
6832 2 8781 8783 8784
6833 1 8785 8788 8791
6834 2 8786 8787 8789
6835 2 8787 8789 8790
6836 3 8788 8791 8794
6837 2 8789 8790 8792
6838 2 8790 8792 8793
6839 3 8791 8794 8797
6840 2 8792 8793 8795
6841 2 8793 8795 8796
6842 1 8794 8797 8800
6843 2 8795 8796 8798
6844 2 8796 8798 8799
6845 2 8798 8799 8801
6846 2 8799 8801 8802
6847 1 8803 8806 8809
6848 2 8804 8805 8807
6849 2 8805 8807 8808
6850 3 8806 8809 8812
6851 2 8807 8808 8810
6852 2 8808 8810 8811
6853 3 8809 8812 8815
6854 2 8810 8811 8813
6855 2 8811 8813 8814
6856 1 8812 8815 8818
6857 2 8813 8814 8816
6858 2 8814 8816 8817
6859 2 8816 8817 8819
6860 2 8817 8819 8820
6861 1 8821 8824 8827
6862 2 8822 8823 8825
6863 2 8823 8825 8826
6864 3 8824 8827 8830
6865 2 8825 8826 8828
6866 2 8826 8828 8829
6867 3 8827 8830 8833
6868 2 8828 8829 8831
6869 2 8829 8831 8832
6870 1 8830 8833 8836
6871 2 8831 8832 8834
6872 2 8832 8834 8835
6873 2 8834 8835 8837
6874 2 8835 8837 8838
6875 1 8839 8842 8845
6876 2 8840 8841 8843
6877 2 8841 8843 8844
6878 3 8842 8845 8848
6879 2 8843 8844 8846
6880 2 8844 8846 8847
6881 3 8845 8848 8851
6882 2 8846 8847 8849
6883 2 8847 8849 8850
6884 1 8848 8851 8854
6885 2 8849 8850 8852
6886 2 8850 8852 8853
6887 2 8852 8853 8855
6888 2 8853 8855 8856
6889 1 8857 8860 8863
6890 2 8858 8859 8861
6891 2 8859 8861 8862
6892 3 8860 8863 8866
6893 2 8861 8862 8864
6894 2 8862 8864 8865
6895 3 8863 8866 8869
6896 2 8864 8865 8867
6897 2 8865 8867 8868
6898 1 8866 8869 8872
6899 2 8867 8868 8870
6900 2 8868 8870 8871
6901 2 8870 8871 8873
6902 2 8871 8873 8874
6903 1 8875 8878 8881
6904 2 8876 8877 8879
6905 2 8877 8879 8880
6906 3 8878 8881 8884
6907 2 8879 8880 8882
6908 2 8880 8882 8883
6909 3 8881 8884 8887
6910 2 8882 8883 8885
6911 2 8883 8885 8886
6912 1 8884 8887 8890
6913 2 8885 8886 8888
6914 2 8886 8888 8889
6915 2 8888 8889 8891
6916 2 8889 8891 8892
6917 1 8893 8896 8899
6918 2 8894 8895 8897
6919 2 8895 8897 8898
6920 3 8896 8899 8902
6921 2 8897 8898 8900
6922 2 8898 8900 8901
6923 3 8899 8902 8905
6924 2 8900 8901 8903
6925 2 8901 8903 8904
6926 1 8902 8905 8908
6927 2 8903 8904 8906
6928 2 8904 8906 8907
6929 2 8906 8907 8909
6930 2 8907 8909 8910
6931 1 8911 8914 8917
6932 2 8912 8913 8915
6933 2 8913 8915 8916
6934 3 8914 8917 8920
6935 2 8915 8916 8918
6936 2 8916 8918 8919
6937 3 8917 8920 8923
6938 2 8918 8919 8921
6939 2 8919 8921 8922
6940 1 8920 8923 8926
6941 2 8921 8922 8924
6942 2 8922 8924 8925
6943 2 8924 8925 8927
6944 2 8925 8927 8928
6945 1 8929 8932 8935
6946 2 8930 8931 8933
6947 2 8931 8933 8934
6948 3 8932 8935 8938
6949 2 8933 8934 8936
6950 2 8934 8936 8937
6951 3 8935 8938 8941
6952 2 8936 8937 8939
6953 2 8937 8939 8940
6954 1 8938 8941 8944
6955 2 8939 8940 8942
6956 2 8940 8942 8943
6957 2 8942 8943 8945
6958 2 8943 8945 8946
6959 1 8947 8950 8953
6960 2 8948 8949 8951
6961 2 8949 8951 8952
6962 3 8950 8953 8956
6963 2 8951 8952 8954
6964 2 8952 8954 8955
6965 3 8953 8956 8959
6966 2 8954 8955 8957
6967 2 8955 8957 8958
6968 1 8956 8959 8962
6969 2 8957 8958 8960
6970 2 8958 8960 8961
6971 2 8960 8961 8963
6972 2 8961 8963 8964
6973 1 8965 8968 8971
6974 2 8966 8967 8969
6975 2 8967 8969 8970
6976 3 8968 8971 8974
6977 2 8969 8970 8972
6978 2 8970 8972 8973
6979 3 8971 8974 8977
6980 2 8972 8973 8975
6981 2 8973 8975 8976
6982 1 8974 8977 8980
6983 2 8975 8976 8978
6984 2 8976 8978 8979
6985 2 8978 8979 8981
6986 2 8979 8981 8982
6987 1 8983 8986 8989
6988 2 8984 8985 8987
6989 2 8985 8987 8988
6990 3 8986 8989 8992
6991 2 8987 8988 8990
6992 2 8988 8990 8991
6993 3 8989 8992 8995
6994 2 8990 8991 8993
6995 2 8991 8993 8994
6996 1 8992 8995 8998
6997 2 8993 8994 8996
6998 2 8994 8996 8997
6999 2 8996 8997 8999
7000 2 8997 8999 9000

Dihedrals

1 1 1 4 7 10
2 1 4 7 10 13
3 1 7 10 13 16
4 1 19 22 25 28
5 1 22 25 28 31
6 1 25 28 31 34
7 1 37 40 43 46
8 1 40 43 46 49
9 1 43 46 49 52
10 1 55 58 61 64
11 1 58 61 64 67
12 1 61 64 67 70
13 1 73 76 79 82
14 1 76 79 82 85
15 1 79 82 85 88
16 1 91 94 97 100
17 1 94 97 100 103
18 1 97 100 103 106
19 1 109 112 115 118
20 1 112 115 118 121
21 1 115 118 121 124
22 1 127 130 133 136
23 1 130 133 136 139
24 1 133 136 139 142
25 1 145 148 151 154
26 1 148 151 154 157
27 1 151 154 157 160
28 1 163 166 169 172
29 1 166 169 172 175
30 1 169 172 175 178
31 1 181 184 187 190
32 1 184 187 190 193
33 1 187 190 193 196
34 1 199 202 205 208
35 1 202 205 208 211
36 1 205 208 211 214
37 1 217 220 223 226
38 1 220 223 226 229
39 1 223 226 229 232
40 1 235 238 241 244
41 1 238 241 244 247
42 1 241 244 247 250
43 1 253 256 259 262
44 1 256 259 262 265
45 1 259 262 265 268
46 1 271 274 277 280
47 1 274 277 280 283
48 1 277 280 283 286
49 1 289 292 295 298
50 1 292 295 298 301
51 1 295 298 301 304
52 1 307 310 313 316
53 1 310 313 316 319
54 1 313 316 319 322
55 1 325 328 331 334
56 1 328 331 334 337
57 1 331 334 337 340
58 1 343 346 349 352
59 1 346 349 352 355
60 1 349 352 355 358
61 1 361 364 367 370
62 1 364 367 370 373
63 1 367 370 373 376
64 1 379 382 385 388
65 1 382 385 388 391
66 1 385 388 391 394
67 1 397 400 403 406
68 1 400 403 406 409
69 1 403 406 409 412
70 1 415 418 421 424
71 1 418 421 424 427
72 1 421 424 427 430
73 1 433 436 439 442
74 1 436 439 442 445
75 1 439 442 445 448
76 1 451 454 457 460
77 1 454 457 460 463
78 1 457 460 463 466
79 1 469 472 475 478
80 1 472 475 478 481
81 1 475 478 481 484
82 1 487 490 493 496
83 1 490 493 496 499
84 1 493 496 499 502
85 1 505 508 511 514
86 1 508 511 514 517
87 1 511 514 517 520
88 1 523 526 529 532
89 1 526 529 532 535
90 1 529 532 535 538
91 1 541 544 547 550
92 1 544 547 550 553
93 1 547 550 553 556
94 1 559 562 565 568
95 1 562 565 568 571
96 1 565 568 571 574
97 1 577 580 583 586
98 1 580 583 586 589
99 1 583 586 589 592
100 1 595 598 601 604
101 1 598 601 604 607
102 1 601 604 607 610
103 1 613 616 619 622
104 1 616 619 622 625
105 1 619 622 625 628
106 1 631 634 637 640
107 1 634 637 640 643
108 1 637 640 643 646
109 1 649 652 655 658
110 1 652 655 658 661
111 1 655 658 661 664
112 1 667 670 673 676
113 1 670 673 676 679
114 1 673 676 679 682
115 1 685 688 691 694
116 1 688 691 694 697
117 1 691 694 697 700
118 1 703 706 709 712
119 1 706 709 712 715
120 1 709 712 715 718
121 1 721 724 727 730
122 1 724 727 730 733
123 1 727 730 733 736
124 1 739 742 745 748
125 1 742 745 748 751
126 1 745 748 751 754
127 1 757 760 763 766
128 1 760 763 766 769
129 1 763 766 769 772
130 1 775 778 781 784
131 1 778 781 784 787
132 1 781 784 787 790
133 1 793 796 799 802
134 1 796 799 802 805
135 1 799 802 805 808
136 1 811 814 817 820
137 1 814 817 820 823
138 1 817 820 823 826
139 1 829 832 835 838
140 1 832 835 838 841
141 1 835 838 841 844
142 1 847 850 853 856
143 1 850 853 856 859
144 1 853 856 859 862
145 1 865 868 871 874
146 1 868 871 874 877
147 1 871 874 877 880
148 1 883 886 889 892
149 1 886 889 892 895
150 1 889 892 895 898
151 1 901 904 907 910
152 1 904 907 910 913
153 1 907 910 913 916
154 1 919 922 925 928
155 1 922 925 928 931
156 1 925 928 931 934
157 1 937 940 943 946
158 1 940 943 946 949
159 1 943 946 949 952
160 1 955 958 961 964
161 1 958 961 964 967
162 1 961 964 967 970
163 1 973 976 979 982
164 1 976 979 982 985
165 1 979 982 985 988
166 1 991 994 997 1000
167 1 994 997 1000 1003
168 1 997 1000 1003 1006
169 1 1009 1012 1015 1018
170 1 1012 1015 1018 1021
171 1 1015 1018 1021 1024
172 1 1027 1030 1033 1036
173 1 1030 1033 1036 1039
174 1 1033 1036 1039 1042
175 1 1045 1048 1051 1054
176 1 1048 1051 1054 1057
177 1 1051 1054 1057 1060
178 1 1063 1066 1069 1072
179 1 1066 1069 1072 1075
180 1 1069 1072 1075 1078
181 1 1081 1084 1087 1090
182 1 1084 1087 1090 1093
183 1 1087 1090 1093 1096
184 1 1099 1102 1105 1108
185 1 1102 1105 1108 1111
186 1 1105 1108 1111 1114
187 1 1117 1120 1123 1126
188 1 1120 1123 1126 1129
189 1 1123 1126 1129 1132
190 1 1135 1138 1141 1144
191 1 1138 1141 1144 1147
192 1 1141 1144 1147 1150
193 1 1153 1156 1159 1162
194 1 1156 1159 1162 1165
195 1 1159 1162 1165 1168
196 1 1171 1174 1177 1180
197 1 1174 1177 1180 1183
198 1 1177 1180 1183 1186
199 1 1189 1192 1195 1198
200 1 1192 1195 1198 1201
201 1 1195 1198 1201 1204
202 1 1207 1210 1213 1216
203 1 1210 1213 1216 1219
204 1 1213 1216 1219 1222
205 1 1225 1228 1231 1234
206 1 1228 1231 1234 1237
207 1 1231 1234 1237 1240
208 1 1243 1246 1249 1252
209 1 1246 1249 1252 1255
210 1 1249 1252 1255 1258
211 1 1261 1264 1267 1270
212 1 1264 1267 1270 1273
213 1 1267 1270 1273 1276
214 1 1279 1282 1285 1288
215 1 1282 1285 1288 1291
216 1 1285 1288 1291 1294
217 1 1297 1300 1303 1306
218 1 1300 1303 1306 1309
219 1 1303 1306 1309 1312
220 1 1315 1318 1321 1324
221 1 1318 1321 1324 1327
222 1 1321 1324 1327 1330
223 1 1333 1336 1339 1342
224 1 1336 1339 1342 1345
225 1 1339 1342 1345 1348
226 1 1351 1354 1357 1360
227 1 1354 1357 1360 1363
228 1 1357 1360 1363 1366
229 1 1369 1372 1375 1378
230 1 1372 1375 1378 1381
231 1 1375 1378 1381 1384
232 1 1387 1390 1393 1396
233 1 1390 1393 1396 1399
234 1 1393 1396 1399 1402
235 1 1405 1408 1411 1414
236 1 1408 1411 1414 1417
237 1 1411 1414 1417 1420
238 1 1423 1426 1429 1432
239 1 1426 1429 1432 1435
240 1 1429 1432 1435 1438
241 1 1441 1444 1447 1450
242 1 1444 1447 1450 1453
243 1 1447 1450 1453 1456
244 1 1459 1462 1465 1468
245 1 1462 1465 1468 1471
246 1 1465 1468 1471 1474
247 1 1477 1480 1483 1486
248 1 1480 1483 1486 1489
249 1 1483 1486 1489 1492
250 1 1495 1498 1501 1504
251 1 1498 1501 1504 1507
252 1 1501 1504 1507 1510
253 1 1513 1516 1519 1522
254 1 1516 1519 1522 1525
255 1 1519 1522 1525 1528
256 1 1531 1534 1537 1540
257 1 1534 1537 1540 1543
258 1 1537 1540 1543 1546
259 1 1549 1552 1555 1558
260 1 1552 1555 1558 1561
261 1 1555 1558 1561 1564
262 1 1567 1570 1573 1576
263 1 1570 1573 1576 1579
264 1 1573 1576 1579 1582
265 1 1585 1588 1591 1594
266 1 1588 1591 1594 1597
267 1 1591 1594 1597 1600
268 1 1603 1606 1609 1612
269 1 1606 1609 1612 1615
270 1 1609 1612 1615 1618
271 1 1621 1624 1627 1630
272 1 1624 1627 1630 1633
273 1 1627 1630 1633 1636
274 1 1639 1642 1645 1648
275 1 1642 1645 1648 1651
276 1 1645 1648 1651 1654
277 1 1657 1660 1663 1666
278 1 1660 1663 1666 1669
279 1 1663 1666 1669 1672
280 1 1675 1678 1681 1684
281 1 1678 1681 1684 1687
282 1 1681 1684 1687 1690
283 1 1693 1696 1699 1702
284 1 1696 1699 1702 1705
285 1 1699 1702 1705 1708
286 1 1711 1714 1717 1720
287 1 1714 1717 1720 1723
288 1 1717 1720 1723 1726
289 1 1729 1732 1735 1738
290 1 1732 1735 1738 1741
291 1 1735 1738 1741 1744
292 1 1747 1750 1753 1756
293 1 1750 1753 1756 1759
294 1 1753 1756 1759 1762
295 1 1765 1768 1771 1774
296 1 1768 1771 1774 1777
297 1 1771 1774 1777 1780
298 1 1783 1786 1789 1792
299 1 1786 1789 1792 1795
300 1 1789 1792 1795 1798
301 1 1801 1804 1807 1810
302 1 1804 1807 1810 1813
303 1 1807 1810 1813 1816
304 1 1819 1822 1825 1828
305 1 1822 1825 1828 1831
306 1 1825 1828 1831 1834
307 1 1837 1840 1843 1846
308 1 1840 1843 1846 1849
309 1 1843 1846 1849 1852
310 1 1855 1858 1861 1864
311 1 1858 1861 1864 1867
312 1 1861 1864 1867 1870
313 1 1873 1876 1879 1882
314 1 1876 1879 1882 1885
315 1 1879 1882 1885 1888
316 1 1891 1894 1897 1900
317 1 1894 1897 1900 1903
318 1 1897 1900 1903 1906
319 1 1909 1912 1915 1918
320 1 1912 1915 1918 1921
321 1 1915 1918 1921 1924
322 1 1927 1930 1933 1936
323 1 1930 1933 1936 1939
324 1 1933 1936 1939 1942
325 1 1945 1948 1951 1954
326 1 1948 1951 1954 1957
327 1 1951 1954 1957 1960
328 1 1963 1966 1969 1972
329 1 1966 1969 1972 1975
330 1 1969 1972 1975 1978
331 1 1981 1984 1987 1990
332 1 1984 1987 1990 1993
333 1 1987 1990 1993 1996
334 1 1999 2002 2005 2008
335 1 2002 2005 2008 2011
336 1 2005 2008 2011 2014
337 1 2017 2020 2023 2026
338 1 2020 2023 2026 2029
339 1 2023 2026 2029 2032
340 1 2035 2038 2041 2044
341 1 2038 2041 2044 2047
342 1 2041 2044 2047 2050
343 1 2053 2056 2059 2062
344 1 2056 2059 2062 2065
345 1 2059 2062 2065 2068
346 1 2071 2074 2077 2080
347 1 2074 2077 2080 2083
348 1 2077 2080 2083 2086
349 1 2089 2092 2095 2098
350 1 2092 2095 2098 2101
351 1 2095 2098 2101 2104
352 1 2107 2110 2113 2116
353 1 2110 2113 2116 2119
354 1 2113 2116 2119 2122
355 1 2125 2128 2131 2134
356 1 2128 2131 2134 2137
357 1 2131 2134 2137 2140
358 1 2143 2146 2149 2152
359 1 2146 2149 2152 2155
360 1 2149 2152 2155 2158
361 1 2161 2164 2167 2170
362 1 2164 2167 2170 2173
363 1 2167 2170 2173 2176
364 1 2179 2182 2185 2188
365 1 2182 2185 2188 2191
366 1 2185 2188 2191 2194
367 1 2197 2200 2203 2206
368 1 2200 2203 2206 2209
369 1 2203 2206 2209 2212
370 1 2215 2218 2221 2224
371 1 2218 2221 2224 2227
372 1 2221 2224 2227 2230
373 1 2233 2236 2239 2242
374 1 2236 2239 2242 2245
375 1 2239 2242 2245 2248
376 1 2251 2254 2257 2260
377 1 2254 2257 2260 2263
378 1 2257 2260 2263 2266
379 1 2269 2272 2275 2278
380 1 2272 2275 2278 2281
381 1 2275 2278 2281 2284
382 1 2287 2290 2293 2296
383 1 2290 2293 2296 2299
384 1 2293 2296 2299 2302
385 1 2305 2308 2311 2314
386 1 2308 2311 2314 2317
387 1 2311 2314 2317 2320
388 1 2323 2326 2329 2332
389 1 2326 2329 2332 2335
390 1 2329 2332 2335 2338
391 1 2341 2344 2347 2350
392 1 2344 2347 2350 2353
393 1 2347 2350 2353 2356
394 1 2359 2362 2365 2368
395 1 2362 2365 2368 2371
396 1 2365 2368 2371 2374
397 1 2377 2380 2383 2386
398 1 2380 2383 2386 2389
399 1 2383 2386 2389 2392
400 1 2395 2398 2401 2404
401 1 2398 2401 2404 2407
402 1 2401 2404 2407 2410
403 1 2413 2416 2419 2422
404 1 2416 2419 2422 2425
405 1 2419 2422 2425 2428
406 1 2431 2434 2437 2440
407 1 2434 2437 2440 2443
408 1 2437 2440 2443 2446
409 1 2449 2452 2455 2458
410 1 2452 2455 2458 2461
411 1 2455 2458 2461 2464
412 1 2467 2470 2473 2476
413 1 2470 2473 2476 2479
414 1 2473 2476 2479 2482
415 1 2485 2488 2491 2494
416 1 2488 2491 2494 2497
417 1 2491 2494 2497 2500
418 1 2503 2506 2509 2512
419 1 2506 2509 2512 2515
420 1 2509 2512 2515 2518
421 1 2521 2524 2527 2530
422 1 2524 2527 2530 2533
423 1 2527 2530 2533 2536
424 1 2539 2542 2545 2548
425 1 2542 2545 2548 2551
426 1 2545 2548 2551 2554
427 1 2557 2560 2563 2566
428 1 2560 2563 2566 2569
429 1 2563 2566 2569 2572
430 1 2575 2578 2581 2584
431 1 2578 2581 2584 2587
432 1 2581 2584 2587 2590
433 1 2593 2596 2599 2602
434 1 2596 2599 2602 2605
435 1 2599 2602 2605 2608
436 1 2611 2614 2617 2620
437 1 2614 2617 2620 2623
438 1 2617 2620 2623 2626
439 1 2629 2632 2635 2638
440 1 2632 2635 2638 2641
441 1 2635 2638 2641 2644
442 1 2647 2650 2653 2656
443 1 2650 2653 2656 2659
444 1 2653 2656 2659 2662
445 1 2665 2668 2671 2674
446 1 2668 2671 2674 2677
447 1 2671 2674 2677 2680
448 1 2683 2686 2689 2692
449 1 2686 2689 2692 2695
450 1 2689 2692 2695 2698
451 1 2701 2704 2707 2710
452 1 2704 2707 2710 2713
453 1 2707 2710 2713 2716
454 1 2719 2722 2725 2728
455 1 2722 2725 2728 2731
456 1 2725 2728 2731 2734
457 1 2737 2740 2743 2746
458 1 2740 2743 2746 2749
459 1 2743 2746 2749 2752
460 1 2755 2758 2761 2764
461 1 2758 2761 2764 2767
462 1 2761 2764 2767 2770
463 1 2773 2776 2779 2782
464 1 2776 2779 2782 2785
465 1 2779 2782 2785 2788
466 1 2791 2794 2797 2800
467 1 2794 2797 2800 2803
468 1 2797 2800 2803 2806
469 1 2809 2812 2815 2818
470 1 2812 2815 2818 2821
471 1 2815 2818 2821 2824
472 1 2827 2830 2833 2836
473 1 2830 2833 2836 2839
474 1 2833 2836 2839 2842
475 1 2845 2848 2851 2854
476 1 2848 2851 2854 2857
477 1 2851 2854 2857 2860
478 1 2863 2866 2869 2872
479 1 2866 2869 2872 2875
480 1 2869 2872 2875 2878
481 1 2881 2884 2887 2890
482 1 2884 2887 2890 2893
483 1 2887 2890 2893 2896
484 1 2899 2902 2905 2908
485 1 2902 2905 2908 2911
486 1 2905 2908 2911 2914
487 1 2917 2920 2923 2926
488 1 2920 2923 2926 2929
489 1 2923 2926 2929 2932
490 1 2935 2938 2941 2944
491 1 2938 2941 2944 2947
492 1 2941 2944 2947 2950
493 1 2953 2956 2959 2962
494 1 2956 2959 2962 2965
495 1 2959 2962 2965 2968
496 1 2971 2974 2977 2980
497 1 2974 2977 2980 2983
498 1 2977 2980 2983 2986
499 1 2989 2992 2995 2998
500 1 2992 2995 2998 3001
501 1 2995 2998 3001 3004
502 1 3007 3010 3013 3016
503 1 3010 3013 3016 3019
504 1 3013 3016 3019 3022
505 1 3025 3028 3031 3034
506 1 3028 3031 3034 3037
507 1 3031 3034 3037 3040
508 1 3043 3046 3049 3052
509 1 3046 3049 3052 3055
510 1 3049 3052 3055 3058
511 1 3061 3064 3067 3070
512 1 3064 3067 3070 3073
513 1 3067 3070 3073 3076
514 1 3079 3082 3085 3088
515 1 3082 3085 3088 3091
516 1 3085 3088 3091 3094
517 1 3097 3100 3103 3106
518 1 3100 3103 3106 3109
519 1 3103 3106 3109 3112
520 1 3115 3118 3121 3124
521 1 3118 3121 3124 3127
522 1 3121 3124 3127 3130
523 1 3133 3136 3139 3142
524 1 3136 3139 3142 3145
525 1 3139 3142 3145 3148
526 1 3151 3154 3157 3160
527 1 3154 3157 3160 3163
528 1 3157 3160 3163 3166
529 1 3169 3172 3175 3178
530 1 3172 3175 3178 3181
531 1 3175 3178 3181 3184
532 1 3187 3190 3193 3196
533 1 3190 3193 3196 3199
534 1 3193 3196 3199 3202
535 1 3205 3208 3211 3214
536 1 3208 3211 3214 3217
537 1 3211 3214 3217 3220
538 1 3223 3226 3229 3232
539 1 3226 3229 3232 3235
540 1 3229 3232 3235 3238
541 1 3241 3244 3247 3250
542 1 3244 3247 3250 3253
543 1 3247 3250 3253 3256
544 1 3259 3262 3265 3268
545 1 3262 3265 3268 3271
546 1 3265 3268 3271 3274
547 1 3277 3280 3283 3286
548 1 3280 3283 3286 3289
549 1 3283 3286 3289 3292
550 1 3295 3298 3301 3304
551 1 3298 3301 3304 3307
552 1 3301 3304 3307 3310
553 1 3313 3316 3319 3322
554 1 3316 3319 3322 3325
555 1 3319 3322 3325 3328
556 1 3331 3334 3337 3340
557 1 3334 3337 3340 3343
558 1 3337 3340 3343 3346
559 1 3349 3352 3355 3358
560 1 3352 3355 3358 3361
561 1 3355 3358 3361 3364
562 1 3367 3370 3373 3376
563 1 3370 3373 3376 3379
564 1 3373 3376 3379 3382
565 1 3385 3388 3391 3394
566 1 3388 3391 3394 3397
567 1 3391 3394 3397 3400
568 1 3403 3406 3409 3412
569 1 3406 3409 3412 3415
570 1 3409 3412 3415 3418
571 1 3421 3424 3427 3430
572 1 3424 3427 3430 3433
573 1 3427 3430 3433 3436
574 1 3439 3442 3445 3448
575 1 3442 3445 3448 3451
576 1 3445 3448 3451 3454
577 1 3457 3460 3463 3466
578 1 3460 3463 3466 3469
579 1 3463 3466 3469 3472
580 1 3475 3478 3481 3484
581 1 3478 3481 3484 3487
582 1 3481 3484 3487 3490
583 1 3493 3496 3499 3502
584 1 3496 3499 3502 3505
585 1 3499 3502 3505 3508
586 1 3511 3514 3517 3520
587 1 3514 3517 3520 3523
588 1 3517 3520 3523 3526
589 1 3529 3532 3535 3538
590 1 3532 3535 3538 3541
591 1 3535 3538 3541 3544
592 1 3547 3550 3553 3556
593 1 3550 3553 3556 3559
594 1 3553 3556 3559 3562
595 1 3565 3568 3571 3574
596 1 3568 3571 3574 3577
597 1 3571 3574 3577 3580
598 1 3583 3586 3589 3592
599 1 3586 3589 3592 3595
600 1 3589 3592 3595 3598
601 1 3601 3604 3607 3610
602 1 3604 3607 3610 3613
603 1 3607 3610 3613 3616
604 1 3619 3622 3625 3628
605 1 3622 3625 3628 3631
606 1 3625 3628 3631 3634
607 1 3637 3640 3643 3646
608 1 3640 3643 3646 3649
609 1 3643 3646 3649 3652
610 1 3655 3658 3661 3664
611 1 3658 3661 3664 3667
612 1 3661 3664 3667 3670
613 1 3673 3676 3679 3682
614 1 3676 3679 3682 3685
615 1 3679 3682 3685 3688
616 1 3691 3694 3697 3700
617 1 3694 3697 3700 3703
618 1 3697 3700 3703 3706
619 1 3709 3712 3715 3718
620 1 3712 3715 3718 3721
621 1 3715 3718 3721 3724
622 1 3727 3730 3733 3736
623 1 3730 3733 3736 3739
624 1 3733 3736 3739 3742
625 1 3745 3748 3751 3754
626 1 3748 3751 3754 3757
627 1 3751 3754 3757 3760
628 1 3763 3766 3769 3772
629 1 3766 3769 3772 3775
630 1 3769 3772 3775 3778
631 1 3781 3784 3787 3790
632 1 3784 3787 3790 3793
633 1 3787 3790 3793 3796
634 1 3799 3802 3805 3808
635 1 3802 3805 3808 3811
636 1 3805 3808 3811 3814
637 1 3817 3820 3823 3826
638 1 3820 3823 3826 3829
639 1 3823 3826 3829 3832
640 1 3835 3838 3841 3844
641 1 3838 3841 3844 3847
642 1 3841 3844 3847 3850
643 1 3853 3856 3859 3862
644 1 3856 3859 3862 3865
645 1 3859 3862 3865 3868
646 1 3871 3874 3877 3880
647 1 3874 3877 3880 3883
648 1 3877 3880 3883 3886
649 1 3889 3892 3895 3898
650 1 3892 3895 3898 3901
651 1 3895 3898 3901 3904
652 1 3907 3910 3913 3916
653 1 3910 3913 3916 3919
654 1 3913 3916 3919 3922
655 1 3925 3928 3931 3934
656 1 3928 3931 3934 3937
657 1 3931 3934 3937 3940
658 1 3943 3946 3949 3952
659 1 3946 3949 3952 3955
660 1 3949 3952 3955 3958
661 1 3961 3964 3967 3970
662 1 3964 3967 3970 3973
663 1 3967 3970 3973 3976
664 1 3979 3982 3985 3988
665 1 3982 3985 3988 3991
666 1 3985 3988 3991 3994
667 1 3997 4000 4003 4006
668 1 4000 4003 4006 4009
669 1 4003 4006 4009 4012
670 1 4015 4018 4021 4024
671 1 4018 4021 4024 4027
672 1 4021 4024 4027 4030
673 1 4033 4036 4039 4042
674 1 4036 4039 4042 4045
675 1 4039 4042 4045 4048
676 1 4051 4054 4057 4060
677 1 4054 4057 4060 4063
678 1 4057 4060 4063 4066
679 1 4069 4072 4075 4078
680 1 4072 4075 4078 4081
681 1 4075 4078 4081 4084
682 1 4087 4090 4093 4096
683 1 4090 4093 4096 4099
684 1 4093 4096 4099 4102
685 1 4105 4108 4111 4114
686 1 4108 4111 4114 4117
687 1 4111 4114 4117 4120
688 1 4123 4126 4129 4132
689 1 4126 4129 4132 4135
690 1 4129 4132 4135 4138
691 1 4141 4144 4147 4150
692 1 4144 4147 4150 4153
693 1 4147 4150 4153 4156
694 1 4159 4162 4165 4168
695 1 4162 4165 4168 4171
696 1 4165 4168 4171 4174
697 1 4177 4180 4183 4186
698 1 4180 4183 4186 4189
699 1 4183 4186 4189 4192
700 1 4195 4198 4201 4204
701 1 4198 4201 4204 4207
702 1 4201 4204 4207 4210
703 1 4213 4216 4219 4222
704 1 4216 4219 4222 4225
705 1 4219 4222 4225 4228
706 1 4231 4234 4237 4240
707 1 4234 4237 4240 4243
708 1 4237 4240 4243 4246
709 1 4249 4252 4255 4258
710 1 4252 4255 4258 4261
711 1 4255 4258 4261 4264
712 1 4267 4270 4273 4276
713 1 4270 4273 4276 4279
714 1 4273 4276 4279 4282
715 1 4285 4288 4291 4294
716 1 4288 4291 4294 4297
717 1 4291 4294 4297 4300
718 1 4303 4306 4309 4312
719 1 4306 4309 4312 4315
720 1 4309 4312 4315 4318
721 1 4321 4324 4327 4330
722 1 4324 4327 4330 4333
723 1 4327 4330 4333 4336
724 1 4339 4342 4345 4348
725 1 4342 4345 4348 4351
726 1 4345 4348 4351 4354
727 1 4357 4360 4363 4366
728 1 4360 4363 4366 4369
729 1 4363 4366 4369 4372
730 1 4375 4378 4381 4384
731 1 4378 4381 4384 4387
732 1 4381 4384 4387 4390
733 1 4393 4396 4399 4402
734 1 4396 4399 4402 4405
735 1 4399 4402 4405 4408
736 1 4411 4414 4417 4420
737 1 4414 4417 4420 4423
738 1 4417 4420 4423 4426
739 1 4429 4432 4435 4438
740 1 4432 4435 4438 4441
741 1 4435 4438 4441 4444
742 1 4447 4450 4453 4456
743 1 4450 4453 4456 4459
744 1 4453 4456 4459 4462
745 1 4465 4468 4471 4474
746 1 4468 4471 4474 4477
747 1 4471 4474 4477 4480
748 1 4483 4486 4489 4492
749 1 4486 4489 4492 4495
750 1 4489 4492 4495 4498
751 1 4501 4504 4507 4510
752 1 4504 4507 4510 4513
753 1 4507 4510 4513 4516
754 1 4519 4522 4525 4528
755 1 4522 4525 4528 4531
756 1 4525 4528 4531 4534
757 1 4537 4540 4543 4546
758 1 4540 4543 4546 4549
759 1 4543 4546 4549 4552
760 1 4555 4558 4561 4564
761 1 4558 4561 4564 4567
762 1 4561 4564 4567 4570
763 1 4573 4576 4579 4582
764 1 4576 4579 4582 4585
765 1 4579 4582 4585 4588
766 1 4591 4594 4597 4600
767 1 4594 4597 4600 4603
768 1 4597 4600 4603 4606
769 1 4609 4612 4615 4618
770 1 4612 4615 4618 4621
771 1 4615 4618 4621 4624
772 1 4627 4630 4633 4636
773 1 4630 4633 4636 4639
774 1 4633 4636 4639 4642
775 1 4645 4648 4651 4654
776 1 4648 4651 4654 4657
777 1 4651 4654 4657 4660
778 1 4663 4666 4669 4672
779 1 4666 4669 4672 4675
780 1 4669 4672 4675 4678
781 1 4681 4684 4687 4690
782 1 4684 4687 4690 4693
783 1 4687 4690 4693 4696
784 1 4699 4702 4705 4708
785 1 4702 4705 4708 4711
786 1 4705 4708 4711 4714
787 1 4717 4720 4723 4726
788 1 4720 4723 4726 4729
789 1 4723 4726 4729 4732
790 1 4735 4738 4741 4744
791 1 4738 4741 4744 4747
792 1 4741 4744 4747 4750
793 1 4753 4756 4759 4762
794 1 4756 4759 4762 4765
795 1 4759 4762 4765 4768
796 1 4771 4774 4777 4780
797 1 4774 4777 4780 4783
798 1 4777 4780 4783 4786
799 1 4789 4792 4795 4798
800 1 4792 4795 4798 4801
801 1 4795 4798 4801 4804
802 1 4807 4810 4813 4816
803 1 4810 4813 4816 4819
804 1 4813 4816 4819 4822
805 1 4825 4828 4831 4834
806 1 4828 4831 4834 4837
807 1 4831 4834 4837 4840
808 1 4843 4846 4849 4852
809 1 4846 4849 4852 4855
810 1 4849 4852 4855 4858
811 1 4861 4864 4867 4870
812 1 4864 4867 4870 4873
813 1 4867 4870 4873 4876
814 1 4879 4882 4885 4888
815 1 4882 4885 4888 4891
816 1 4885 4888 4891 4894
817 1 4897 4900 4903 4906
818 1 4900 4903 4906 4909
819 1 4903 4906 4909 4912
820 1 4915 4918 4921 4924
821 1 4918 4921 4924 4927
822 1 4921 4924 4927 4930
823 1 4933 4936 4939 4942
824 1 4936 4939 4942 4945
825 1 4939 4942 4945 4948
826 1 4951 4954 4957 4960
827 1 4954 4957 4960 4963
828 1 4957 4960 4963 4966
829 1 4969 4972 4975 4978
830 1 4972 4975 4978 4981
831 1 4975 4978 4981 4984
832 1 4987 4990 4993 4996
833 1 4990 4993 4996 4999
834 1 4993 4996 4999 5002
835 1 5005 5008 5011 5014
836 1 5008 5011 5014 5017
837 1 5011 5014 5017 5020
838 1 5023 5026 5029 5032
839 1 5026 5029 5032 5035
840 1 5029 5032 5035 5038
841 1 5041 5044 5047 5050
842 1 5044 5047 5050 5053
843 1 5047 5050 5053 5056
844 1 5059 5062 5065 5068
845 1 5062 5065 5068 5071
846 1 5065 5068 5071 5074
847 1 5077 5080 5083 5086
848 1 5080 5083 5086 5089
849 1 5083 5086 5089 5092
850 1 5095 5098 5101 5104
851 1 5098 5101 5104 5107
852 1 5101 5104 5107 5110
853 1 5113 5116 5119 5122
854 1 5116 5119 5122 5125
855 1 5119 5122 5125 5128
856 1 5131 5134 5137 5140
857 1 5134 5137 5140 5143
858 1 5137 5140 5143 5146
859 1 5149 5152 5155 5158
860 1 5152 5155 5158 5161
861 1 5155 5158 5161 5164
862 1 5167 5170 5173 5176
863 1 5170 5173 5176 5179
864 1 5173 5176 5179 5182
865 1 5185 5188 5191 5194
866 1 5188 5191 5194 5197
867 1 5191 5194 5197 5200
868 1 5203 5206 5209 5212
869 1 5206 5209 5212 5215
870 1 5209 5212 5215 5218
871 1 5221 5224 5227 5230
872 1 5224 5227 5230 5233
873 1 5227 5230 5233 5236
874 1 5239 5242 5245 5248
875 1 5242 5245 5248 5251
876 1 5245 5248 5251 5254
877 1 5257 5260 5263 5266
878 1 5260 5263 5266 5269
879 1 5263 5266 5269 5272
880 1 5275 5278 5281 5284
881 1 5278 5281 5284 5287
882 1 5281 5284 5287 5290
883 1 5293 5296 5299 5302
884 1 5296 5299 5302 5305
885 1 5299 5302 5305 5308
886 1 5311 5314 5317 5320
887 1 5314 5317 5320 5323
888 1 5317 5320 5323 5326
889 1 5329 5332 5335 5338
890 1 5332 5335 5338 5341
891 1 5335 5338 5341 5344
892 1 5347 5350 5353 5356
893 1 5350 5353 5356 5359
894 1 5353 5356 5359 5362
895 1 5365 5368 5371 5374
896 1 5368 5371 5374 5377
897 1 5371 5374 5377 5380
898 1 5383 5386 5389 5392
899 1 5386 5389 5392 5395
900 1 5389 5392 5395 5398
901 1 5401 5404 5407 5410
902 1 5404 5407 5410 5413
903 1 5407 5410 5413 5416
904 1 5419 5422 5425 5428
905 1 5422 5425 5428 5431
906 1 5425 5428 5431 5434
907 1 5437 5440 5443 5446
908 1 5440 5443 5446 5449
909 1 5443 5446 5449 5452
910 1 5455 5458 5461 5464
911 1 5458 5461 5464 5467
912 1 5461 5464 5467 5470
913 1 5473 5476 5479 5482
914 1 5476 5479 5482 5485
915 1 5479 5482 5485 5488
916 1 5491 5494 5497 5500
917 1 5494 5497 5500 5503
918 1 5497 5500 5503 5506
919 1 5509 5512 5515 5518
920 1 5512 5515 5518 5521
921 1 5515 5518 5521 5524
922 1 5527 5530 5533 5536
923 1 5530 5533 5536 5539
924 1 5533 5536 5539 5542
925 1 5545 5548 5551 5554
926 1 5548 5551 5554 5557
927 1 5551 5554 5557 5560
928 1 5563 5566 5569 5572
929 1 5566 5569 5572 5575
930 1 5569 5572 5575 5578
931 1 5581 5584 5587 5590
932 1 5584 5587 5590 5593
933 1 5587 5590 5593 5596
934 1 5599 5602 5605 5608
935 1 5602 5605 5608 5611
936 1 5605 5608 5611 5614
937 1 5617 5620 5623 5626
938 1 5620 5623 5626 5629
939 1 5623 5626 5629 5632
940 1 5635 5638 5641 5644
941 1 5638 5641 5644 5647
942 1 5641 5644 5647 5650
943 1 5653 5656 5659 5662
944 1 5656 5659 5662 5665
945 1 5659 5662 5665 5668
946 1 5671 5674 5677 5680
947 1 5674 5677 5680 5683
948 1 5677 5680 5683 5686
949 1 5689 5692 5695 5698
950 1 5692 5695 5698 5701
951 1 5695 5698 5701 5704
952 1 5707 5710 5713 5716
953 1 5710 5713 5716 5719
954 1 5713 5716 5719 5722
955 1 5725 5728 5731 5734
956 1 5728 5731 5734 5737
957 1 5731 5734 5737 5740
958 1 5743 5746 5749 5752
959 1 5746 5749 5752 5755
960 1 5749 5752 5755 5758
961 1 5761 5764 5767 5770
962 1 5764 5767 5770 5773
963 1 5767 5770 5773 5776
964 1 5779 5782 5785 5788
965 1 5782 5785 5788 5791
966 1 5785 5788 5791 5794
967 1 5797 5800 5803 5806
968 1 5800 5803 5806 5809
969 1 5803 5806 5809 5812
970 1 5815 5818 5821 5824
971 1 5818 5821 5824 5827
972 1 5821 5824 5827 5830
973 1 5833 5836 5839 5842
974 1 5836 5839 5842 5845
975 1 5839 5842 5845 5848
976 1 5851 5854 5857 5860
977 1 5854 5857 5860 5863
978 1 5857 5860 5863 5866
979 1 5869 5872 5875 5878
980 1 5872 5875 5878 5881
981 1 5875 5878 5881 5884
982 1 5887 5890 5893 5896
983 1 5890 5893 5896 5899
984 1 5893 5896 5899 5902
985 1 5905 5908 5911 5914
986 1 5908 5911 5914 5917
987 1 5911 5914 5917 5920
988 1 5923 5926 5929 5932
989 1 5926 5929 5932 5935
990 1 5929 5932 5935 5938
991 1 5941 5944 5947 5950
992 1 5944 5947 5950 5953
993 1 5947 5950 5953 5956
994 1 5959 5962 5965 5968
995 1 5962 5965 5968 5971
996 1 5965 5968 5971 5974
997 1 5977 5980 5983 5986
998 1 5980 5983 5986 5989
999 1 5983 5986 5989 5992
1000 1 5995 5998 6001 6004
1001 1 5998 6001 6004 6007
1002 1 6001 6004 6007 6010
1003 1 6013 6016 6019 6022
1004 1 6016 6019 6022 6025
1005 1 6019 6022 6025 6028
1006 1 6031 6034 6037 6040
1007 1 6034 6037 6040 6043
1008 1 6037 6040 6043 6046
1009 1 6049 6052 6055 6058
1010 1 6052 6055 6058 6061
1011 1 6055 6058 6061 6064
1012 1 6067 6070 6073 6076
1013 1 6070 6073 6076 6079
1014 1 6073 6076 6079 6082
1015 1 6085 6088 6091 6094
1016 1 6088 6091 6094 6097
1017 1 6091 6094 6097 6100
1018 1 6103 6106 6109 6112
1019 1 6106 6109 6112 6115
1020 1 6109 6112 6115 6118
1021 1 6121 6124 6127 6130
1022 1 6124 6127 6130 6133
1023 1 6127 6130 6133 6136
1024 1 6139 6142 6145 6148
1025 1 6142 6145 6148 6151
1026 1 6145 6148 6151 6154
1027 1 6157 6160 6163 6166
1028 1 6160 6163 6166 6169
1029 1 6163 6166 6169 6172
1030 1 6175 6178 6181 6184
1031 1 6178 6181 6184 6187
1032 1 6181 6184 6187 6190
1033 1 6193 6196 6199 6202
1034 1 6196 6199 6202 6205
1035 1 6199 6202 6205 6208
1036 1 6211 6214 6217 6220
1037 1 6214 6217 6220 6223
1038 1 6217 6220 6223 6226
1039 1 6229 6232 6235 6238
1040 1 6232 6235 6238 6241
1041 1 6235 6238 6241 6244
1042 1 6247 6250 6253 6256
1043 1 6250 6253 6256 6259
1044 1 6253 6256 6259 6262
1045 1 6265 6268 6271 6274
1046 1 6268 6271 6274 6277
1047 1 6271 6274 6277 6280
1048 1 6283 6286 6289 6292
1049 1 6286 6289 6292 6295
1050 1 6289 6292 6295 6298
1051 1 6301 6304 6307 6310
1052 1 6304 6307 6310 6313
1053 1 6307 6310 6313 6316
1054 1 6319 6322 6325 6328
1055 1 6322 6325 6328 6331
1056 1 6325 6328 6331 6334
1057 1 6337 6340 6343 6346
1058 1 6340 6343 6346 6349
1059 1 6343 6346 6349 6352
1060 1 6355 6358 6361 6364
1061 1 6358 6361 6364 6367
1062 1 6361 6364 6367 6370
1063 1 6373 6376 6379 6382
1064 1 6376 6379 6382 6385
1065 1 6379 6382 6385 6388
1066 1 6391 6394 6397 6400
1067 1 6394 6397 6400 6403
1068 1 6397 6400 6403 6406
1069 1 6409 6412 6415 6418
1070 1 6412 6415 6418 6421
1071 1 6415 6418 6421 6424
1072 1 6427 6430 6433 6436
1073 1 6430 6433 6436 6439
1074 1 6433 6436 6439 6442
1075 1 6445 6448 6451 6454
1076 1 6448 6451 6454 6457
1077 1 6451 6454 6457 6460
1078 1 6463 6466 6469 6472
1079 1 6466 6469 6472 6475
1080 1 6469 6472 6475 6478
1081 1 6481 6484 6487 6490
1082 1 6484 6487 6490 6493
1083 1 6487 6490 6493 6496
1084 1 6499 6502 6505 6508
1085 1 6502 6505 6508 6511
1086 1 6505 6508 6511 6514
1087 1 6517 6520 6523 6526
1088 1 6520 6523 6526 6529
1089 1 6523 6526 6529 6532
1090 1 6535 6538 6541 6544
1091 1 6538 6541 6544 6547
1092 1 6541 6544 6547 6550
1093 1 6553 6556 6559 6562
1094 1 6556 6559 6562 6565
1095 1 6559 6562 6565 6568
1096 1 6571 6574 6577 6580
1097 1 6574 6577 6580 6583
1098 1 6577 6580 6583 6586
1099 1 6589 6592 6595 6598
1100 1 6592 6595 6598 6601
1101 1 6595 6598 6601 6604
1102 1 6607 6610 6613 6616
1103 1 6610 6613 6616 6619
1104 1 6613 6616 6619 6622
1105 1 6625 6628 6631 6634
1106 1 6628 6631 6634 6637
1107 1 6631 6634 6637 6640
1108 1 6643 6646 6649 6652
1109 1 6646 6649 6652 6655
1110 1 6649 6652 6655 6658
1111 1 6661 6664 6667 6670
1112 1 6664 6667 6670 6673
1113 1 6667 6670 6673 6676
1114 1 6679 6682 6685 6688
1115 1 6682 6685 6688 6691
1116 1 6685 6688 6691 6694
1117 1 6697 6700 6703 6706
1118 1 6700 6703 6706 6709
1119 1 6703 6706 6709 6712
1120 1 6715 6718 6721 6724
1121 1 6718 6721 6724 6727
1122 1 6721 6724 6727 6730
1123 1 6733 6736 6739 6742
1124 1 6736 6739 6742 6745
1125 1 6739 6742 6745 6748
1126 1 6751 6754 6757 6760
1127 1 6754 6757 6760 6763
1128 1 6757 6760 6763 6766
1129 1 6769 6772 6775 6778
1130 1 6772 6775 6778 6781
1131 1 6775 6778 6781 6784
1132 1 6787 6790 6793 6796
1133 1 6790 6793 6796 6799
1134 1 6793 6796 6799 6802
1135 1 6805 6808 6811 6814
1136 1 6808 6811 6814 6817
1137 1 6811 6814 6817 6820
1138 1 6823 6826 6829 6832
1139 1 6826 6829 6832 6835
1140 1 6829 6832 6835 6838
1141 1 6841 6844 6847 6850
1142 1 6844 6847 6850 6853
1143 1 6847 6850 6853 6856
1144 1 6859 6862 6865 6868
1145 1 6862 6865 6868 6871
1146 1 6865 6868 6871 6874
1147 1 6877 6880 6883 6886
1148 1 6880 6883 6886 6889
1149 1 6883 6886 6889 6892
1150 1 6895 6898 6901 6904
1151 1 6898 6901 6904 6907
1152 1 6901 6904 6907 6910
1153 1 6913 6916 6919 6922
1154 1 6916 6919 6922 6925
1155 1 6919 6922 6925 6928
1156 1 6931 6934 6937 6940
1157 1 6934 6937 6940 6943
1158 1 6937 6940 6943 6946
1159 1 6949 6952 6955 6958
1160 1 6952 6955 6958 6961
1161 1 6955 6958 6961 6964
1162 1 6967 6970 6973 6976
1163 1 6970 6973 6976 6979
1164 1 6973 6976 6979 6982
1165 1 6985 6988 6991 6994
1166 1 6988 6991 6994 6997
1167 1 6991 6994 6997 7000
1168 1 7003 7006 7009 7012
1169 1 7006 7009 7012 7015
1170 1 7009 7012 7015 7018
1171 1 7021 7024 7027 7030
1172 1 7024 7027 7030 7033
1173 1 7027 7030 7033 7036
1174 1 7039 7042 7045 7048
1175 1 7042 7045 7048 7051
1176 1 7045 7048 7051 7054
1177 1 7057 7060 7063 7066
1178 1 7060 7063 7066 7069
1179 1 7063 7066 7069 7072
1180 1 7075 7078 7081 7084
1181 1 7078 7081 7084 7087
1182 1 7081 7084 7087 7090
1183 1 7093 7096 7099 7102
1184 1 7096 7099 7102 7105
1185 1 7099 7102 7105 7108
1186 1 7111 7114 7117 7120
1187 1 7114 7117 7120 7123
1188 1 7117 7120 7123 7126
1189 1 7129 7132 7135 7138
1190 1 7132 7135 7138 7141
1191 1 7135 7138 7141 7144
1192 1 7147 7150 7153 7156
1193 1 7150 7153 7156 7159
1194 1 7153 7156 7159 7162
1195 1 7165 7168 7171 7174
1196 1 7168 7171 7174 7177
1197 1 7171 7174 7177 7180
1198 1 7183 7186 7189 7192
1199 1 7186 7189 7192 7195
1200 1 7189 7192 7195 7198
1201 1 7201 7204 7207 7210
1202 1 7204 7207 7210 7213
1203 1 7207 7210 7213 7216
1204 1 7219 7222 7225 7228
1205 1 7222 7225 7228 7231
1206 1 7225 7228 7231 7234
1207 1 7237 7240 7243 7246
1208 1 7240 7243 7246 7249
1209 1 7243 7246 7249 7252
1210 1 7255 7258 7261 7264
1211 1 7258 7261 7264 7267
1212 1 7261 7264 7267 7270
1213 1 7273 7276 7279 7282
1214 1 7276 7279 7282 7285
1215 1 7279 7282 7285 7288
1216 1 7291 7294 7297 7300
1217 1 7294 7297 7300 7303
1218 1 7297 7300 7303 7306
1219 1 7309 7312 7315 7318
1220 1 7312 7315 7318 7321
1221 1 7315 7318 7321 7324
1222 1 7327 7330 7333 7336
1223 1 7330 7333 7336 7339
1224 1 7333 7336 7339 7342
1225 1 7345 7348 7351 7354
1226 1 7348 7351 7354 7357
1227 1 7351 7354 7357 7360
1228 1 7363 7366 7369 7372
1229 1 7366 7369 7372 7375
1230 1 7369 7372 7375 7378
1231 1 7381 7384 7387 7390
1232 1 7384 7387 7390 7393
1233 1 7387 7390 7393 7396
1234 1 7399 7402 7405 7408
1235 1 7402 7405 7408 7411
1236 1 7405 7408 7411 7414
1237 1 7417 7420 7423 7426
1238 1 7420 7423 7426 7429
1239 1 7423 7426 7429 7432
1240 1 7435 7438 7441 7444
1241 1 7438 7441 7444 7447
1242 1 7441 7444 7447 7450
1243 1 7453 7456 7459 7462
1244 1 7456 7459 7462 7465
1245 1 7459 7462 7465 7468
1246 1 7471 7474 7477 7480
1247 1 7474 7477 7480 7483
1248 1 7477 7480 7483 7486
1249 1 7489 7492 7495 7498
1250 1 7492 7495 7498 7501
1251 1 7495 7498 7501 7504
1252 1 7507 7510 7513 7516
1253 1 7510 7513 7516 7519
1254 1 7513 7516 7519 7522
1255 1 7525 7528 7531 7534
1256 1 7528 7531 7534 7537
1257 1 7531 7534 7537 7540
1258 1 7543 7546 7549 7552
1259 1 7546 7549 7552 7555
1260 1 7549 7552 7555 7558
1261 1 7561 7564 7567 7570
1262 1 7564 7567 7570 7573
1263 1 7567 7570 7573 7576
1264 1 7579 7582 7585 7588
1265 1 7582 7585 7588 7591
1266 1 7585 7588 7591 7594
1267 1 7597 7600 7603 7606
1268 1 7600 7603 7606 7609
1269 1 7603 7606 7609 7612
1270 1 7615 7618 7621 7624
1271 1 7618 7621 7624 7627
1272 1 7621 7624 7627 7630
1273 1 7633 7636 7639 7642
1274 1 7636 7639 7642 7645
1275 1 7639 7642 7645 7648
1276 1 7651 7654 7657 7660
1277 1 7654 7657 7660 7663
1278 1 7657 7660 7663 7666
1279 1 7669 7672 7675 7678
1280 1 7672 7675 7678 7681
1281 1 7675 7678 7681 7684
1282 1 7687 7690 7693 7696
1283 1 7690 7693 7696 7699
1284 1 7693 7696 7699 7702
1285 1 7705 7708 7711 7714
1286 1 7708 7711 7714 7717
1287 1 7711 7714 7717 7720
1288 1 7723 7726 7729 7732
1289 1 7726 7729 7732 7735
1290 1 7729 7732 7735 7738
1291 1 7741 7744 7747 7750
1292 1 7744 7747 7750 7753
1293 1 7747 7750 7753 7756
1294 1 7759 7762 7765 7768
1295 1 7762 7765 7768 7771
1296 1 7765 7768 7771 7774
1297 1 7777 7780 7783 7786
1298 1 7780 7783 7786 7789
1299 1 7783 7786 7789 7792
1300 1 7795 7798 7801 7804
1301 1 7798 7801 7804 7807
1302 1 7801 7804 7807 7810
1303 1 7813 7816 7819 7822
1304 1 7816 7819 7822 7825
1305 1 7819 7822 7825 7828
1306 1 7831 7834 7837 7840
1307 1 7834 7837 7840 7843
1308 1 7837 7840 7843 7846
1309 1 7849 7852 7855 7858
1310 1 7852 7855 7858 7861
1311 1 7855 7858 7861 7864
1312 1 7867 7870 7873 7876
1313 1 7870 7873 7876 7879
1314 1 7873 7876 7879 7882
1315 1 7885 7888 7891 7894
1316 1 7888 7891 7894 7897
1317 1 7891 7894 7897 7900
1318 1 7903 7906 7909 7912
1319 1 7906 7909 7912 7915
1320 1 7909 7912 7915 7918
1321 1 7921 7924 7927 7930
1322 1 7924 7927 7930 7933
1323 1 7927 7930 7933 7936
1324 1 7939 7942 7945 7948
1325 1 7942 7945 7948 7951
1326 1 7945 7948 7951 7954
1327 1 7957 7960 7963 7966
1328 1 7960 7963 7966 7969
1329 1 7963 7966 7969 7972
1330 1 7975 7978 7981 7984
1331 1 7978 7981 7984 7987
1332 1 7981 7984 7987 7990
1333 1 7993 7996 7999 8002
1334 1 7996 7999 8002 8005
1335 1 7999 8002 8005 8008
1336 1 8011 8014 8017 8020
1337 1 8014 8017 8020 8023
1338 1 8017 8020 8023 8026
1339 1 8029 8032 8035 8038
1340 1 8032 8035 8038 8041
1341 1 8035 8038 8041 8044
1342 1 8047 8050 8053 8056
1343 1 8050 8053 8056 8059
1344 1 8053 8056 8059 8062
1345 1 8065 8068 8071 8074
1346 1 8068 8071 8074 8077
1347 1 8071 8074 8077 8080
1348 1 8083 8086 8089 8092
1349 1 8086 8089 8092 8095
1350 1 8089 8092 8095 8098
1351 1 8101 8104 8107 8110
1352 1 8104 8107 8110 8113
1353 1 8107 8110 8113 8116
1354 1 8119 8122 8125 8128
1355 1 8122 8125 8128 8131
1356 1 8125 8128 8131 8134
1357 1 8137 8140 8143 8146
1358 1 8140 8143 8146 8149
1359 1 8143 8146 8149 8152
1360 1 8155 8158 8161 8164
1361 1 8158 8161 8164 8167
1362 1 8161 8164 8167 8170
1363 1 8173 8176 8179 8182
1364 1 8176 8179 8182 8185
1365 1 8179 8182 8185 8188
1366 1 8191 8194 8197 8200
1367 1 8194 8197 8200 8203
1368 1 8197 8200 8203 8206
1369 1 8209 8212 8215 8218
1370 1 8212 8215 8218 8221
1371 1 8215 8218 8221 8224
1372 1 8227 8230 8233 8236
1373 1 8230 8233 8236 8239
1374 1 8233 8236 8239 8242
1375 1 8245 8248 8251 8254
1376 1 8248 8251 8254 8257
1377 1 8251 8254 8257 8260
1378 1 8263 8266 8269 8272
1379 1 8266 8269 8272 8275
1380 1 8269 8272 8275 8278
1381 1 8281 8284 8287 8290
1382 1 8284 8287 8290 8293
1383 1 8287 8290 8293 8296
1384 1 8299 8302 8305 8308
1385 1 8302 8305 8308 8311
1386 1 8305 8308 8311 8314
1387 1 8317 8320 8323 8326
1388 1 8320 8323 8326 8329
1389 1 8323 8326 8329 8332
1390 1 8335 8338 8341 8344
1391 1 8338 8341 8344 8347
1392 1 8341 8344 8347 8350
1393 1 8353 8356 8359 8362
1394 1 8356 8359 8362 8365
1395 1 8359 8362 8365 8368
1396 1 8371 8374 8377 8380
1397 1 8374 8377 8380 8383
1398 1 8377 8380 8383 8386
1399 1 8389 8392 8395 8398
1400 1 8392 8395 8398 8401
1401 1 8395 8398 8401 8404
1402 1 8407 8410 8413 8416
1403 1 8410 8413 8416 8419
1404 1 8413 8416 8419 8422
1405 1 8425 8428 8431 8434
1406 1 8428 8431 8434 8437
1407 1 8431 8434 8437 8440
1408 1 8443 8446 8449 8452
1409 1 8446 8449 8452 8455
1410 1 8449 8452 8455 8458
1411 1 8461 8464 8467 8470
1412 1 8464 8467 8470 8473
1413 1 8467 8470 8473 8476
1414 1 8479 8482 8485 8488
1415 1 8482 8485 8488 8491
1416 1 8485 8488 8491 8494
1417 1 8497 8500 8503 8506
1418 1 8500 8503 8506 8509
1419 1 8503 8506 8509 8512
1420 1 8515 8518 8521 8524
1421 1 8518 8521 8524 8527
1422 1 8521 8524 8527 8530
1423 1 8533 8536 8539 8542
1424 1 8536 8539 8542 8545
1425 1 8539 8542 8545 8548
1426 1 8551 8554 8557 8560
1427 1 8554 8557 8560 8563
1428 1 8557 8560 8563 8566
1429 1 8569 8572 8575 8578
1430 1 8572 8575 8578 8581
1431 1 8575 8578 8581 8584
1432 1 8587 8590 8593 8596
1433 1 8590 8593 8596 8599
1434 1 8593 8596 8599 8602
1435 1 8605 8608 8611 8614
1436 1 8608 8611 8614 8617
1437 1 8611 8614 8617 8620
1438 1 8623 8626 8629 8632
1439 1 8626 8629 8632 8635
1440 1 8629 8632 8635 8638
1441 1 8641 8644 8647 8650
1442 1 8644 8647 8650 8653
1443 1 8647 8650 8653 8656
1444 1 8659 8662 8665 8668
1445 1 8662 8665 8668 8671
1446 1 8665 8668 8671 8674
1447 1 8677 8680 8683 8686
1448 1 8680 8683 8686 8689
1449 1 8683 8686 8689 8692
1450 1 8695 8698 8701 8704
1451 1 8698 8701 8704 8707
1452 1 8701 8704 8707 8710
1453 1 8713 8716 8719 8722
1454 1 8716 8719 8722 8725
1455 1 8719 8722 8725 8728
1456 1 8731 8734 8737 8740
1457 1 8734 8737 8740 8743
1458 1 8737 8740 8743 8746
1459 1 8749 8752 8755 8758
1460 1 8752 8755 8758 8761
1461 1 8755 8758 8761 8764
1462 1 8767 8770 8773 8776
1463 1 8770 8773 8776 8779
1464 1 8773 8776 8779 8782
1465 1 8785 8788 8791 8794
1466 1 8788 8791 8794 8797
1467 1 8791 8794 8797 8800
1468 1 8803 8806 8809 8812
1469 1 8806 8809 8812 8815
1470 1 8809 8812 8815 8818
1471 1 8821 8824 8827 8830
1472 1 8824 8827 8830 8833
1473 1 8827 8830 8833 8836
1474 1 8839 8842 8845 8848
1475 1 8842 8845 8848 8851
1476 1 8845 8848 8851 8854
1477 1 8857 8860 8863 8866
1478 1 8860 8863 8866 8869
1479 1 8863 8866 8869 8872
1480 1 8875 8878 8881 8884
1481 1 8878 8881 8884 8887
1482 1 8881 8884 8887 8890
1483 1 8893 8896 8899 8902
1484 1 8896 8899 8902 8905
1485 1 8899 8902 8905 8908
1486 1 8911 8914 8917 8920
1487 1 8914 8917 8920 8923
1488 1 8917 8920 8923 8926
1489 1 8929 8932 8935 8938
1490 1 8932 8935 8938 8941
1491 1 8935 8938 8941 8944
1492 1 8947 8950 8953 8956
1493 1 8950 8953 8956 8959
1494 1 8953 8956 8959 8962
1495 1 8965 8968 8971 8974
1496 1 8968 8971 8974 8977
1497 1 8971 8974 8977 8980
1498 1 8983 8986 8989 8992
1499 1 8986 8989 8992 8995
1500 1 8989 8992 8995 8998
