LAMMPS data file for backmapping — generated by backmap-prep

3120 atoms
3100 bonds
6000 angles
8910 dihedrals
0 impropers

5 atom types
4 bond types
3 angle types
2 dihedral types
0 improper types

0.0 62.004000 xlo xhi
0.0 62.004000 ylo yhi
0.0 62.004000 zlo zhi

Masses

1 141.277997 # A (CG)
2 12.011000 # opls_136
3 12.011000 # opls_135
4 1.008000 # opls_140
5 140.269997 # B (CG)

Atoms # full

1 1 1 0 25.530000 58.420000 35.780000 0 0 0
2 1 2 -0.12 25.880000 58.190000 31.910000 0 0 0
3 1 3 -0.18 26.560000 56.990000 31.250000 0 0 0
4 1 4 0.06 24.910000 58.270000 31.450000 0 0 0
5 1 4 0.06 26.350000 59.070000 31.730000 0 0 0
6 1 4 0.06 25.700000 56.280000 31.300000 0 0 0
7 1 4 0.06 27.510000 56.690000 31.640000 0 0 0
8 1 4 0.06 26.790000 57.280000 30.280000 0 0 0
9 1 2 -0.12 25.530000 57.830000 33.310000 0 0 0
10 1 2 -0.12 24.530000 58.870000 34.000000 0 0 0
11 1 4 0.06 26.420000 57.700000 33.990000 0 0 0
12 1 4 0.06 25.080000 56.800000 33.450000 0 0 0
13 1 4 0.06 23.710000 59.060000 33.300000 0 0 0
14 1 4 0.06 25.140000 59.780000 34.280000 0 0 0
15 1 2 -0.12 23.820000 58.290000 35.240000 0 0 0
16 1 2 -0.12 24.700000 57.900000 36.440000 0 0 0
17 1 4 0.06 23.270000 57.430000 34.990000 0 0 0
18 1 4 0.06 23.200000 58.990000 35.760000 0 0 0
19 1 4 0.06 25.630000 57.440000 35.960000 0 0 0
20 1 4 0.06 24.190000 57.060000 37.010000 0 0 0
21 1 2 -0.12 24.980000 59.020000 37.410000 0 0 0
22 1 2 -0.12 25.950000 58.560000 38.450000 0 0 0
23 1 4 0.06 24.020000 59.320000 37.820000 0 0 0
24 1 4 0.06 25.360000 59.730000 36.780000 0 0 0
25 1 4 0.06 26.750000 58.140000 37.950000 0 0 0
26 1 4 0.06 25.420000 57.860000 39.100000 0 0 0
27 1 2 -0.12 26.270000 59.660000 39.460000 0 0 0
28 1 2 -0.12 27.120000 59.140000 40.680000 0 0 0
29 1 4 0.06 25.280000 59.910000 39.920000 0 0 0
30 1 4 0.06 26.540000 60.590000 39.040000 0 0 0
31 1 4 0.06 28.030000 58.730000 40.480000 0 0 0
32 1 4 0.06 26.610000 58.270000 41.170000 0 0 0
33 2 5 0 22.120000 53.400000 44.710000 0 0 0
34 2 2 -0.12 19.200000 49.450000 43.860000 0 0 0
35 2 2 -0.12 20.280000 49.190000 44.790000 0 0 0
36 2 4 0.06 18.120000 49.490000 44.290000 0 0 0
37 2 4 0.06 19.300000 50.340000 43.250000 0 0 0
38 2 4 0.06 21.050000 48.560000 44.470000 0 0 0
39 2 4 0.06 19.800000 48.420000 45.440000 0 0 0
40 2 2 -0.12 20.820000 50.390000 45.550000 0 0 0
41 2 2 -0.12 21.190000 51.720000 44.720000 0 0 0
42 2 4 0.06 21.650000 49.990000 46.060000 0 0 0
43 2 4 0.06 20.160000 50.610000 46.400000 0 0 0
44 2 4 0.06 20.270000 52.330000 44.430000 0 0 0
45 2 4 0.06 21.580000 51.350000 43.780000 0 0 0
46 2 2 -0.12 22.120000 52.690000 45.390000 0 0 0
47 2 2 -0.12 22.370000 53.810000 44.310000 0 0 0
48 2 4 0.06 23.030000 52.200000 45.660000 0 0 0
49 2 4 0.06 21.730000 53.110000 46.270000 0 0 0
50 2 4 0.06 21.380000 54.280000 44.100000 0 0 0
51 2 4 0.06 22.750000 53.290000 43.420000 0 0 0
52 2 2 -0.12 23.400000 54.840000 44.860000 0 0 0
53 2 2 -0.12 23.220000 56.240000 44.350000 0 0 0
54 2 4 0.06 24.240000 54.300000 44.450000 0 0 0
55 2 4 0.06 23.480000 54.720000 45.890000 0 0 0
56 2 4 0.06 22.210000 56.540000 44.740000 0 0 0
57 2 4 0.06 23.240000 56.280000 43.330000 0 0 0
58 2 2 -0.12 24.130000 57.280000 45.060000 0 0 0
59 2 2 -0.12 24.590000 58.420000 44.200000 0 0 0
60 2 4 0.06 24.970000 56.770000 45.450000 0 0 0
61 2 4 0.06 23.620000 57.740000 45.920000 0 0 0
62 2 4 0.06 23.730000 59.170000 44.220000 0 0 0
63 2 4 0.06 24.610000 58.170000 43.080000 0 0 0
64 3 5 0 20.930000 41.180000 45.710000 0 0 0
65 3 2 -0.12 21.020000 35.620000 46.510000 0 0 0
66 3 2 -0.12 20.740000 37.040000 46.900000 0 0 0
67 3 4 0.06 21.890000 35.610000 45.820000 0 0 0
68 3 4 0.06 21.390000 34.990000 47.320000 0 0 0
69 3 4 0.06 21.450000 37.580000 47.620000 0 0 0
70 3 4 0.06 19.820000 37.020000 47.500000 0 0 0
71 3 2 -0.12 20.710000 38.160000 45.770000 0 0 0
72 3 2 -0.12 20.160000 39.460000 46.310000 0 0 0
73 3 4 0.06 19.910000 38.030000 44.960000 0 0 0
74 3 4 0.06 21.720000 38.260000 45.360000 0 0 0
75 3 4 0.06 20.690000 39.740000 47.270000 0 0 0
76 3 4 0.06 19.110000 39.270000 46.680000 0 0 0
77 3 2 -0.12 20.100000 40.610000 45.350000 0 0 0
78 3 2 -0.12 20.510000 41.870000 46.060000 0 0 0
79 3 4 0.06 19.160000 40.770000 45.020000 0 0 0
80 3 4 0.06 20.810000 40.330000 44.490000 0 0 0
81 3 4 0.06 21.440000 41.600000 46.580000 0 0 0
82 3 4 0.06 19.870000 42.050000 46.960000 0 0 0
83 3 2 -0.12 20.770000 43.060000 45.090000 0 0 0
84 3 2 -0.12 21.320000 44.370000 45.850000 0 0 0
85 3 4 0.06 19.770000 43.200000 44.610000 0 0 0
86 3 4 0.06 21.500000 42.780000 44.390000 0 0 0
87 3 4 0.06 22.310000 44.330000 46.400000 0 0 0
88 3 4 0.06 20.510000 44.590000 46.670000 0 0 0
89 3 2 -0.12 21.390000 45.650000 45.050000 0 0 0
90 3 2 -0.12 22.570000 45.870000 44.120000 0 0 0
91 3 4 0.06 21.330000 46.520000 45.710000 0 0 0
92 3 4 0.06 20.430000 45.630000 44.590000 0 0 0
93 3 4 0.06 22.550000 46.950000 43.860000 0 0 0
94 3 4 0.06 22.460000 45.270000 43.240000 0 0 0
95 4 5 0 13.350000 41.170000 54.140000 0 0 0
96 4 2 -0.12 8.150000 40.950000 54.460000 0 0 0
97 4 2 -0.12 9.270000 41.290000 53.470000 0 0 0
98 4 4 0.06 8.110000 39.870000 54.630000 0 0 0
99 4 4 0.06 8.420000 41.350000 55.480000 0 0 0
100 4 4 0.06 9.150000 42.350000 53.220000 0 0 0
101 4 4 0.06 9.040000 40.750000 52.520000 0 0 0
102 4 2 -0.12 10.690000 40.880000 53.940000 0 0 0
103 4 2 -0.12 11.890000 41.410000 53.120000 0 0 0
104 4 4 0.06 10.740000 39.800000 53.900000 0 0 0
105 4 4 0.06 10.740000 40.970000 55.020000 0 0 0
106 4 4 0.06 11.920000 42.490000 53.220000 0 0 0
107 4 4 0.06 11.670000 41.070000 52.100000 0 0 0
108 4 2 -0.12 13.220000 40.930000 53.640000 0 0 0
109 4 2 -0.12 13.620000 41.700000 54.900000 0 0 0
110 4 4 0.06 14.000000 41.110000 52.910000 0 0 0
111 4 4 0.06 13.320000 39.880000 53.890000 0 0 0
112 4 4 0.06 12.830000 41.610000 55.520000 0 0 0
113 4 4 0.06 13.630000 42.700000 54.620000 0 0 0
114 4 2 -0.12 15.030000 41.300000 55.400000 0 0 0
115 4 2 -0.12 15.970000 41.170000 54.250000 0 0 0
116 4 4 0.06 14.990000 40.280000 55.820000 0 0 0
117 4 4 0.06 15.420000 41.960000 56.120000 0 0 0
118 4 4 0.06 15.910000 42.050000 53.560000 0 0 0
119 4 4 0.06 15.850000 40.300000 53.570000 0 0 0
120 4 2 -0.12 17.380000 41.230000 54.700000 0 0 0
121 4 2 -0.12 18.290000 40.940000 53.570000 0 0 0
122 4 4 0.06 17.390000 40.460000 55.520000 0 0 0
123 4 4 0.06 17.470000 42.200000 55.290000 0 0 0
124 4 4 0.06 17.980000 41.520000 52.750000 0 0 0
125 4 4 0.06 18.280000 39.930000 53.220000 0 0 0
126 5 5 0 15.280000 30.540000 58.810000 0 0 0
127 5 2 -0.12 11.810000 31.040000 0.656000 0 0 1
128 5 2 -0.12 12.670000 30.730000 61.470000 0 0 0
129 5 4 0.06 12.300000 30.560000 1.516000 0 0 1
130 5 4 0.06 11.990000 32.090000 0.856000 0 0 1
131 5 4 0.06 12.750000 31.680000 60.930000 0 0 0
132 5 4 0.06 12.170000 30.110000 60.840000 0 0 0
133 5 2 -0.12 14.000000 30.070000 61.760000 0 0 0
134 5 2 -0.12 14.770000 29.790000 60.440000 0 0 0
135 5 4 0.06 13.750000 29.110000 0.236000 0 0 1
136 5 4 0.06 14.560000 30.810000 0.346000 0 0 1
137 5 4 0.06 14.180000 29.480000 59.570000 0 0 0
138 5 4 0.06 15.320000 28.830000 60.710000 0 0 0
139 5 2 -0.12 15.840000 30.900000 60.100000 0 0 0
140 5 2 -0.12 16.730000 30.600000 58.860000 0 0 0
141 5 4 0.06 16.610000 31.090000 60.910000 0 0 0
142 5 4 0.06 15.290000 31.870000 60.060000 0 0 0
143 5 4 0.06 17.020000 29.550000 58.920000 0 0 0
144 5 4 0.06 17.680000 31.220000 58.950000 0 0 0
145 5 2 -0.12 16.130000 30.930000 57.560000 0 0 0
146 5 2 -0.12 16.850000 30.300000 56.350000 0 0 0
147 5 4 0.06 16.280000 31.970000 57.360000 0 0 0
148 5 4 0.06 15.120000 30.550000 57.330000 0 0 0
149 5 4 0.06 16.620000 29.260000 56.480000 0 0 0
150 5 4 0.06 17.970000 30.310000 56.470000 0 0 0
151 5 2 -0.12 16.510000 30.840000 55.030000 0 0 0
152 5 2 -0.12 17.260000 30.110000 53.870000 0 0 0
153 5 4 0.06 16.910000 31.880000 54.950000 0 0 0
154 5 4 0.06 15.430000 30.900000 54.730000 0 0 0
155 5 4 0.06 18.330000 29.710000 54.240000 0 0 0
156 5 4 0.06 17.490000 30.880000 53.170000 0 0 0
157 6 5 0 12.490000 24.970000 49.900000 0 0 0
158 6 2 -0.12 8.420000 26.950000 53.290000 0 0 0
159 6 2 -0.12 8.990000 26.450000 51.950000 0 0 0
160 6 4 0.06 7.390000 27.420000 53.120000 0 0 0
161 6 4 0.06 8.230000 26.060000 53.900000 0 0 0
162 6 4 0.06 8.950000 27.340000 51.240000 0 0 0
163 6 4 0.06 8.410000 25.580000 51.460000 0 0 0
164 6 2 -0.12 10.560000 26.170000 51.950000 0 0 0
165 6 2 -0.12 11.010000 25.660000 50.600000 0 0 0
166 6 4 0.06 10.800000 25.430000 52.730000 0 0 0
167 6 4 0.06 11.080000 27.110000 52.290000 0 0 0
168 6 4 0.06 10.790000 26.390000 49.790000 0 0 0
169 6 4 0.06 10.510000 24.770000 50.260000 0 0 0
170 6 2 -0.12 12.490000 25.220000 50.700000 0 0 0
171 6 2 -0.12 12.960000 25.080000 49.270000 0 0 0
172 6 4 0.06 12.520000 24.250000 51.120000 0 0 0
173 6 4 0.06 13.120000 25.860000 51.310000 0 0 0
174 6 4 0.06 12.810000 26.060000 48.850000 0 0 0
175 6 4 0.06 12.230000 24.450000 48.710000 0 0 0
176 6 2 -0.12 14.190000 24.270000 49.070000 0 0 0
177 6 2 -0.12 14.710000 24.390000 47.680000 0 0 0
178 6 4 0.06 13.980000 23.220000 49.350000 0 0 0
179 6 4 0.06 14.880000 24.530000 49.800000 0 0 0
180 6 4 0.06 14.910000 25.480000 47.550000 0 0 0
181 6 4 0.06 13.860000 24.280000 46.990000 0 0 0
182 6 2 -0.12 16.000000 23.540000 47.430000 0 0 0
183 6 2 -0.12 15.750000 21.940000 47.150000 0 0 0
184 6 4 0.06 16.870000 23.850000 48.070000 0 0 0
185 6 4 0.06 16.430000 23.980000 46.520000 0 0 0
186 6 4 0.06 15.010000 21.990000 46.340000 0 0 0
187 6 4 0.06 15.390000 21.440000 48.080000 0 0 0
188 7 5 0 16.990000 15.540000 48.810000 0 0 0
189 7 2 -0.12 16.150000 20.370000 50.670000 0 0 0
190 7 2 -0.12 16.040000 18.890000 50.300000 0 0 0
191 7 4 0.06 16.980000 20.390000 51.430000 0 0 0
192 7 4 0.06 16.490000 20.870000 49.820000 0 0 0
193 7 4 0.06 15.150000 18.820000 49.640000 0 0 0
194 7 4 0.06 15.780000 18.290000 51.260000 0 0 0
195 7 2 -0.12 17.320000 18.260000 49.670000 0 0 0
196 7 2 -0.12 17.160000 16.890000 49.110000 0 0 0
197 7 4 0.06 17.950000 18.240000 50.550000 0 0 0
198 7 4 0.06 17.520000 18.900000 48.780000 0 0 0
199 7 4 0.06 16.340000 16.910000 48.440000 0 0 0
200 7 4 0.06 16.930000 16.250000 49.960000 0 0 0
201 7 2 -0.12 18.350000 16.390000 48.340000 0 0 0
202 7 2 -0.12 18.100000 15.130000 47.450000 0 0 0
203 7 4 0.06 18.980000 16.200000 49.140000 0 0 0
204 7 4 0.06 18.940000 17.050000 47.830000 0 0 0
205 7 4 0.06 19.140000 15.020000 47.000000 0 0 0
206 7 4 0.06 17.460000 15.430000 46.640000 0 0 0
207 7 2 -0.12 17.540000 13.910000 48.260000 0 0 0
208 7 2 -0.12 17.010000 12.730000 47.380000 0 0 0
209 7 4 0.06 16.720000 14.240000 48.720000 0 0 0
210 7 4 0.06 18.190000 13.640000 49.080000 0 0 0
211 7 4 0.06 17.700000 12.600000 46.560000 0 0 0
212 7 4 0.06 16.120000 13.260000 47.120000 0 0 0
213 7 2 -0.12 16.660000 11.320000 47.940000 0 0 0
214 7 2 -0.12 15.490000 11.440000 48.950000 0 0 0
215 7 4 0.06 17.570000 10.980000 48.350000 0 0 0
216 7 4 0.06 16.470000 10.610000 47.120000 0 0 0
217 7 4 0.06 14.870000 12.340000 48.740000 0 0 0
218 7 4 0.06 16.020000 11.730000 49.890000 0 0 0
219 8 5 0 5.310000 18.620000 46.250000 0 0 0
220 8 2 -0.12 2.490000 22.610000 47.100000 0 0 0
221 8 2 -0.12 3.000000 21.320000 47.710000 0 0 0
222 8 4 0.06 2.280000 22.240000 46.150000 0 0 0
223 8 4 0.06 1.580000 23.000000 47.690000 0 0 0
224 8 4 0.06 2.190000 20.570000 47.760000 0 0 0
225 8 4 0.06 3.280000 21.510000 48.690000 0 0 0
226 8 2 -0.12 4.230000 20.740000 46.980000 0 0 0
227 8 2 -0.12 4.810000 19.320000 47.240000 0 0 0
228 8 4 0.06 5.100000 21.310000 47.310000 0 0 0
229 8 4 0.06 4.100000 20.830000 45.910000 0 0 0
230 8 4 0.06 4.590000 19.040000 48.250000 0 0 0
231 8 4 0.06 5.890000 19.420000 47.000000 0 0 0
232 8 2 -0.12 4.080000 18.210000 46.470000 0 0 0
233 8 2 -0.12 4.800000 16.830000 46.610000 0 0 0
234 8 4 0.06 3.800000 18.480000 45.450000 0 0 0
235 8 4 0.06 3.090000 18.070000 46.940000 0 0 0
236 8 4 0.06 4.210000 15.980000 46.840000 0 0 0
237 8 4 0.06 5.480000 16.890000 47.460000 0 0 0
238 8 2 -0.12 5.760000 16.530000 45.520000 0 0 0
239 8 2 -0.12 6.990000 17.540000 45.400000 0 0 0
240 8 4 0.06 5.270000 16.730000 44.530000 0 0 0
241 8 4 0.06 6.180000 15.530000 45.740000 0 0 0
242 8 4 0.06 7.600000 17.750000 46.380000 0 0 0
243 8 4 0.06 6.550000 18.470000 45.020000 0 0 0
244 8 2 -0.12 7.990000 17.030000 44.360000 0 0 0
245 8 2 -0.12 9.020000 16.050000 44.990000 0 0 0
246 8 4 0.06 8.560000 17.750000 43.850000 0 0 0
247 8 4 0.06 7.440000 16.400000 43.600000 0 0 0
248 8 4 0.06 8.320000 15.410000 45.550000 0 0 0
249 8 4 0.06 9.580000 16.580000 45.790000 0 0 0
250 9 5 0 7.410000 11.820000 52.970000 0 0 0
251 9 2 -0.12 4.340000 15.950000 50.970000 0 0 0
252 9 2 -0.12 5.050000 14.840000 51.790000 0 0 0
253 9 4 0.06 5.050000 16.370000 50.290000 0 0 0
254 9 4 0.06 3.560000 15.510000 50.320000 0 0 0
255 9 4 0.06 4.370000 14.500000 52.490000 0 0 0
256 9 4 0.06 5.850000 15.330000 52.330000 0 0 0
257 9 2 -0.12 5.740000 13.800000 50.940000 0 0 0
258 9 2 -0.12 6.950000 13.130000 51.450000 0 0 0
259 9 4 0.06 5.930000 13.990000 49.880000 0 0 0
260 9 4 0.06 4.980000 12.970000 51.020000 0 0 0
261 9 4 0.06 7.600000 13.910000 51.890000 0 0 0
262 9 4 0.06 7.380000 12.530000 50.570000 0 0 0
263 9 2 -0.12 6.690000 12.090000 52.590000 0 0 0
264 9 2 -0.12 8.070000 11.530000 52.800000 0 0 0
265 9 4 0.06 6.150000 11.230000 52.320000 0 0 0
266 9 4 0.06 6.330000 12.570000 53.410000 0 0 0
267 9 4 0.06 8.880000 12.210000 53.100000 0 0 0
268 9 4 0.06 8.460000 10.970000 51.930000 0 0 0
269 9 2 -0.12 8.030000 10.390000 53.890000 0 0 0
270 9 2 -0.12 9.340000 9.730000 54.250000 0 0 0
271 9 4 0.06 7.200000 9.730000 53.570000 0 0 0
272 9 4 0.06 7.780000 10.900000 54.770000 0 0 0
273 9 4 0.06 9.910000 10.470000 54.660000 0 0 0
274 9 4 0.06 9.890000 9.500000 53.310000 0 0 0
275 9 2 -0.12 9.210000 8.420000 55.240000 0 0 0
276 9 2 -0.12 10.690000 8.320000 55.840000 0 0 0
277 9 4 0.06 8.930000 7.620000 54.570000 0 0 0
278 9 4 0.06 8.360000 8.460000 56.000000 0 0 0
279 9 4 0.06 10.710000 9.020000 56.660000 0 0 0
280 9 4 0.06 11.430000 8.670000 55.160000 0 0 0
281 10 1 0 59.764000 12.790000 48.950000 -1 0 0
282 10 2 -0.12 60.374000 9.140000 51.050000 -1 0 0
283 10 3 -0.18 59.714000 7.700000 51.110000 -1 0 0
284 10 4 0.06 60.764000 9.270000 52.090000 -1 0 0
285 10 4 0.06 61.304000 8.770000 50.400000 -1 0 0
286 10 4 0.06 59.574000 7.350000 50.100000 -1 0 0
287 10 4 0.06 58.684000 7.600000 51.660000 -1 0 0
288 10 4 0.06 60.364000 6.850000 51.660000 -1 0 0
289 10 2 -0.12 60.464000 11.400000 49.640000 -1 0 0
290 10 2 -0.12 59.584000 10.300000 50.370000 -1 0 0
291 10 4 0.06 61.274000 11.820000 50.240000 -1 0 0
292 10 4 0.06 61.074000 10.940000 48.810000 -1 0 0
293 10 4 0.06 58.924000 9.860000 49.580000 -1 0 0
294 10 4 0.06 59.024000 10.810000 51.130000 -1 0 0
295 10 2 -0.12 60.324000 13.060000 47.630000 -1 0 0
296 10 2 -0.12 59.644000 12.440000 48.840000 -1 0 0
297 10 4 0.06 61.314000 13.380000 47.890000 -1 0 0
298 10 4 0.06 60.414000 12.290000 46.850000 -1 0 0
299 10 4 0.06 58.664000 12.180000 48.490000 -1 0 0
300 10 4 0.06 59.374000 13.280000 49.520000 -1 0 0
301 10 2 -0.12 59.694000 15.470000 47.880000 -1 0 0
302 10 2 -0.12 59.704000 14.240000 47.040000 -1 0 0
303 10 4 0.06 59.454000 15.270000 48.910000 -1 0 0
304 10 4 0.06 60.754000 15.650000 48.040000 -1 0 0
305 10 4 0.06 60.284000 14.530000 46.180000 -1 0 0
306 10 4 0.06 58.704000 14.080000 46.590000 -1 0 0
307 10 2 -0.12 59.064000 17.800000 48.430000 -1 0 0
308 10 2 -0.12 59.044000 16.770000 47.310000 -1 0 0
309 10 4 0.06 58.284000 17.510000 49.140000 -1 0 0
310 10 4 0.06 60.054000 17.880000 48.920000 -1 0 0
311 10 4 0.06 59.684000 17.090000 46.530000 -1 0 0
312 10 4 0.06 57.944000 16.770000 47.030000 -1 0 0
313 11 1 0 33.810000 10.900000 32.290000 0 0 0
314 11 2 -0.12 34.160000 10.670000 28.420000 0 0 0
315 11 3 -0.18 34.840000 9.470000 27.760000 0 0 0
316 11 4 0.06 33.190000 10.750000 27.960000 0 0 0
317 11 4 0.06 34.630000 11.550000 28.240000 0 0 0
318 11 4 0.06 33.980000 8.760000 27.810000 0 0 0
319 11 4 0.06 35.790000 9.170000 28.150000 0 0 0
320 11 4 0.06 35.070000 9.760000 26.790000 0 0 0
321 11 2 -0.12 33.810000 10.310000 29.820000 0 0 0
322 11 2 -0.12 32.810000 11.350000 30.510000 0 0 0
323 11 4 0.06 34.700000 10.180000 30.500000 0 0 0
324 11 4 0.06 33.360000 9.280000 29.960000 0 0 0
325 11 4 0.06 31.990000 11.540000 29.810000 0 0 0
326 11 4 0.06 33.420000 12.260000 30.790000 0 0 0
327 11 2 -0.12 32.100000 10.770000 31.750000 0 0 0
328 11 2 -0.12 32.980000 10.380000 32.950000 0 0 0
329 11 4 0.06 31.550000 9.910000 31.500000 0 0 0
330 11 4 0.06 31.480000 11.470000 32.270000 0 0 0
331 11 4 0.06 33.910000 9.920000 32.470000 0 0 0
332 11 4 0.06 32.470000 9.540000 33.520000 0 0 0
333 11 2 -0.12 33.260000 11.500000 33.920000 0 0 0
334 11 2 -0.12 34.230000 11.040000 34.960000 0 0 0
335 11 4 0.06 32.300000 11.800000 34.330000 0 0 0
336 11 4 0.06 33.640000 12.210000 33.290000 0 0 0
337 11 4 0.06 35.030000 10.620000 34.460000 0 0 0
338 11 4 0.06 33.700000 10.340000 35.610000 0 0 0
339 11 2 -0.12 34.550000 12.140000 35.970000 0 0 0
340 11 2 -0.12 35.400000 11.620000 37.190000 0 0 0
341 11 4 0.06 33.560000 12.390000 36.430000 0 0 0
342 11 4 0.06 34.820000 13.070000 35.550000 0 0 0
343 11 4 0.06 36.310000 11.210000 36.990000 0 0 0
344 11 4 0.06 34.890000 10.750000 37.680000 0 0 0
345 12 5 0 31.270000 21.900000 30.430000 0 0 0
346 12 2 -0.12 28.350000 17.950000 29.580000 0 0 0
347 12 2 -0.12 29.430000 17.690000 30.510000 0 0 0
348 12 4 0.06 27.270000 17.990000 30.010000 0 0 0
349 12 4 0.06 28.450000 18.840000 28.970000 0 0 0
350 12 4 0.06 30.200000 17.060000 30.190000 0 0 0
351 12 4 0.06 28.950000 16.920000 31.160000 0 0 0
352 12 2 -0.12 29.970000 18.890000 31.270000 0 0 0
353 12 2 -0.12 30.340000 20.220000 30.440000 0 0 0
354 12 4 0.06 30.800000 18.490000 31.780000 0 0 0
355 12 4 0.06 29.310000 19.110000 32.120000 0 0 0
356 12 4 0.06 29.420000 20.830000 30.150000 0 0 0
357 12 4 0.06 30.730000 19.850000 29.500000 0 0 0
358 12 2 -0.12 31.270000 21.190000 31.110000 0 0 0
359 12 2 -0.12 31.520000 22.310000 30.030000 0 0 0
360 12 4 0.06 32.180000 20.700000 31.380000 0 0 0
361 12 4 0.06 30.880000 21.610000 31.990000 0 0 0
362 12 4 0.06 30.530000 22.780000 29.820000 0 0 0
363 12 4 0.06 31.900000 21.790000 29.140000 0 0 0
364 12 2 -0.12 32.550000 23.340000 30.580000 0 0 0
365 12 2 -0.12 32.370000 24.740000 30.070000 0 0 0
366 12 4 0.06 33.390000 22.800000 30.170000 0 0 0
367 12 4 0.06 32.630000 23.220000 31.610000 0 0 0
368 12 4 0.06 31.360000 25.040000 30.460000 0 0 0
369 12 4 0.06 32.390000 24.780000 29.050000 0 0 0
370 12 2 -0.12 33.280000 25.780000 30.780000 0 0 0
371 12 2 -0.12 33.740000 26.920000 29.920000 0 0 0
372 12 4 0.06 34.120000 25.270000 31.170000 0 0 0
373 12 4 0.06 32.770000 26.240000 31.640000 0 0 0
374 12 4 0.06 32.880000 27.670000 29.940000 0 0 0
375 12 4 0.06 33.760000 26.670000 28.800000 0 0 0
376 13 5 0 39.390000 27.110000 36.900000 0 0 0
377 13 2 -0.12 39.480000 21.550000 37.700000 0 0 0
378 13 2 -0.12 39.200000 22.970000 38.090000 0 0 0
379 13 4 0.06 40.350000 21.540000 37.010000 0 0 0
380 13 4 0.06 39.850000 20.920000 38.510000 0 0 0
381 13 4 0.06 39.910000 23.510000 38.810000 0 0 0
382 13 4 0.06 38.280000 22.950000 38.690000 0 0 0
383 13 2 -0.12 39.170000 24.090000 36.960000 0 0 0
384 13 2 -0.12 38.620000 25.390000 37.500000 0 0 0
385 13 4 0.06 38.370000 23.960000 36.150000 0 0 0
386 13 4 0.06 40.180000 24.190000 36.550000 0 0 0
387 13 4 0.06 39.150000 25.670000 38.460000 0 0 0
388 13 4 0.06 37.570000 25.200000 37.870000 0 0 0
389 13 2 -0.12 38.560000 26.540000 36.540000 0 0 0
390 13 2 -0.12 38.970000 27.800000 37.250000 0 0 0
391 13 4 0.06 37.620000 26.700000 36.210000 0 0 0
392 13 4 0.06 39.270000 26.260000 35.680000 0 0 0
393 13 4 0.06 39.900000 27.530000 37.770000 0 0 0
394 13 4 0.06 38.330000 27.980000 38.150000 0 0 0
395 13 2 -0.12 39.230000 28.990000 36.280000 0 0 0
396 13 2 -0.12 39.780000 30.300000 37.040000 0 0 0
397 13 4 0.06 38.230000 29.130000 35.800000 0 0 0
398 13 4 0.06 39.960000 28.710000 35.580000 0 0 0
399 13 4 0.06 40.770000 30.260000 37.590000 0 0 0
400 13 4 0.06 38.970000 30.520000 37.860000 0 0 0
401 13 2 -0.12 39.850000 31.580000 36.240000 0 0 0
402 13 2 -0.12 41.030000 31.800000 35.310000 0 0 0
403 13 4 0.06 39.790000 32.450000 36.900000 0 0 0
404 13 4 0.06 38.890000 31.560000 35.780000 0 0 0
405 13 4 0.06 41.010000 32.880000 35.050000 0 0 0
406 13 4 0.06 40.920000 31.200000 34.430000 0 0 0
407 14 5 0 45.750000 24.910000 27.290000 0 0 0
408 14 2 -0.12 40.550000 24.690000 27.610000 0 0 0
409 14 2 -0.12 41.670000 25.030000 26.620000 0 0 0
410 14 4 0.06 40.510000 23.610000 27.780000 0 0 0
411 14 4 0.06 40.820000 25.090000 28.630000 0 0 0
412 14 4 0.06 41.550000 26.090000 26.370000 0 0 0
413 14 4 0.06 41.440000 24.490000 25.670000 0 0 0
414 14 2 -0.12 43.090000 24.620000 27.090000 0 0 0
415 14 2 -0.12 44.290000 25.150000 26.270000 0 0 0
416 14 4 0.06 43.140000 23.540000 27.050000 0 0 0
417 14 4 0.06 43.140000 24.710000 28.170000 0 0 0
418 14 4 0.06 44.320000 26.230000 26.370000 0 0 0
419 14 4 0.06 44.070000 24.810000 25.250000 0 0 0
420 14 2 -0.12 45.620000 24.670000 26.790000 0 0 0
421 14 2 -0.12 46.020000 25.440000 28.050000 0 0 0
422 14 4 0.06 46.400000 24.850000 26.060000 0 0 0
423 14 4 0.06 45.720000 23.620000 27.040000 0 0 0
424 14 4 0.06 45.230000 25.350000 28.670000 0 0 0
425 14 4 0.06 46.030000 26.440000 27.770000 0 0 0
426 14 2 -0.12 47.430000 25.040000 28.550000 0 0 0
427 14 2 -0.12 48.370000 24.910000 27.400000 0 0 0
428 14 4 0.06 47.390000 24.020000 28.970000 0 0 0
429 14 4 0.06 47.820000 25.700000 29.270000 0 0 0
430 14 4 0.06 48.310000 25.790000 26.710000 0 0 0
431 14 4 0.06 48.250000 24.040000 26.720000 0 0 0
432 14 2 -0.12 49.780000 24.970000 27.850000 0 0 0
433 14 2 -0.12 50.690000 24.680000 26.720000 0 0 0
434 14 4 0.06 49.790000 24.200000 28.670000 0 0 0
435 14 4 0.06 49.870000 25.940000 28.440000 0 0 0
436 14 4 0.06 50.380000 25.260000 25.900000 0 0 0
437 14 4 0.06 50.680000 23.670000 26.370000 0 0 0
438 15 5 0 41.580000 25.230000 18.560000 0 0 0
439 15 2 -0.12 38.110000 25.730000 22.410000 0 0 0
440 15 2 -0.12 38.970000 25.420000 21.220000 0 0 0
441 15 4 0.06 38.600000 25.250000 23.270000 0 0 0
442 15 4 0.06 38.290000 26.780000 22.610000 0 0 0
443 15 4 0.06 39.050000 26.370000 20.680000 0 0 0
444 15 4 0.06 38.470000 24.800000 20.590000 0 0 0
445 15 2 -0.12 40.300000 24.760000 21.510000 0 0 0
446 15 2 -0.12 41.070000 24.480000 20.190000 0 0 0
447 15 4 0.06 40.050000 23.800000 21.990000 0 0 0
448 15 4 0.06 40.860000 25.500000 22.100000 0 0 0
449 15 4 0.06 40.480000 24.170000 19.320000 0 0 0
450 15 4 0.06 41.620000 23.520000 20.460000 0 0 0
451 15 2 -0.12 42.140000 25.590000 19.850000 0 0 0
452 15 2 -0.12 43.030000 25.290000 18.610000 0 0 0
453 15 4 0.06 42.910000 25.780000 20.660000 0 0 0
454 15 4 0.06 41.590000 26.560000 19.810000 0 0 0
455 15 4 0.06 43.320000 24.240000 18.670000 0 0 0
456 15 4 0.06 43.980000 25.910000 18.700000 0 0 0
457 15 2 -0.12 42.430000 25.620000 17.310000 0 0 0
458 15 2 -0.12 43.150000 24.990000 16.100000 0 0 0
459 15 4 0.06 42.580000 26.660000 17.110000 0 0 0
460 15 4 0.06 41.420000 25.240000 17.080000 0 0 0
461 15 4 0.06 42.920000 23.950000 16.230000 0 0 0
462 15 4 0.06 44.270000 25.000000 16.220000 0 0 0
463 15 2 -0.12 42.810000 25.530000 14.780000 0 0 0
464 15 2 -0.12 43.560000 24.800000 13.620000 0 0 0
465 15 4 0.06 43.210000 26.570000 14.700000 0 0 0
466 15 4 0.06 41.730000 25.590000 14.480000 0 0 0
467 15 4 0.06 44.630000 24.400000 13.990000 0 0 0
468 15 4 0.06 43.790000 25.570000 12.920000 0 0 0
469 16 5 0 33.080000 28.980000 26.670000 0 0 0
470 16 2 -0.12 29.010000 30.960000 30.060000 0 0 0
471 16 2 -0.12 29.580000 30.460000 28.720000 0 0 0
472 16 4 0.06 27.980000 31.430000 29.890000 0 0 0
473 16 4 0.06 28.820000 30.070000 30.670000 0 0 0
474 16 4 0.06 29.540000 31.350000 28.010000 0 0 0
475 16 4 0.06 29.000000 29.590000 28.230000 0 0 0
476 16 2 -0.12 31.150000 30.180000 28.720000 0 0 0
477 16 2 -0.12 31.600000 29.670000 27.370000 0 0 0
478 16 4 0.06 31.390000 29.440000 29.500000 0 0 0
479 16 4 0.06 31.670000 31.120000 29.060000 0 0 0
480 16 4 0.06 31.380000 30.400000 26.560000 0 0 0
481 16 4 0.06 31.100000 28.780000 27.030000 0 0 0
482 16 2 -0.12 33.080000 29.230000 27.470000 0 0 0
483 16 2 -0.12 33.550000 29.090000 26.040000 0 0 0
484 16 4 0.06 33.110000 28.260000 27.890000 0 0 0
485 16 4 0.06 33.710000 29.870000 28.080000 0 0 0
486 16 4 0.06 33.400000 30.070000 25.620000 0 0 0
487 16 4 0.06 32.820000 28.460000 25.480000 0 0 0
488 16 2 -0.12 34.780000 28.280000 25.840000 0 0 0
489 16 2 -0.12 35.300000 28.400000 24.450000 0 0 0
490 16 4 0.06 34.570000 27.230000 26.120000 0 0 0
491 16 4 0.06 35.470000 28.540000 26.570000 0 0 0
492 16 4 0.06 35.500000 29.490000 24.320000 0 0 0
493 16 4 0.06 34.450000 28.290000 23.760000 0 0 0
494 16 2 -0.12 36.590000 27.550000 24.200000 0 0 0
495 16 2 -0.12 36.340000 25.950000 23.920000 0 0 0
496 16 4 0.06 37.460000 27.860000 24.840000 0 0 0
497 16 4 0.06 37.020000 27.990000 23.290000 0 0 0
498 16 4 0.06 35.600000 26.000000 23.110000 0 0 0
499 16 4 0.06 35.980000 25.450000 24.850000 0 0 0
500 17 5 0 37.630000 30.210000 28.990000 0 0 0
501 17 2 -0.12 36.790000 35.040000 30.850000 0 0 0
502 17 2 -0.12 36.680000 33.560000 30.480000 0 0 0
503 17 4 0.06 37.620000 35.060000 31.610000 0 0 0
504 17 4 0.06 37.130000 35.540000 30.000000 0 0 0
505 17 4 0.06 35.790000 33.490000 29.820000 0 0 0
506 17 4 0.06 36.420000 32.960000 31.440000 0 0 0
507 17 2 -0.12 37.960000 32.930000 29.850000 0 0 0
508 17 2 -0.12 37.800000 31.560000 29.290000 0 0 0
509 17 4 0.06 38.590000 32.910000 30.730000 0 0 0
510 17 4 0.06 38.160000 33.570000 28.960000 0 0 0
511 17 4 0.06 36.980000 31.580000 28.620000 0 0 0
512 17 4 0.06 37.570000 30.920000 30.140000 0 0 0
513 17 2 -0.12 38.990000 31.060000 28.520000 0 0 0
514 17 2 -0.12 38.740000 29.800000 27.630000 0 0 0
515 17 4 0.06 39.620000 30.870000 29.320000 0 0 0
516 17 4 0.06 39.580000 31.720000 28.010000 0 0 0
517 17 4 0.06 39.780000 29.690000 27.180000 0 0 0
518 17 4 0.06 38.100000 30.100000 26.820000 0 0 0
519 17 2 -0.12 38.180000 28.580000 28.440000 0 0 0
520 17 2 -0.12 37.650000 27.400000 27.560000 0 0 0
521 17 4 0.06 37.360000 28.910000 28.900000 0 0 0
522 17 4 0.06 38.830000 28.310000 29.260000 0 0 0
523 17 4 0.06 38.340000 27.270000 26.740000 0 0 0
524 17 4 0.06 36.760000 27.930000 27.300000 0 0 0
525 17 2 -0.12 37.300000 25.990000 28.120000 0 0 0
526 17 2 -0.12 36.130000 26.110000 29.130000 0 0 0
527 17 4 0.06 38.210000 25.650000 28.530000 0 0 0
528 17 4 0.06 37.110000 25.280000 27.300000 0 0 0
529 17 4 0.06 35.510000 27.010000 28.920000 0 0 0
530 17 4 0.06 36.660000 26.400000 30.070000 0 0 0
531 18 5 0 29.160000 32.350000 27.980000 0 0 0
532 18 2 -0.12 26.340000 36.340000 28.830000 0 0 0
533 18 2 -0.12 26.850000 35.050000 29.440000 0 0 0
534 18 4 0.06 26.130000 35.970000 27.880000 0 0 0
535 18 4 0.06 25.430000 36.730000 29.420000 0 0 0
536 18 4 0.06 26.040000 34.300000 29.490000 0 0 0
537 18 4 0.06 27.130000 35.240000 30.420000 0 0 0
538 18 2 -0.12 28.080000 34.470000 28.710000 0 0 0
539 18 2 -0.12 28.660000 33.050000 28.970000 0 0 0
540 18 4 0.06 28.950000 35.040000 29.040000 0 0 0
541 18 4 0.06 27.950000 34.560000 27.640000 0 0 0
542 18 4 0.06 28.440000 32.770000 29.980000 0 0 0
543 18 4 0.06 29.740000 33.150000 28.730000 0 0 0
544 18 2 -0.12 27.930000 31.940000 28.200000 0 0 0
545 18 2 -0.12 28.650000 30.560000 28.340000 0 0 0
546 18 4 0.06 27.650000 32.210000 27.180000 0 0 0
547 18 4 0.06 26.940000 31.800000 28.670000 0 0 0
548 18 4 0.06 28.060000 29.710000 28.570000 0 0 0
549 18 4 0.06 29.330000 30.620000 29.190000 0 0 0
550 18 2 -0.12 29.610000 30.260000 27.250000 0 0 0
551 18 2 -0.12 30.840000 31.270000 27.130000 0 0 0
552 18 4 0.06 29.120000 30.460000 26.260000 0 0 0
553 18 4 0.06 30.030000 29.260000 27.470000 0 0 0
554 18 4 0.06 31.450000 31.480000 28.110000 0 0 0
555 18 4 0.06 30.400000 32.200000 26.750000 0 0 0
556 18 2 -0.12 31.840000 30.760000 26.090000 0 0 0
557 18 2 -0.12 32.870000 29.780000 26.720000 0 0 0
558 18 4 0.06 32.410000 31.480000 25.580000 0 0 0
559 18 4 0.06 31.290000 30.130000 25.330000 0 0 0
560 18 4 0.06 32.170000 29.140000 27.280000 0 0 0
561 18 4 0.06 33.430000 30.310000 27.520000 0 0 0
562 19 5 0 21.420000 28.940000 32.800000 0 0 0
563 19 2 -0.12 18.350000 33.070000 30.800000 0 0 0
564 19 2 -0.12 19.060000 31.960000 31.620000 0 0 0
565 19 4 0.06 19.060000 33.490000 30.120000 0 0 0
566 19 4 0.06 17.570000 32.630000 30.150000 0 0 0
567 19 4 0.06 18.380000 31.620000 32.320000 0 0 0
568 19 4 0.06 19.860000 32.450000 32.160000 0 0 0
569 19 2 -0.12 19.750000 30.920000 30.770000 0 0 0
570 19 2 -0.12 20.960000 30.250000 31.280000 0 0 0
571 19 4 0.06 19.940000 31.110000 29.710000 0 0 0
572 19 4 0.06 18.990000 30.090000 30.850000 0 0 0
573 19 4 0.06 21.610000 31.030000 31.720000 0 0 0
574 19 4 0.06 21.390000 29.650000 30.400000 0 0 0
575 19 2 -0.12 20.700000 29.210000 32.420000 0 0 0
576 19 2 -0.12 22.080000 28.650000 32.630000 0 0 0
577 19 4 0.06 20.160000 28.350000 32.150000 0 0 0
578 19 4 0.06 20.340000 29.690000 33.240000 0 0 0
579 19 4 0.06 22.890000 29.330000 32.930000 0 0 0
580 19 4 0.06 22.470000 28.090000 31.760000 0 0 0
581 19 2 -0.12 22.040000 27.510000 33.720000 0 0 0
582 19 2 -0.12 23.350000 26.850000 34.080000 0 0 0
583 19 4 0.06 21.210000 26.850000 33.400000 0 0 0
584 19 4 0.06 21.790000 28.020000 34.600000 0 0 0
585 19 4 0.06 23.920000 27.590000 34.490000 0 0 0
586 19 4 0.06 23.900000 26.620000 33.140000 0 0 0
587 19 2 -0.12 23.220000 25.540000 35.070000 0 0 0
588 19 2 -0.12 24.700000 25.440000 35.670000 0 0 0
589 19 4 0.06 22.940000 24.740000 34.400000 0 0 0
590 19 4 0.06 22.370000 25.580000 35.830000 0 0 0
591 19 4 0.06 24.720000 26.140000 36.490000 0 0 0
592 19 4 0.06 25.440000 25.790000 34.990000 0 0 0
593 20 1 0 18.880000 26.150000 34.950000 0 0 0
594 20 2 -0.12 19.490000 22.500000 37.050000 0 0 0
595 20 3 -0.18 18.830000 21.060000 37.110000 0 0 0
596 20 4 0.06 19.880000 22.630000 38.090000 0 0 0
597 20 4 0.06 20.420000 22.130000 36.400000 0 0 0
598 20 4 0.06 18.690000 20.710000 36.100000 0 0 0
599 20 4 0.06 17.800000 20.960000 37.660000 0 0 0
600 20 4 0.06 19.480000 20.210000 37.660000 0 0 0
601 20 2 -0.12 19.580000 24.760000 35.640000 0 0 0
602 20 2 -0.12 18.700000 23.660000 36.370000 0 0 0
603 20 4 0.06 20.390000 25.180000 36.240000 0 0 0
604 20 4 0.06 20.190000 24.300000 34.810000 0 0 0
605 20 4 0.06 18.040000 23.220000 35.580000 0 0 0
606 20 4 0.06 18.140000 24.170000 37.130000 0 0 0
607 20 2 -0.12 19.440000 26.420000 33.630000 0 0 0
608 20 2 -0.12 18.760000 25.800000 34.840000 0 0 0
609 20 4 0.06 20.430000 26.740000 33.890000 0 0 0
610 20 4 0.06 19.530000 25.650000 32.850000 0 0 0
611 20 4 0.06 17.780000 25.540000 34.490000 0 0 0
612 20 4 0.06 18.490000 26.640000 35.520000 0 0 0
613 20 2 -0.12 18.810000 28.830000 33.880000 0 0 0
614 20 2 -0.12 18.820000 27.600000 33.040000 0 0 0
615 20 4 0.06 18.570000 28.630000 34.910000 0 0 0
616 20 4 0.06 19.870000 29.010000 34.040000 0 0 0
617 20 4 0.06 19.400000 27.890000 32.180000 0 0 0
618 20 4 0.06 17.820000 27.440000 32.590000 0 0 0
619 20 2 -0.12 18.180000 31.160000 34.430000 0 0 0
620 20 2 -0.12 18.160000 30.130000 33.310000 0 0 0
621 20 4 0.06 17.400000 30.870000 35.140000 0 0 0
622 20 4 0.06 19.170000 31.240000 34.920000 0 0 0
623 20 4 0.06 18.800000 30.450000 32.530000 0 0 0
624 20 4 0.06 17.060000 30.130000 33.030000 0 0 0
625 21 1 0 46.250000 17.310000 15.510000 0 0 0
626 21 2 -0.12 46.600000 17.080000 11.640000 0 0 0
627 21 3 -0.18 47.280000 15.880000 10.980000 0 0 0
628 21 4 0.06 45.630000 17.160000 11.180000 0 0 0
629 21 4 0.06 47.070000 17.960000 11.460000 0 0 0
630 21 4 0.06 46.420000 15.170000 11.030000 0 0 0
631 21 4 0.06 48.230000 15.580000 11.370000 0 0 0
632 21 4 0.06 47.510000 16.170000 10.010000 0 0 0
633 21 2 -0.12 46.250000 16.720000 13.040000 0 0 0
634 21 2 -0.12 45.250000 17.760000 13.730000 0 0 0
635 21 4 0.06 47.140000 16.590000 13.720000 0 0 0
636 21 4 0.06 45.800000 15.690000 13.180000 0 0 0
637 21 4 0.06 44.430000 17.950000 13.030000 0 0 0
638 21 4 0.06 45.860000 18.670000 14.010000 0 0 0
639 21 2 -0.12 44.540000 17.180000 14.970000 0 0 0
640 21 2 -0.12 45.420000 16.790000 16.170000 0 0 0
641 21 4 0.06 43.990000 16.320000 14.720000 0 0 0
642 21 4 0.06 43.920000 17.880000 15.490000 0 0 0
643 21 4 0.06 46.350000 16.330000 15.690000 0 0 0
644 21 4 0.06 44.910000 15.950000 16.740000 0 0 0
645 21 2 -0.12 45.700000 17.910000 17.140000 0 0 0
646 21 2 -0.12 46.670000 17.450000 18.180000 0 0 0
647 21 4 0.06 44.740000 18.210000 17.550000 0 0 0
648 21 4 0.06 46.080000 18.620000 16.510000 0 0 0
649 21 4 0.06 47.470000 17.030000 17.680000 0 0 0
650 21 4 0.06 46.140000 16.750000 18.830000 0 0 0
651 21 2 -0.12 46.990000 18.550000 19.190000 0 0 0
652 21 2 -0.12 47.840000 18.030000 20.410000 0 0 0
653 21 4 0.06 46.000000 18.800000 19.650000 0 0 0
654 21 4 0.06 47.260000 19.480000 18.770000 0 0 0
655 21 4 0.06 48.750000 17.620000 20.210000 0 0 0
656 21 4 0.06 47.330000 17.160000 20.900000 0 0 0
657 22 5 0 40.190000 8.470000 14.460000 0 0 0
658 22 2 -0.12 37.270000 4.520000 13.610000 0 0 0
659 22 2 -0.12 38.350000 4.260000 14.540000 0 0 0
660 22 4 0.06 36.190000 4.560000 14.040000 0 0 0
661 22 4 0.06 37.370000 5.410000 13.000000 0 0 0
662 22 4 0.06 39.120000 3.630000 14.220000 0 0 0
663 22 4 0.06 37.870000 3.490000 15.190000 0 0 0
664 22 2 -0.12 38.890000 5.460000 15.300000 0 0 0
665 22 2 -0.12 39.260000 6.790000 14.470000 0 0 0
666 22 4 0.06 39.720000 5.060000 15.810000 0 0 0
667 22 4 0.06 38.230000 5.680000 16.150000 0 0 0
668 22 4 0.06 38.340000 7.400000 14.180000 0 0 0
669 22 4 0.06 39.650000 6.420000 13.530000 0 0 0
670 22 2 -0.12 40.190000 7.760000 15.140000 0 0 0
671 22 2 -0.12 40.440000 8.880000 14.060000 0 0 0
672 22 4 0.06 41.100000 7.270000 15.410000 0 0 0
673 22 4 0.06 39.800000 8.180000 16.020000 0 0 0
674 22 4 0.06 39.450000 9.350000 13.850000 0 0 0
675 22 4 0.06 40.820000 8.360000 13.170000 0 0 0
676 22 2 -0.12 41.470000 9.910000 14.610000 0 0 0
677 22 2 -0.12 41.290000 11.310000 14.100000 0 0 0
678 22 4 0.06 42.310000 9.370000 14.200000 0 0 0
679 22 4 0.06 41.550000 9.790000 15.640000 0 0 0
680 22 4 0.06 40.280000 11.610000 14.490000 0 0 0
681 22 4 0.06 41.310000 11.350000 13.080000 0 0 0
682 22 2 -0.12 42.200000 12.350000 14.810000 0 0 0
683 22 2 -0.12 42.660000 13.490000 13.950000 0 0 0
684 22 4 0.06 43.040000 11.840000 15.200000 0 0 0
685 22 4 0.06 41.690000 12.810000 15.670000 0 0 0
686 22 4 0.06 41.800000 14.240000 13.970000 0 0 0
687 22 4 0.06 42.680000 13.240000 12.830000 0 0 0
688 23 5 0 37.600000 14.750000 19.820000 0 0 0
689 23 2 -0.12 37.690000 9.190000 20.620000 0 0 0
690 23 2 -0.12 37.410000 10.610000 21.010000 0 0 0
691 23 4 0.06 38.560000 9.180000 19.930000 0 0 0
692 23 4 0.06 38.060000 8.560000 21.430000 0 0 0
693 23 4 0.06 38.120000 11.150000 21.730000 0 0 0
694 23 4 0.06 36.490000 10.590000 21.610000 0 0 0
695 23 2 -0.12 37.380000 11.730000 19.880000 0 0 0
696 23 2 -0.12 36.830000 13.030000 20.420000 0 0 0
697 23 4 0.06 36.580000 11.600000 19.070000 0 0 0
698 23 4 0.06 38.390000 11.830000 19.470000 0 0 0
699 23 4 0.06 37.360000 13.310000 21.380000 0 0 0
700 23 4 0.06 35.780000 12.840000 20.790000 0 0 0
701 23 2 -0.12 36.770000 14.180000 19.460000 0 0 0
702 23 2 -0.12 37.180000 15.440000 20.170000 0 0 0
703 23 4 0.06 35.830000 14.340000 19.130000 0 0 0
704 23 4 0.06 37.480000 13.900000 18.600000 0 0 0
705 23 4 0.06 38.110000 15.170000 20.690000 0 0 0
706 23 4 0.06 36.540000 15.620000 21.070000 0 0 0
707 23 2 -0.12 37.440000 16.630000 19.200000 0 0 0
708 23 2 -0.12 37.990000 17.940000 19.960000 0 0 0
709 23 4 0.06 36.440000 16.770000 18.720000 0 0 0
710 23 4 0.06 38.170000 16.350000 18.500000 0 0 0
711 23 4 0.06 38.980000 17.900000 20.510000 0 0 0
712 23 4 0.06 37.180000 18.160000 20.780000 0 0 0
713 23 2 -0.12 38.060000 19.220000 19.160000 0 0 0
714 23 2 -0.12 39.240000 19.440000 18.230000 0 0 0
715 23 4 0.06 38.000000 20.090000 19.820000 0 0 0
716 23 4 0.06 37.100000 19.200000 18.700000 0 0 0
717 23 4 0.06 39.220000 20.520000 17.970000 0 0 0
718 23 4 0.06 39.130000 18.840000 17.350000 0 0 0
719 24 5 0 31.800000 15.680000 28.090000 0 0 0
720 24 2 -0.12 26.600000 15.460000 28.410000 0 0 0
721 24 2 -0.12 27.720000 15.800000 27.420000 0 0 0
722 24 4 0.06 26.560000 14.380000 28.580000 0 0 0
723 24 4 0.06 26.870000 15.860000 29.430000 0 0 0
724 24 4 0.06 27.600000 16.860000 27.170000 0 0 0
725 24 4 0.06 27.490000 15.260000 26.470000 0 0 0
726 24 2 -0.12 29.140000 15.390000 27.890000 0 0 0
727 24 2 -0.12 30.340000 15.920000 27.070000 0 0 0
728 24 4 0.06 29.190000 14.310000 27.850000 0 0 0
729 24 4 0.06 29.190000 15.480000 28.970000 0 0 0
730 24 4 0.06 30.370000 17.000000 27.170000 0 0 0
731 24 4 0.06 30.120000 15.580000 26.050000 0 0 0
732 24 2 -0.12 31.670000 15.440000 27.590000 0 0 0
733 24 2 -0.12 32.070000 16.210000 28.850000 0 0 0
734 24 4 0.06 32.450000 15.620000 26.860000 0 0 0
735 24 4 0.06 31.770000 14.390000 27.840000 0 0 0
736 24 4 0.06 31.280000 16.120000 29.470000 0 0 0
737 24 4 0.06 32.080000 17.210000 28.570000 0 0 0
738 24 2 -0.12 33.480000 15.810000 29.350000 0 0 0
739 24 2 -0.12 34.420000 15.680000 28.200000 0 0 0
740 24 4 0.06 33.440000 14.790000 29.770000 0 0 0
741 24 4 0.06 33.870000 16.470000 30.070000 0 0 0
742 24 4 0.06 34.360000 16.560000 27.510000 0 0 0
743 24 4 0.06 34.300000 14.810000 27.520000 0 0 0
744 24 2 -0.12 35.830000 15.740000 28.650000 0 0 0
745 24 2 -0.12 36.740000 15.450000 27.520000 0 0 0
746 24 4 0.06 35.840000 14.970000 29.470000 0 0 0
747 24 4 0.06 35.920000 16.710000 29.240000 0 0 0
748 24 4 0.06 36.430000 16.030000 26.700000 0 0 0
749 24 4 0.06 36.730000 14.440000 27.170000 0 0 0
750 25 5 0 41.190000 14.730000 23.510000 0 0 0
751 25 2 -0.12 37.720000 15.230000 27.360000 0 0 0
752 25 2 -0.12 38.580000 14.920000 26.170000 0 0 0
753 25 4 0.06 38.210000 14.750000 28.220000 0 0 0
754 25 4 0.06 37.900000 16.280000 27.560000 0 0 0
755 25 4 0.06 38.660000 15.870000 25.630000 0 0 0
756 25 4 0.06 38.080000 14.300000 25.540000 0 0 0
757 25 2 -0.12 39.910000 14.260000 26.460000 0 0 0
758 25 2 -0.12 40.680000 13.980000 25.140000 0 0 0
759 25 4 0.06 39.660000 13.300000 26.940000 0 0 0
760 25 4 0.06 40.470000 15.000000 27.050000 0 0 0
761 25 4 0.06 40.090000 13.670000 24.270000 0 0 0
762 25 4 0.06 41.230000 13.020000 25.410000 0 0 0
763 25 2 -0.12 41.750000 15.090000 24.800000 0 0 0
764 25 2 -0.12 42.640000 14.790000 23.560000 0 0 0
765 25 4 0.06 42.520000 15.280000 25.610000 0 0 0
766 25 4 0.06 41.200000 16.060000 24.760000 0 0 0
767 25 4 0.06 42.930000 13.740000 23.620000 0 0 0
768 25 4 0.06 43.590000 15.410000 23.650000 0 0 0
769 25 2 -0.12 42.040000 15.120000 22.260000 0 0 0
770 25 2 -0.12 42.760000 14.490000 21.050000 0 0 0
771 25 4 0.06 42.190000 16.160000 22.060000 0 0 0
772 25 4 0.06 41.030000 14.740000 22.030000 0 0 0
773 25 4 0.06 42.530000 13.450000 21.180000 0 0 0
774 25 4 0.06 43.880000 14.500000 21.170000 0 0 0
775 25 2 -0.12 42.420000 15.030000 19.730000 0 0 0
776 25 2 -0.12 43.170000 14.300000 18.570000 0 0 0
777 25 4 0.06 42.820000 16.070000 19.650000 0 0 0
778 25 4 0.06 41.340000 15.090000 19.430000 0 0 0
779 25 4 0.06 44.240000 13.900000 18.940000 0 0 0
780 25 4 0.06 43.400000 15.070000 17.870000 0 0 0
781 26 5 0 30.540000 17.390000 23.640000 0 0 0
782 26 2 -0.12 26.470000 19.370000 27.030000 0 0 0
783 26 2 -0.12 27.040000 18.870000 25.690000 0 0 0
784 26 4 0.06 25.440000 19.840000 26.860000 0 0 0
785 26 4 0.06 26.280000 18.480000 27.640000 0 0 0
786 26 4 0.06 27.000000 19.760000 24.980000 0 0 0
787 26 4 0.06 26.460000 18.000000 25.200000 0 0 0
788 26 2 -0.12 28.610000 18.590000 25.690000 0 0 0
789 26 2 -0.12 29.060000 18.080000 24.340000 0 0 0
790 26 4 0.06 28.850000 17.850000 26.470000 0 0 0
791 26 4 0.06 29.130000 19.530000 26.030000 0 0 0
792 26 4 0.06 28.840000 18.810000 23.530000 0 0 0
793 26 4 0.06 28.560000 17.190000 24.000000 0 0 0
794 26 2 -0.12 30.540000 17.640000 24.440000 0 0 0
795 26 2 -0.12 31.010000 17.500000 23.010000 0 0 0
796 26 4 0.06 30.570000 16.670000 24.860000 0 0 0
797 26 4 0.06 31.170000 18.280000 25.050000 0 0 0
798 26 4 0.06 30.860000 18.480000 22.590000 0 0 0
799 26 4 0.06 30.280000 16.870000 22.450000 0 0 0
800 26 2 -0.12 32.240000 16.690000 22.810000 0 0 0
801 26 2 -0.12 32.760000 16.810000 21.420000 0 0 0
802 26 4 0.06 32.030000 15.640000 23.090000 0 0 0
803 26 4 0.06 32.930000 16.950000 23.540000 0 0 0
804 26 4 0.06 32.960000 17.900000 21.290000 0 0 0
805 26 4 0.06 31.910000 16.700000 20.730000 0 0 0
806 26 2 -0.12 34.050000 15.960000 21.170000 0 0 0
807 26 2 -0.12 33.800000 14.360000 20.890000 0 0 0
808 26 4 0.06 34.920000 16.270000 21.810000 0 0 0
809 26 4 0.06 34.480000 16.400000 20.260000 0 0 0
810 26 4 0.06 33.060000 14.410000 20.080000 0 0 0
811 26 4 0.06 33.440000 13.860000 21.820000 0 0 0
812 27 5 0 25.500000 24.190000 27.140000 0 0 0
813 27 2 -0.12 24.660000 29.020000 29.000000 0 0 0
814 27 2 -0.12 24.550000 27.540000 28.630000 0 0 0
815 27 4 0.06 25.490000 29.040000 29.760000 0 0 0
816 27 4 0.06 25.000000 29.520000 28.150000 0 0 0
817 27 4 0.06 23.660000 27.470000 27.970000 0 0 0
818 27 4 0.06 24.290000 26.940000 29.590000 0 0 0
819 27 2 -0.12 25.830000 26.910000 28.000000 0 0 0
820 27 2 -0.12 25.670000 25.540000 27.440000 0 0 0
821 27 4 0.06 26.460000 26.890000 28.880000 0 0 0
822 27 4 0.06 26.030000 27.550000 27.110000 0 0 0
823 27 4 0.06 24.850000 25.560000 26.770000 0 0 0
824 27 4 0.06 25.440000 24.900000 28.290000 0 0 0
825 27 2 -0.12 26.860000 25.040000 26.670000 0 0 0
826 27 2 -0.12 26.610000 23.780000 25.780000 0 0 0
827 27 4 0.06 27.490000 24.850000 27.470000 0 0 0
828 27 4 0.06 27.450000 25.700000 26.160000 0 0 0
829 27 4 0.06 27.650000 23.670000 25.330000 0 0 0
830 27 4 0.06 25.970000 24.080000 24.970000 0 0 0
831 27 2 -0.12 26.050000 22.560000 26.590000 0 0 0
832 27 2 -0.12 25.520000 21.380000 25.710000 0 0 0
833 27 4 0.06 25.230000 22.890000 27.050000 0 0 0
834 27 4 0.06 26.700000 22.290000 27.410000 0 0 0
835 27 4 0.06 26.210000 21.250000 24.890000 0 0 0
836 27 4 0.06 24.630000 21.910000 25.450000 0 0 0
837 27 2 -0.12 25.170000 19.970000 26.270000 0 0 0
838 27 2 -0.12 24.000000 20.090000 27.280000 0 0 0
839 27 4 0.06 26.080000 19.630000 26.680000 0 0 0
840 27 4 0.06 24.980000 19.260000 25.450000 0 0 0
841 27 4 0.06 23.380000 20.990000 27.070000 0 0 0
842 27 4 0.06 24.530000 20.380000 28.220000 0 0 0
843 28 5 0 24.850000 27.050000 18.040000 0 0 0
844 28 2 -0.12 22.030000 31.040000 18.890000 0 0 0
845 28 2 -0.12 22.540000 29.750000 19.500000 0 0 0
846 28 4 0.06 21.820000 30.670000 17.940000 0 0 0
847 28 4 0.06 21.120000 31.430000 19.480000 0 0 0
848 28 4 0.06 21.730000 29.000000 19.550000 0 0 0
849 28 4 0.06 22.820000 29.940000 20.480000 0 0 0
850 28 2 -0.12 23.770000 29.170000 18.770000 0 0 0
851 28 2 -0.12 24.350000 27.750000 19.030000 0 0 0
852 28 4 0.06 24.640000 29.740000 19.100000 0 0 0
853 28 4 0.06 23.640000 29.260000 17.700000 0 0 0
854 28 4 0.06 24.130000 27.470000 20.040000 0 0 0
855 28 4 0.06 25.430000 27.850000 18.790000 0 0 0
856 28 2 -0.12 23.620000 26.640000 18.260000 0 0 0
857 28 2 -0.12 24.340000 25.260000 18.400000 0 0 0
858 28 4 0.06 23.340000 26.910000 17.240000 0 0 0
859 28 4 0.06 22.630000 26.500000 18.730000 0 0 0
860 28 4 0.06 23.750000 24.410000 18.630000 0 0 0
861 28 4 0.06 25.020000 25.320000 19.250000 0 0 0
862 28 2 -0.12 25.300000 24.960000 17.310000 0 0 0
863 28 2 -0.12 26.530000 25.970000 17.190000 0 0 0
864 28 4 0.06 24.810000 25.160000 16.320000 0 0 0
865 28 4 0.06 25.720000 23.960000 17.530000 0 0 0
866 28 4 0.06 27.140000 26.180000 18.170000 0 0 0
867 28 4 0.06 26.090000 26.900000 16.810000 0 0 0
868 28 2 -0.12 27.530000 25.460000 16.150000 0 0 0
869 28 2 -0.12 28.560000 24.480000 16.780000 0 0 0
870 28 4 0.06 28.100000 26.180000 15.640000 0 0 0
871 28 4 0.06 26.980000 24.830000 15.390000 0 0 0
872 28 4 0.06 27.860000 23.840000 17.340000 0 0 0
873 28 4 0.06 29.120000 25.010000 17.580000 0 0 0
874 29 5 0 30.320000 35.240000 9.900000 0 0 0
875 29 2 -0.12 27.250000 39.370000 7.900000 0 0 0
876 29 2 -0.12 27.960000 38.260000 8.720000 0 0 0
877 29 4 0.06 27.960000 39.790000 7.220000 0 0 0
878 29 4 0.06 26.470000 38.930000 7.250000 0 0 0
879 29 4 0.06 27.280000 37.920000 9.420000 0 0 0
880 29 4 0.06 28.760000 38.750000 9.260000 0 0 0
881 29 2 -0.12 28.650000 37.220000 7.870000 0 0 0
882 29 2 -0.12 29.860000 36.550000 8.380000 0 0 0
883 29 4 0.06 28.840000 37.410000 6.810000 0 0 0
884 29 4 0.06 27.890000 36.390000 7.950000 0 0 0
885 29 4 0.06 30.510000 37.330000 8.820000 0 0 0
886 29 4 0.06 30.290000 35.950000 7.500000 0 0 0
887 29 2 -0.12 29.600000 35.510000 9.520000 0 0 0
888 29 2 -0.12 30.980000 34.950000 9.730000 0 0 0
889 29 4 0.06 29.060000 34.650000 9.250000 0 0 0
890 29 4 0.06 29.240000 35.990000 10.340000 0 0 0
891 29 4 0.06 31.790000 35.630000 10.030000 0 0 0
892 29 4 0.06 31.370000 34.390000 8.860000 0 0 0
893 29 2 -0.12 30.940000 33.810000 10.820000 0 0 0
894 29 2 -0.12 32.250000 33.150000 11.180000 0 0 0
895 29 4 0.06 30.110000 33.150000 10.500000 0 0 0
896 29 4 0.06 30.690000 34.320000 11.700000 0 0 0
897 29 4 0.06 32.820000 33.890000 11.590000 0 0 0
898 29 4 0.06 32.800000 32.920000 10.240000 0 0 0
899 29 2 -0.12 32.120000 31.840000 12.170000 0 0 0
900 29 2 -0.12 33.600000 31.740000 12.770000 0 0 0
901 29 4 0.06 31.840000 31.040000 11.500000 0 0 0
902 29 4 0.06 31.270000 31.880000 12.930000 0 0 0
903 29 4 0.06 33.620000 32.440000 13.590000 0 0 0
904 29 4 0.06 34.340000 32.090000 12.090000 0 0 0
905 30 1 0 39.080000 31.170000 7.490000 0 0 0
906 30 2 -0.12 39.690000 27.520000 9.590000 0 0 0
907 30 3 -0.18 39.030000 26.080000 9.650000 0 0 0
908 30 4 0.06 40.080000 27.650000 10.630000 0 0 0
909 30 4 0.06 40.620000 27.150000 8.940000 0 0 0
910 30 4 0.06 38.890000 25.730000 8.640000 0 0 0
911 30 4 0.06 38.000000 25.980000 10.200000 0 0 0
912 30 4 0.06 39.680000 25.230000 10.200000 0 0 0
913 30 2 -0.12 39.780000 29.780000 8.180000 0 0 0
914 30 2 -0.12 38.900000 28.680000 8.910000 0 0 0
915 30 4 0.06 40.590000 30.200000 8.780000 0 0 0
916 30 4 0.06 40.390000 29.320000 7.350000 0 0 0
917 30 4 0.06 38.240000 28.240000 8.120000 0 0 0
918 30 4 0.06 38.340000 29.190000 9.670000 0 0 0
919 30 2 -0.12 39.640000 31.440000 6.170000 0 0 0
920 30 2 -0.12 38.960000 30.820000 7.380000 0 0 0
921 30 4 0.06 40.630000 31.760000 6.430000 0 0 0
922 30 4 0.06 39.730000 30.670000 5.390000 0 0 0
923 30 4 0.06 37.980000 30.560000 7.030000 0 0 0
924 30 4 0.06 38.690000 31.660000 8.060000 0 0 0
925 30 2 -0.12 39.010000 33.850000 6.420000 0 0 0
926 30 2 -0.12 39.020000 32.620000 5.580000 0 0 0
927 30 4 0.06 38.770000 33.650000 7.450000 0 0 0
928 30 4 0.06 40.070000 34.030000 6.580000 0 0 0
929 30 4 0.06 39.600000 32.910000 4.720000 0 0 0
930 30 4 0.06 38.020000 32.460000 5.130000 0 0 0
931 30 2 -0.12 38.380000 36.180000 6.970000 0 0 0
932 30 2 -0.12 38.360000 35.150000 5.850000 0 0 0
933 30 4 0.06 37.600000 35.890000 7.680000 0 0 0
934 30 4 0.06 39.370000 36.260000 7.460000 0 0 0
935 30 4 0.06 39.000000 35.470000 5.070000 0 0 0
936 30 4 0.06 37.260000 35.150000 5.570000 0 0 0
937 31 1 0 4.100000 18.200000 14.500000 0 0 0
938 31 2 -0.12 4.450000 17.970000 10.630000 0 0 0
939 31 3 -0.18 5.130000 16.770000 9.970000 0 0 0
940 31 4 0.06 3.480000 18.050000 10.170000 0 0 0
941 31 4 0.06 4.920000 18.850000 10.450000 0 0 0
942 31 4 0.06 4.270000 16.060000 10.020000 0 0 0
943 31 4 0.06 6.080000 16.470000 10.360000 0 0 0
944 31 4 0.06 5.360000 17.060000 9.000000 0 0 0
945 31 2 -0.12 4.100000 17.610000 12.030000 0 0 0
946 31 2 -0.12 3.100000 18.650000 12.720000 0 0 0
947 31 4 0.06 4.990000 17.480000 12.710000 0 0 0
948 31 4 0.06 3.650000 16.580000 12.170000 0 0 0
949 31 4 0.06 2.280000 18.840000 12.020000 0 0 0
950 31 4 0.06 3.710000 19.560000 13.000000 0 0 0
951 31 2 -0.12 2.390000 18.070000 13.960000 0 0 0
952 31 2 -0.12 3.270000 17.680000 15.160000 0 0 0
953 31 4 0.06 1.840000 17.210000 13.710000 0 0 0
954 31 4 0.06 1.770000 18.770000 14.480000 0 0 0
955 31 4 0.06 4.200000 17.220000 14.680000 0 0 0
956 31 4 0.06 2.760000 16.840000 15.730000 0 0 0
957 31 2 -0.12 3.550000 18.800000 16.130000 0 0 0
958 31 2 -0.12 4.520000 18.340000 17.170000 0 0 0
959 31 4 0.06 2.590000 19.100000 16.540000 0 0 0
960 31 4 0.06 3.930000 19.510000 15.500000 0 0 0
961 31 4 0.06 5.320000 17.920000 16.670000 0 0 0
962 31 4 0.06 3.990000 17.640000 17.820000 0 0 0
963 31 2 -0.12 4.840000 19.440000 18.180000 0 0 0
964 31 2 -0.12 5.690000 18.920000 19.400000 0 0 0
965 31 4 0.06 3.850000 19.690000 18.640000 0 0 0
966 31 4 0.06 5.110000 20.370000 17.760000 0 0 0
967 31 4 0.06 6.600000 18.510000 19.200000 0 0 0
968 31 4 0.06 5.180000 18.050000 19.890000 0 0 0
969 32 5 0 6.400000 11.150000 19.620000 0 0 0
970 32 2 -0.12 3.480000 7.200000 18.770000 0 0 0
971 32 2 -0.12 4.560000 6.940000 19.700000 0 0 0
972 32 4 0.06 2.400000 7.240000 19.200000 0 0 0
973 32 4 0.06 3.580000 8.090000 18.160000 0 0 0
974 32 4 0.06 5.330000 6.310000 19.380000 0 0 0
975 32 4 0.06 4.080000 6.170000 20.350000 0 0 0
976 32 2 -0.12 5.100000 8.140000 20.460000 0 0 0
977 32 2 -0.12 5.470000 9.470000 19.630000 0 0 0
978 32 4 0.06 5.930000 7.740000 20.970000 0 0 0
979 32 4 0.06 4.440000 8.360000 21.310000 0 0 0
980 32 4 0.06 4.550000 10.080000 19.340000 0 0 0
981 32 4 0.06 5.860000 9.100000 18.690000 0 0 0
982 32 2 -0.12 6.400000 10.440000 20.300000 0 0 0
983 32 2 -0.12 6.650000 11.560000 19.220000 0 0 0
984 32 4 0.06 7.310000 9.950000 20.570000 0 0 0
985 32 4 0.06 6.010000 10.860000 21.180000 0 0 0
986 32 4 0.06 5.660000 12.030000 19.010000 0 0 0
987 32 4 0.06 7.030000 11.040000 18.330000 0 0 0
988 32 2 -0.12 7.680000 12.590000 19.770000 0 0 0
989 32 2 -0.12 7.500000 13.990000 19.260000 0 0 0
990 32 4 0.06 8.520000 12.050000 19.360000 0 0 0
991 32 4 0.06 7.760000 12.470000 20.800000 0 0 0
992 32 4 0.06 6.490000 14.290000 19.650000 0 0 0
993 32 4 0.06 7.520000 14.030000 18.240000 0 0 0
994 32 2 -0.12 8.410000 15.030000 19.970000 0 0 0
995 32 2 -0.12 8.870000 16.170000 19.110000 0 0 0
996 32 4 0.06 9.250000 14.520000 20.360000 0 0 0
997 32 4 0.06 7.900000 15.490000 20.830000 0 0 0
998 32 4 0.06 8.010000 16.920000 19.130000 0 0 0
999 32 4 0.06 8.890000 15.920000 17.990000 0 0 0
1000 33 5 0 11.710000 9.580000 17.430000 0 0 0
1001 33 2 -0.12 11.800000 4.020000 18.230000 0 0 0
1002 33 2 -0.12 11.520000 5.440000 18.620000 0 0 0
1003 33 4 0.06 12.670000 4.010000 17.540000 0 0 0
1004 33 4 0.06 12.170000 3.390000 19.040000 0 0 0
1005 33 4 0.06 12.230000 5.980000 19.340000 0 0 0
1006 33 4 0.06 10.600000 5.420000 19.220000 0 0 0
1007 33 2 -0.12 11.490000 6.560000 17.490000 0 0 0
1008 33 2 -0.12 10.940000 7.860000 18.030000 0 0 0
1009 33 4 0.06 10.690000 6.430000 16.680000 0 0 0
1010 33 4 0.06 12.500000 6.660000 17.080000 0 0 0
1011 33 4 0.06 11.470000 8.140000 18.990000 0 0 0
1012 33 4 0.06 9.890000 7.670000 18.400000 0 0 0
1013 33 2 -0.12 10.880000 9.010000 17.070000 0 0 0
1014 33 2 -0.12 11.290000 10.270000 17.780000 0 0 0
1015 33 4 0.06 9.940000 9.170000 16.740000 0 0 0
1016 33 4 0.06 11.590000 8.730000 16.210000 0 0 0
1017 33 4 0.06 12.220000 10.000000 18.300000 0 0 0
1018 33 4 0.06 10.650000 10.450000 18.680000 0 0 0
1019 33 2 -0.12 11.550000 11.460000 16.810000 0 0 0
1020 33 2 -0.12 12.100000 12.770000 17.570000 0 0 0
1021 33 4 0.06 10.550000 11.600000 16.330000 0 0 0
1022 33 4 0.06 12.280000 11.180000 16.110000 0 0 0
1023 33 4 0.06 13.090000 12.730000 18.120000 0 0 0
1024 33 4 0.06 11.290000 12.990000 18.390000 0 0 0
1025 33 2 -0.12 12.170000 14.050000 16.770000 0 0 0
1026 33 2 -0.12 13.350000 14.270000 15.840000 0 0 0
1027 33 4 0.06 12.110000 14.920000 17.430000 0 0 0
1028 33 4 0.06 11.210000 14.030000 16.310000 0 0 0
1029 33 4 0.06 13.330000 15.350000 15.580000 0 0 0
1030 33 4 0.06 13.240000 13.670000 14.960000 0 0 0
1031 34 5 0 8.930000 3.220000 24.140000 0 0 0
1032 34 2 -0.12 3.730000 3.000000 24.460000 0 0 0
1033 34 2 -0.12 4.850000 3.340000 23.470000 0 0 0
1034 34 4 0.06 3.690000 1.920000 24.630000 0 0 0
1035 34 4 0.06 4.000000 3.400000 25.480000 0 0 0
1036 34 4 0.06 4.730000 4.400000 23.220000 0 0 0
1037 34 4 0.06 4.620000 2.800000 22.520000 0 0 0
1038 34 2 -0.12 6.270000 2.930000 23.940000 0 0 0
1039 34 2 -0.12 7.470000 3.460000 23.120000 0 0 0
1040 34 4 0.06 6.320000 1.850000 23.900000 0 0 0
1041 34 4 0.06 6.320000 3.020000 25.020000 0 0 0
1042 34 4 0.06 7.500000 4.540000 23.220000 0 0 0
1043 34 4 0.06 7.250000 3.120000 22.100000 0 0 0
1044 34 2 -0.12 8.800000 2.980000 23.640000 0 0 0
1045 34 2 -0.12 9.200000 3.750000 24.900000 0 0 0
1046 34 4 0.06 9.580000 3.160000 22.910000 0 0 0
1047 34 4 0.06 8.900000 1.930000 23.890000 0 0 0
1048 34 4 0.06 8.410000 3.660000 25.520000 0 0 0
1049 34 4 0.06 9.210000 4.750000 24.620000 0 0 0
1050 34 2 -0.12 10.610000 3.350000 25.400000 0 0 0
1051 34 2 -0.12 11.550000 3.220000 24.250000 0 0 0
1052 34 4 0.06 10.570000 2.330000 25.820000 0 0 0
1053 34 4 0.06 11.000000 4.010000 26.120000 0 0 0
1054 34 4 0.06 11.490000 4.100000 23.560000 0 0 0
1055 34 4 0.06 11.430000 2.350000 23.570000 0 0 0
1056 34 2 -0.12 12.960000 3.280000 24.700000 0 0 0
1057 34 2 -0.12 13.870000 2.990000 23.570000 0 0 0
1058 34 4 0.06 12.970000 2.510000 25.520000 0 0 0
1059 34 4 0.06 13.050000 4.250000 25.290000 0 0 0
1060 34 4 0.06 13.560000 3.570000 22.750000 0 0 0
1061 34 4 0.06 13.860000 1.980000 23.220000 0 0 0
1062 35 5 0 11.540000 3.400000 27.270000 0 0 0
1063 35 2 -0.12 8.070000 3.900000 31.120000 0 0 0
1064 35 2 -0.12 8.930000 3.590000 29.930000 0 0 0
1065 35 4 0.06 8.560000 3.420000 31.980000 0 0 0
1066 35 4 0.06 8.250000 4.950000 31.320000 0 0 0
1067 35 4 0.06 9.010000 4.540000 29.390000 0 0 0
1068 35 4 0.06 8.430000 2.970000 29.300000 0 0 0
1069 35 2 -0.12 10.260000 2.930000 30.220000 0 0 0
1070 35 2 -0.12 11.030000 2.650000 28.900000 0 0 0
1071 35 4 0.06 10.010000 1.970000 30.700000 0 0 0
1072 35 4 0.06 10.820000 3.670000 30.810000 0 0 0
1073 35 4 0.06 10.440000 2.340000 28.030000 0 0 0
1074 35 4 0.06 11.580000 1.690000 29.170000 0 0 0
1075 35 2 -0.12 12.100000 3.760000 28.560000 0 0 0
1076 35 2 -0.12 12.990000 3.460000 27.320000 0 0 0
1077 35 4 0.06 12.870000 3.950000 29.370000 0 0 0
1078 35 4 0.06 11.550000 4.730000 28.520000 0 0 0
1079 35 4 0.06 13.280000 2.410000 27.380000 0 0 0
1080 35 4 0.06 13.940000 4.080000 27.410000 0 0 0
1081 35 2 -0.12 12.390000 3.790000 26.020000 0 0 0
1082 35 2 -0.12 13.110000 3.160000 24.810000 0 0 0
1083 35 4 0.06 12.540000 4.830000 25.820000 0 0 0
1084 35 4 0.06 11.380000 3.410000 25.790000 0 0 0
1085 35 4 0.06 12.880000 2.120000 24.940000 0 0 0
1086 35 4 0.06 14.230000 3.170000 24.930000 0 0 0
1087 35 2 -0.12 12.770000 3.700000 23.490000 0 0 0
1088 35 2 -0.12 13.520000 2.970000 22.330000 0 0 0
1089 35 4 0.06 13.170000 4.740000 23.410000 0 0 0
1090 35 4 0.06 11.690000 3.760000 23.190000 0 0 0
1091 35 4 0.06 14.590000 2.570000 22.700000 0 0 0
1092 35 4 0.06 13.750000 3.740000 21.630000 0 0 0
1093 36 5 0 6.190000 7.590000 33.650000 0 0 0
1094 36 2 -0.12 2.120000 9.570000 37.040000 0 0 0
1095 36 2 -0.12 2.690000 9.070000 35.700000 0 0 0
1096 36 4 0.06 1.090000 10.040000 36.870000 0 0 0
1097 36 4 0.06 1.930000 8.680000 37.650000 0 0 0
1098 36 4 0.06 2.650000 9.960000 34.990000 0 0 0
1099 36 4 0.06 2.110000 8.200000 35.210000 0 0 0
1100 36 2 -0.12 4.260000 8.790000 35.700000 0 0 0
1101 36 2 -0.12 4.710000 8.280000 34.350000 0 0 0
1102 36 4 0.06 4.500000 8.050000 36.480000 0 0 0
1103 36 4 0.06 4.780000 9.730000 36.040000 0 0 0
1104 36 4 0.06 4.490000 9.010000 33.540000 0 0 0
1105 36 4 0.06 4.210000 7.390000 34.010000 0 0 0
1106 36 2 -0.12 6.190000 7.840000 34.450000 0 0 0
1107 36 2 -0.12 6.660000 7.700000 33.020000 0 0 0
1108 36 4 0.06 6.220000 6.870000 34.870000 0 0 0
1109 36 4 0.06 6.820000 8.480000 35.060000 0 0 0
1110 36 4 0.06 6.510000 8.680000 32.600000 0 0 0
1111 36 4 0.06 5.930000 7.070000 32.460000 0 0 0
1112 36 2 -0.12 7.890000 6.890000 32.820000 0 0 0
1113 36 2 -0.12 8.410000 7.010000 31.430000 0 0 0
1114 36 4 0.06 7.680000 5.840000 33.100000 0 0 0
1115 36 4 0.06 8.580000 7.150000 33.550000 0 0 0
1116 36 4 0.06 8.610000 8.100000 31.300000 0 0 0
1117 36 4 0.06 7.560000 6.900000 30.740000 0 0 0
1118 36 2 -0.12 9.700000 6.160000 31.180000 0 0 0
1119 36 2 -0.12 9.450000 4.560000 30.900000 0 0 0
1120 36 4 0.06 10.570000 6.470000 31.820000 0 0 0
1121 36 4 0.06 10.130000 6.600000 30.270000 0 0 0
1122 36 4 0.06 8.710000 4.610000 30.090000 0 0 0
1123 36 4 0.06 9.090000 4.060000 31.830000 0 0 0
1124 37 5 0 12.670000 5.660000 43.060000 0 0 0
1125 37 2 -0.12 11.830000 10.490000 44.920000 0 0 0
1126 37 2 -0.12 11.720000 9.010000 44.550000 0 0 0
1127 37 4 0.06 12.660000 10.510000 45.680000 0 0 0
1128 37 4 0.06 12.170000 10.990000 44.070000 0 0 0
1129 37 4 0.06 10.830000 8.940000 43.890000 0 0 0
1130 37 4 0.06 11.460000 8.410000 45.510000 0 0 0
1131 37 2 -0.12 13.000000 8.380000 43.920000 0 0 0
1132 37 2 -0.12 12.840000 7.010000 43.360000 0 0 0
1133 37 4 0.06 13.630000 8.360000 44.800000 0 0 0
1134 37 4 0.06 13.200000 9.020000 43.030000 0 0 0
1135 37 4 0.06 12.020000 7.030000 42.690000 0 0 0
1136 37 4 0.06 12.610000 6.370000 44.210000 0 0 0
1137 37 2 -0.12 14.030000 6.510000 42.590000 0 0 0
1138 37 2 -0.12 13.780000 5.250000 41.700000 0 0 0
1139 37 4 0.06 14.660000 6.320000 43.390000 0 0 0
1140 37 4 0.06 14.620000 7.170000 42.080000 0 0 0
1141 37 4 0.06 14.820000 5.140000 41.250000 0 0 0
1142 37 4 0.06 13.140000 5.550000 40.890000 0 0 0
1143 37 2 -0.12 13.220000 4.030000 42.510000 0 0 0
1144 37 2 -0.12 12.690000 2.850000 41.630000 0 0 0
1145 37 4 0.06 12.400000 4.360000 42.970000 0 0 0
1146 37 4 0.06 13.870000 3.760000 43.330000 0 0 0
1147 37 4 0.06 13.380000 2.720000 40.810000 0 0 0
1148 37 4 0.06 11.800000 3.380000 41.370000 0 0 0
1149 37 2 -0.12 12.340000 1.440000 42.190000 0 0 0
1150 37 2 -0.12 11.170000 1.560000 43.200000 0 0 0
1151 37 4 0.06 13.250000 1.100000 42.600000 0 0 0
1152 37 4 0.06 12.150000 0.730000 41.370000 0 0 0
1153 37 4 0.06 10.550000 2.460000 42.990000 0 0 0
1154 37 4 0.06 11.700000 1.850000 44.140000 0 0 0
1155 38 5 0 19.400000 61.554000 38.660000 0 -1 0
1156 38 2 -0.12 16.580000 3.540000 39.510000 0 0 0
1157 38 2 -0.12 17.090000 2.250000 40.120000 0 0 0
1158 38 4 0.06 16.370000 3.170000 38.560000 0 0 0
1159 38 4 0.06 15.670000 3.930000 40.100000 0 0 0
1160 38 4 0.06 16.280000 1.500000 40.170000 0 0 0
1161 38 4 0.06 17.370000 2.440000 41.100000 0 0 0
1162 38 2 -0.12 18.320000 1.670000 39.390000 0 0 0
1163 38 2 -0.12 18.900000 0.250000 39.650000 0 0 0
1164 38 4 0.06 19.190000 2.240000 39.720000 0 0 0
1165 38 4 0.06 18.190000 1.760000 38.320000 0 0 0
1166 38 4 0.06 18.680000 61.974000 40.660000 0 -1 0
1167 38 4 0.06 19.980000 0.350000 39.410000 0 0 0
1168 38 2 -0.12 18.170000 61.144000 38.880000 0 -1 0
1169 38 2 -0.12 18.890000 59.764000 39.020000 0 -1 0
1170 38 4 0.06 17.890000 61.414000 37.860000 0 -1 0
1171 38 4 0.06 17.180000 61.004000 39.350000 0 -1 0
1172 38 4 0.06 18.300000 58.914000 39.250000 0 -1 0
1173 38 4 0.06 19.570000 59.824000 39.870000 0 -1 0
1174 38 2 -0.12 19.850000 59.464000 37.930000 0 -1 0
1175 38 2 -0.12 21.080000 60.474000 37.810000 0 -1 0
1176 38 4 0.06 19.360000 59.664000 36.940000 0 -1 0
1177 38 4 0.06 20.270000 58.464000 38.150000 0 -1 0
1178 38 4 0.06 21.690000 60.684000 38.790000 0 -1 0
1179 38 4 0.06 20.640000 61.404000 37.430000 0 -1 0
1180 38 2 -0.12 22.080000 59.964000 36.770000 0 -1 0
1181 38 2 -0.12 23.110000 58.984000 37.400000 0 -1 0
1182 38 4 0.06 22.650000 60.684000 36.260000 0 -1 0
1183 38 4 0.06 21.530000 59.334000 36.010000 0 -1 0
1184 38 4 0.06 22.410000 58.344000 37.960000 0 -1 0
1185 38 4 0.06 23.670000 59.514000 38.200000 0 -1 0
1186 39 5 0 17.150000 59.494000 28.340000 0 -1 0
1187 39 2 -0.12 14.080000 1.620000 26.340000 0 0 0
1188 39 2 -0.12 14.790000 0.510000 27.160000 0 0 0
1189 39 4 0.06 14.790000 2.040000 25.660000 0 0 0
1190 39 4 0.06 13.300000 1.180000 25.690000 0 0 0
1191 39 4 0.06 14.110000 0.170000 27.860000 0 0 0
1192 39 4 0.06 15.590000 1.000000 27.700000 0 0 0
1193 39 2 -0.12 15.480000 61.474000 26.310000 0 -1 0
1194 39 2 -0.12 16.690000 60.804000 26.820000 0 -1 0
1195 39 4 0.06 15.670000 61.664000 25.250000 0 -1 0
1196 39 4 0.06 14.720000 60.644000 26.390000 0 -1 0
1197 39 4 0.06 17.340000 61.584000 27.260000 0 -1 0
1198 39 4 0.06 17.120000 60.204000 25.940000 0 -1 0
1199 39 2 -0.12 16.430000 59.764000 27.960000 0 -1 0
1200 39 2 -0.12 17.810000 59.204000 28.170000 0 -1 0
1201 39 4 0.06 15.890000 58.904000 27.690000 0 -1 0
1202 39 4 0.06 16.070000 60.244000 28.780000 0 -1 0
1203 39 4 0.06 18.620000 59.884000 28.470000 0 -1 0
1204 39 4 0.06 18.200000 58.644000 27.300000 0 -1 0
1205 39 2 -0.12 17.770000 58.064000 29.260000 0 -1 0
1206 39 2 -0.12 19.080000 57.404000 29.620000 0 -1 0
1207 39 4 0.06 16.940000 57.404000 28.940000 0 -1 0
1208 39 4 0.06 17.520000 58.574000 30.140000 0 -1 0
1209 39 4 0.06 19.650000 58.144000 30.030000 0 -1 0
1210 39 4 0.06 19.630000 57.174000 28.680000 0 -1 0
1211 39 2 -0.12 18.950000 56.094000 30.610000 0 -1 0
1212 39 2 -0.12 20.430000 55.994000 31.210000 0 -1 0
1213 39 4 0.06 18.670000 55.294000 29.940000 0 -1 0
1214 39 4 0.06 18.100000 56.134000 31.370000 0 -1 0
1215 39 4 0.06 20.450000 56.694000 32.030000 0 -1 0
1216 39 4 0.06 21.170000 56.344000 30.530000 0 -1 0
1217 40 1 0 13.170000 61.704000 19.170000 0 -1 0
1218 40 2 -0.12 13.780000 58.054000 21.270000 0 -1 0
1219 40 3 -0.18 13.120000 56.614000 21.330000 0 -1 0
1220 40 4 0.06 14.170000 58.184000 22.310000 0 -1 0
1221 40 4 0.06 14.710000 57.684000 20.620000 0 -1 0
1222 40 4 0.06 12.980000 56.264000 20.320000 0 -1 0
1223 40 4 0.06 12.090000 56.514000 21.880000 0 -1 0
1224 40 4 0.06 13.770000 55.764000 21.880000 0 -1 0
1225 40 2 -0.12 13.870000 60.314000 19.860000 0 -1 0
1226 40 2 -0.12 12.990000 59.214000 20.590000 0 -1 0
1227 40 4 0.06 14.680000 60.734000 20.460000 0 -1 0
1228 40 4 0.06 14.480000 59.854000 19.030000 0 -1 0
1229 40 4 0.06 12.330000 58.774000 19.800000 0 -1 0
1230 40 4 0.06 12.430000 59.724000 21.350000 0 -1 0
1231 40 2 -0.12 13.730000 61.974000 17.850000 0 -1 0
1232 40 2 -0.12 13.050000 61.354000 19.060000 0 -1 0
1233 40 4 0.06 14.720000 0.290000 18.110000 0 0 0
1234 40 4 0.06 13.820000 61.204000 17.070000 0 -1 0
1235 40 4 0.06 12.070000 61.094000 18.710000 0 -1 0
1236 40 4 0.06 12.780000 0.190000 19.740000 0 0 0
1237 40 2 -0.12 13.100000 2.380000 18.100000 0 0 0
1238 40 2 -0.12 13.110000 1.150000 17.260000 0 0 0
1239 40 4 0.06 12.860000 2.180000 19.130000 0 0 0
1240 40 4 0.06 14.160000 2.560000 18.260000 0 0 0
1241 40 4 0.06 13.690000 1.440000 16.400000 0 0 0
1242 40 4 0.06 12.110000 0.990000 16.810000 0 0 0
1243 40 2 -0.12 12.470000 4.710000 18.650000 0 0 0
1244 40 2 -0.12 12.450000 3.680000 17.530000 0 0 0
1245 40 4 0.06 11.690000 4.420000 19.360000 0 0 0
1246 40 4 0.06 13.460000 4.790000 19.140000 0 0 0
1247 40 4 0.06 13.090000 4.000000 16.750000 0 0 0
1248 40 4 0.06 11.350000 3.680000 17.250000 0 0 0
1249 41 1 0 24.350000 50.180000 57.050000 0 0 0
1250 41 2 -0.12 24.700000 49.950000 53.180000 0 0 0
1251 41 3 -0.18 25.380000 48.750000 52.520000 0 0 0
1252 41 4 0.06 23.730000 50.030000 52.720000 0 0 0
1253 41 4 0.06 25.170000 50.830000 53.000000 0 0 0
1254 41 4 0.06 24.520000 48.040000 52.570000 0 0 0
1255 41 4 0.06 26.330000 48.450000 52.910000 0 0 0
1256 41 4 0.06 25.610000 49.040000 51.550000 0 0 0
1257 41 2 -0.12 24.350000 49.590000 54.580000 0 0 0
1258 41 2 -0.12 23.350000 50.630000 55.270000 0 0 0
1259 41 4 0.06 25.240000 49.460000 55.260000 0 0 0
1260 41 4 0.06 23.900000 48.560000 54.720000 0 0 0
1261 41 4 0.06 22.530000 50.820000 54.570000 0 0 0
1262 41 4 0.06 23.960000 51.540000 55.550000 0 0 0
1263 41 2 -0.12 22.640000 50.050000 56.510000 0 0 0
1264 41 2 -0.12 23.520000 49.660000 57.710000 0 0 0
1265 41 4 0.06 22.090000 49.190000 56.260000 0 0 0
1266 41 4 0.06 22.020000 50.750000 57.030000 0 0 0
1267 41 4 0.06 24.450000 49.200000 57.230000 0 0 0
1268 41 4 0.06 23.010000 48.820000 58.280000 0 0 0
1269 41 2 -0.12 23.800000 50.780000 58.680000 0 0 0
1270 41 2 -0.12 24.770000 50.320000 59.720000 0 0 0
1271 41 4 0.06 22.840000 51.080000 59.090000 0 0 0
1272 41 4 0.06 24.180000 51.490000 58.050000 0 0 0
1273 41 4 0.06 25.570000 49.900000 59.220000 0 0 0
1274 41 4 0.06 24.240000 49.620000 60.370000 0 0 0
1275 41 2 -0.12 25.090000 51.420000 60.730000 0 0 0
1276 41 2 -0.12 25.940000 50.900000 61.950000 0 0 0
1277 41 4 0.06 24.100000 51.670000 61.190000 0 0 0
1278 41 4 0.06 25.360000 52.350000 60.310000 0 0 0
1279 41 4 0.06 26.850000 50.490000 61.750000 0 0 0
1280 41 4 0.06 25.430000 50.030000 0.436000 0 0 1
1281 42 5 0 26.410000 55.930000 52.590000 0 0 0
1282 42 2 -0.12 23.490000 51.980000 51.740000 0 0 0
1283 42 2 -0.12 24.570000 51.720000 52.670000 0 0 0
1284 42 4 0.06 22.410000 52.020000 52.170000 0 0 0
1285 42 4 0.06 23.590000 52.870000 51.130000 0 0 0
1286 42 4 0.06 25.340000 51.090000 52.350000 0 0 0
1287 42 4 0.06 24.090000 50.950000 53.320000 0 0 0
1288 42 2 -0.12 25.110000 52.920000 53.430000 0 0 0
1289 42 2 -0.12 25.480000 54.250000 52.600000 0 0 0
1290 42 4 0.06 25.940000 52.520000 53.940000 0 0 0
1291 42 4 0.06 24.450000 53.140000 54.280000 0 0 0
1292 42 4 0.06 24.560000 54.860000 52.310000 0 0 0
1293 42 4 0.06 25.870000 53.880000 51.660000 0 0 0
1294 42 2 -0.12 26.410000 55.220000 53.270000 0 0 0
1295 42 2 -0.12 26.660000 56.340000 52.190000 0 0 0
1296 42 4 0.06 27.320000 54.730000 53.540000 0 0 0
1297 42 4 0.06 26.020000 55.640000 54.150000 0 0 0
1298 42 4 0.06 25.670000 56.810000 51.980000 0 0 0
1299 42 4 0.06 27.040000 55.820000 51.300000 0 0 0
1300 42 2 -0.12 27.690000 57.370000 52.740000 0 0 0
1301 42 2 -0.12 27.510000 58.770000 52.230000 0 0 0
1302 42 4 0.06 28.530000 56.830000 52.330000 0 0 0
1303 42 4 0.06 27.770000 57.250000 53.770000 0 0 0
1304 42 4 0.06 26.500000 59.070000 52.620000 0 0 0
1305 42 4 0.06 27.530000 58.810000 51.210000 0 0 0
1306 42 2 -0.12 28.420000 59.810000 52.940000 0 0 0
1307 42 2 -0.12 28.880000 60.950000 52.080000 0 0 0
1308 42 4 0.06 29.260000 59.300000 53.330000 0 0 0
1309 42 4 0.06 27.910000 60.270000 53.800000 0 0 0
1310 42 4 0.06 28.020000 61.700000 52.100000 0 0 0
1311 42 4 0.06 28.900000 60.700000 50.960000 0 0 0
1312 43 5 0 18.640000 0.636000 48.110000 0 1 0
1313 43 2 -0.12 18.730000 57.080000 48.910000 0 0 0
1314 43 2 -0.12 18.450000 58.500000 49.300000 0 0 0
1315 43 4 0.06 19.600000 57.070000 48.220000 0 0 0
1316 43 4 0.06 19.100000 56.450000 49.720000 0 0 0
1317 43 4 0.06 19.160000 59.040000 50.020000 0 0 0
1318 43 4 0.06 17.530000 58.480000 49.900000 0 0 0
1319 43 2 -0.12 18.420000 59.620000 48.170000 0 0 0
1320 43 2 -0.12 17.870000 60.920000 48.710000 0 0 0
1321 43 4 0.06 17.620000 59.490000 47.360000 0 0 0
1322 43 4 0.06 19.430000 59.720000 47.760000 0 0 0
1323 43 4 0.06 18.400000 61.200000 49.670000 0 0 0
1324 43 4 0.06 16.820000 60.730000 49.080000 0 0 0
1325 43 2 -0.12 17.810000 0.066000 47.750000 0 1 0
1326 43 2 -0.12 18.220000 1.326000 48.460000 0 1 0
1327 43 4 0.06 16.870000 0.226000 47.420000 0 1 0
1328 43 4 0.06 18.520000 61.790000 46.890000 0 0 0
1329 43 4 0.06 19.150000 1.056000 48.980000 0 1 0
1330 43 4 0.06 17.580000 1.506000 49.360000 0 1 0
1331 43 2 -0.12 18.480000 2.516000 47.490000 0 1 0
1332 43 2 -0.12 19.030000 3.826000 48.250000 0 1 0
1333 43 4 0.06 17.480000 2.656000 47.010000 0 1 0
1334 43 4 0.06 19.210000 2.236000 46.790000 0 1 0
1335 43 4 0.06 20.020000 3.786000 48.800000 0 1 0
1336 43 4 0.06 18.220000 4.046000 49.070000 0 1 0
1337 43 2 -0.12 19.100000 5.106000 47.450000 0 1 0
1338 43 2 -0.12 20.280000 5.326000 46.520000 0 1 0
1339 43 4 0.06 19.040000 5.976000 48.110000 0 1 0
1340 43 4 0.06 18.140000 5.086000 46.990000 0 1 0
1341 43 4 0.06 20.260000 6.406000 46.260000 0 1 0
1342 43 4 0.06 20.170000 4.726000 45.640000 0 1 0
1343 44 5 0 8.870000 1.306000 43.240000 0 1 0
1344 44 2 -0.12 3.670000 1.086000 43.560000 0 1 0
1345 44 2 -0.12 4.790000 1.426000 42.570000 0 1 0
1346 44 4 0.06 3.630000 0.006000 43.730000 0 1 0
1347 44 4 0.06 3.940000 1.486000 44.580000 0 1 0
1348 44 4 0.06 4.670000 2.486000 42.320000 0 1 0
1349 44 4 0.06 4.560000 0.886000 41.620000 0 1 0
1350 44 2 -0.12 6.210000 1.016000 43.040000 0 1 0
1351 44 2 -0.12 7.410000 1.546000 42.220000 0 1 0
1352 44 4 0.06 6.260000 61.940000 43.000000 0 0 0
1353 44 4 0.06 6.260000 1.106000 44.120000 0 1 0
1354 44 4 0.06 7.440000 2.626000 42.320000 0 1 0
1355 44 4 0.06 7.190000 1.206000 41.200000 0 1 0
1356 44 2 -0.12 8.740000 1.066000 42.740000 0 1 0
1357 44 2 -0.12 9.140000 1.836000 44.000000 0 1 0
1358 44 4 0.06 9.520000 1.246000 42.010000 0 1 0
1359 44 4 0.06 8.840000 0.016000 42.990000 0 1 0
1360 44 4 0.06 8.350000 1.746000 44.620000 0 1 0
1361 44 4 0.06 9.150000 2.836000 43.720000 0 1 0
1362 44 2 -0.12 10.550000 1.436000 44.500000 0 1 0
1363 44 2 -0.12 11.490000 1.306000 43.350000 0 1 0
1364 44 4 0.06 10.510000 0.416000 44.920000 0 1 0
1365 44 4 0.06 10.940000 2.096000 45.220000 0 1 0
1366 44 4 0.06 11.430000 2.186000 42.660000 0 1 0
1367 44 4 0.06 11.370000 0.436000 42.670000 0 1 0
1368 44 2 -0.12 12.900000 1.366000 43.800000 0 1 0
1369 44 2 -0.12 13.810000 1.076000 42.670000 0 1 0
1370 44 4 0.06 12.910000 0.596000 44.620000 0 1 0
1371 44 4 0.06 12.990000 2.336000 44.390000 0 1 0
1372 44 4 0.06 13.500000 1.656000 41.850000 0 1 0
1373 44 4 0.06 13.800000 0.066000 42.320000 0 1 0
1374 45 5 0 0.930000 8.016000 42.330000 0 1 0
1375 45 2 -0.12 59.464000 8.516000 46.180000 -1 1 0
1376 45 2 -0.12 60.324000 8.206000 44.990000 -1 1 0
1377 45 4 0.06 59.954000 8.036000 47.040000 -1 1 0
1378 45 4 0.06 59.644000 9.566000 46.380000 -1 1 0
1379 45 4 0.06 60.404000 9.156000 44.450000 -1 1 0
1380 45 4 0.06 59.824000 7.586000 44.360000 -1 1 0
1381 45 2 -0.12 61.654000 7.546000 45.280000 -1 1 0
1382 45 2 -0.12 0.420000 7.266000 43.960000 0 1 0
1383 45 4 0.06 61.404000 6.586000 45.760000 -1 1 0
1384 45 4 0.06 0.210000 8.286000 45.870000 0 1 0
1385 45 4 0.06 61.834000 6.956000 43.090000 -1 1 0
1386 45 4 0.06 0.970000 6.306000 44.230000 0 1 0
1387 45 2 -0.12 1.490000 8.376000 43.620000 0 1 0
1388 45 2 -0.12 2.380000 8.076000 42.380000 0 1 0
1389 45 4 0.06 2.260000 8.566000 44.430000 0 1 0
1390 45 4 0.06 0.940000 9.346000 43.580000 0 1 0
1391 45 4 0.06 2.670000 7.026000 42.440000 0 1 0
1392 45 4 0.06 3.330000 8.696000 42.470000 0 1 0
1393 45 2 -0.12 1.780000 8.406000 41.080000 0 1 0
1394 45 2 -0.12 2.500000 7.776000 39.870000 0 1 0
1395 45 4 0.06 1.930000 9.446000 40.880000 0 1 0
1396 45 4 0.06 0.770000 8.026000 40.850000 0 1 0
1397 45 4 0.06 2.270000 6.736000 40.000000 0 1 0
1398 45 4 0.06 3.620000 7.786000 39.990000 0 1 0
1399 45 2 -0.12 2.160000 8.316000 38.550000 0 1 0
1400 45 2 -0.12 2.910000 7.586000 37.390000 0 1 0
1401 45 4 0.06 2.560000 9.356000 38.470000 0 1 0
1402 45 4 0.06 1.080000 8.376000 38.250000 0 1 0
1403 45 4 0.06 3.980000 7.186000 37.760000 0 1 0
1404 45 4 0.06 3.140000 8.356000 36.690000 0 1 0
1405 46 5 0 1.120000 5.506000 30.510000 0 1 0
1406 46 2 -0.12 59.054000 7.486000 33.900000 -1 1 0
1407 46 2 -0.12 59.624000 6.986000 32.560000 -1 1 0
1408 46 4 0.06 58.024000 7.956000 33.730000 -1 1 0
1409 46 4 0.06 58.864000 6.596000 34.510000 -1 1 0
1410 46 4 0.06 59.584000 7.876000 31.850000 -1 1 0
1411 46 4 0.06 59.044000 6.116000 32.070000 -1 1 0
1412 46 2 -0.12 61.194000 6.706000 32.560000 -1 1 0
1413 46 2 -0.12 61.644000 6.196000 31.210000 -1 1 0
1414 46 4 0.06 61.434000 5.966000 33.340000 -1 1 0
1415 46 4 0.06 61.714000 7.646000 32.900000 -1 1 0
1416 46 4 0.06 61.424000 6.926000 30.400000 -1 1 0
1417 46 4 0.06 61.144000 5.306000 30.870000 -1 1 0
1418 46 2 -0.12 1.120000 5.756000 31.310000 0 1 0
1419 46 2 -0.12 1.590000 5.616000 29.880000 0 1 0
1420 46 4 0.06 1.150000 4.786000 31.730000 0 1 0
1421 46 4 0.06 1.750000 6.396000 31.920000 0 1 0
1422 46 4 0.06 1.440000 6.596000 29.460000 0 1 0
1423 46 4 0.06 0.860000 4.986000 29.320000 0 1 0
1424 46 2 -0.12 2.820000 4.806000 29.680000 0 1 0
1425 46 2 -0.12 3.340000 4.926000 28.290000 0 1 0
1426 46 4 0.06 2.610000 3.756000 29.960000 0 1 0
1427 46 4 0.06 3.510000 5.066000 30.410000 0 1 0
1428 46 4 0.06 3.540000 6.016000 28.160000 0 1 0
1429 46 4 0.06 2.490000 4.816000 27.600000 0 1 0
1430 46 2 -0.12 4.630000 4.076000 28.040000 0 1 0
1431 46 2 -0.12 4.380000 2.476000 27.760000 0 1 0
1432 46 4 0.06 5.500000 4.386000 28.680000 0 1 0
1433 46 4 0.06 5.060000 4.516000 27.130000 0 1 0
1434 46 4 0.06 3.640000 2.526000 26.950000 0 1 0
1435 46 4 0.06 4.020000 1.976000 28.690000 0 1 0
1436 47 5 0 59.424000 6.406000 27.830000 -1 1 0
1437 47 2 -0.12 58.584000 11.236000 29.690000 -1 1 0
1438 47 2 -0.12 58.474000 9.756000 29.320000 -1 1 0
1439 47 4 0.06 59.414000 11.256000 30.450000 -1 1 0
1440 47 4 0.06 58.924000 11.736000 28.840000 -1 1 0
1441 47 4 0.06 57.584000 9.686000 28.660000 -1 1 0
1442 47 4 0.06 58.214000 9.156000 30.280000 -1 1 0
1443 47 2 -0.12 59.754000 9.126000 28.690000 -1 1 0
1444 47 2 -0.12 59.594000 7.756000 28.130000 -1 1 0
1445 47 4 0.06 60.384000 9.106000 29.570000 -1 1 0
1446 47 4 0.06 59.954000 9.766000 27.800000 -1 1 0
1447 47 4 0.06 58.774000 7.776000 27.460000 -1 1 0
1448 47 4 0.06 59.364000 7.116000 28.980000 -1 1 0
1449 47 2 -0.12 60.784000 7.256000 27.360000 -1 1 0
1450 47 2 -0.12 60.534000 5.996000 26.470000 -1 1 0
1451 47 4 0.06 61.414000 7.066000 28.160000 -1 1 0
1452 47 4 0.06 61.374000 7.916000 26.850000 -1 1 0
1453 47 4 0.06 61.574000 5.886000 26.020000 -1 1 0
1454 47 4 0.06 59.894000 6.296000 25.660000 -1 1 0
1455 47 2 -0.12 59.974000 4.776000 27.280000 -1 1 0
1456 47 2 -0.12 59.444000 3.596000 26.400000 -1 1 0
1457 47 4 0.06 59.154000 5.106000 27.740000 -1 1 0
1458 47 4 0.06 60.624000 4.506000 28.100000 -1 1 0
1459 47 4 0.06 60.134000 3.466000 25.580000 -1 1 0
1460 47 4 0.06 58.554000 4.126000 26.140000 -1 1 0
1461 47 2 -0.12 59.094000 2.186000 26.960000 -1 1 0
1462 47 2 -0.12 57.924000 2.306000 27.970000 -1 1 0
1463 47 4 0.06 60.004000 1.846000 27.370000 -1 1 0
1464 47 4 0.06 58.904000 1.476000 26.140000 -1 1 0
1465 47 4 0.06 57.304000 3.206000 27.760000 -1 1 0
1466 47 4 0.06 58.454000 2.596000 28.910000 -1 1 0
1467 48 5 0 56.004000 5.096000 28.830000 -1 1 0
1468 48 2 -0.12 53.184000 9.086000 29.680000 -1 1 0
1469 48 2 -0.12 53.694000 7.796000 30.290000 -1 1 0
1470 48 4 0.06 52.974000 8.716000 28.730000 -1 1 0
1471 48 4 0.06 52.274000 9.476000 30.270000 -1 1 0
1472 48 4 0.06 52.884000 7.046000 30.340000 -1 1 0
1473 48 4 0.06 53.974000 7.986000 31.270000 -1 1 0
1474 48 2 -0.12 54.924000 7.216000 29.560000 -1 1 0
1475 48 2 -0.12 55.504000 5.796000 29.820000 -1 1 0
1476 48 4 0.06 55.794000 7.786000 29.890000 -1 1 0
1477 48 4 0.06 54.794000 7.306000 28.490000 -1 1 0
1478 48 4 0.06 55.284000 5.516000 30.830000 -1 1 0
1479 48 4 0.06 56.584000 5.896000 29.580000 -1 1 0
1480 48 2 -0.12 54.774000 4.686000 29.050000 -1 1 0
1481 48 2 -0.12 55.494000 3.306000 29.190000 -1 1 0
1482 48 4 0.06 54.494000 4.956000 28.030000 -1 1 0
1483 48 4 0.06 53.784000 4.546000 29.520000 -1 1 0
1484 48 4 0.06 54.904000 2.456000 29.420000 -1 1 0
1485 48 4 0.06 56.174000 3.366000 30.040000 -1 1 0
1486 48 2 -0.12 56.454000 3.006000 28.100000 -1 1 0
1487 48 2 -0.12 57.684000 4.016000 27.980000 -1 1 0
1488 48 4 0.06 55.964000 3.206000 27.110000 -1 1 0
1489 48 4 0.06 56.874000 2.006000 28.320000 -1 1 0
1490 48 4 0.06 58.294000 4.226000 28.960000 -1 1 0
1491 48 4 0.06 57.244000 4.946000 27.600000 -1 1 0
1492 48 2 -0.12 58.684000 3.506000 26.940000 -1 1 0
1493 48 2 -0.12 59.714000 2.526000 27.570000 -1 1 0
1494 48 4 0.06 59.254000 4.226000 26.430000 -1 1 0
1495 48 4 0.06 58.134000 2.876000 26.180000 -1 1 0
1496 48 4 0.06 59.014000 1.886000 28.130000 -1 1 0
1497 48 4 0.06 60.274000 3.056000 28.370000 -1 1 0
1498 49 5 0 1.040000 8.036000 21.490000 0 1 0
1499 49 2 -0.12 59.974000 12.166000 19.490000 -1 1 0
1500 49 2 -0.12 60.684000 11.056000 20.310000 -1 1 0
1501 49 4 0.06 60.684000 12.586000 18.810000 -1 1 0
1502 49 4 0.06 59.194000 11.726000 18.840000 -1 1 0
1503 49 4 0.06 60.004000 10.716000 21.010000 -1 1 0
1504 49 4 0.06 61.484000 11.546000 20.850000 -1 1 0
1505 49 2 -0.12 61.374000 10.016000 19.460000 -1 1 0
1506 49 2 -0.12 0.580000 9.346000 19.970000 0 1 0
1507 49 4 0.06 61.564000 10.206000 18.400000 -1 1 0
1508 49 4 0.06 60.614000 9.186000 19.540000 -1 1 0
1509 49 4 0.06 1.230000 10.126000 20.410000 0 1 0
1510 49 4 0.06 1.010000 8.746000 19.090000 0 1 0
1511 49 2 -0.12 0.320000 8.306000 21.110000 0 1 0
1512 49 2 -0.12 1.700000 7.746000 21.320000 0 1 0
1513 49 4 0.06 61.784000 7.446000 20.840000 -1 1 0
1514 49 4 0.06 61.964000 8.786000 21.930000 -1 1 0
1515 49 4 0.06 2.510000 8.426000 21.620000 0 1 0
1516 49 4 0.06 2.090000 7.186000 20.450000 0 1 0
1517 49 2 -0.12 1.660000 6.606000 22.410000 0 1 0
1518 49 2 -0.12 2.970000 5.946000 22.770000 0 1 0
1519 49 4 0.06 0.830000 5.946000 22.090000 0 1 0
1520 49 4 0.06 1.410000 7.116000 23.290000 0 1 0
1521 49 4 0.06 3.540000 6.686000 23.180000 0 1 0
1522 49 4 0.06 3.520000 5.716000 21.830000 0 1 0
1523 49 2 -0.12 2.840000 4.636000 23.760000 0 1 0
1524 49 2 -0.12 4.320000 4.536000 24.360000 0 1 0
1525 49 4 0.06 2.560000 3.836000 23.090000 0 1 0
1526 49 4 0.06 1.990000 4.676000 24.520000 0 1 0
1527 49 4 0.06 4.340000 5.236000 25.180000 0 1 0
1528 49 4 0.06 5.060000 4.886000 23.680000 0 1 0
1529 50 1 0 9.020000 12.676000 27.160000 0 1 0
1530 50 2 -0.12 9.630000 9.026000 29.260000 0 1 0
1531 50 3 -0.18 8.970000 7.586000 29.320000 0 1 0
1532 50 4 0.06 10.020000 9.156000 30.300000 0 1 0
1533 50 4 0.06 10.560000 8.656000 28.610000 0 1 0
1534 50 4 0.06 8.830000 7.236000 28.310000 0 1 0
1535 50 4 0.06 7.940000 7.486000 29.870000 0 1 0
1536 50 4 0.06 9.620000 6.736000 29.870000 0 1 0
1537 50 2 -0.12 9.720000 11.286000 27.850000 0 1 0
1538 50 2 -0.12 8.840000 10.186000 28.580000 0 1 0
1539 50 4 0.06 10.530000 11.706000 28.450000 0 1 0
1540 50 4 0.06 10.330000 10.826000 27.020000 0 1 0
1541 50 4 0.06 8.180000 9.746000 27.790000 0 1 0
1542 50 4 0.06 8.280000 10.696000 29.340000 0 1 0
1543 50 2 -0.12 9.580000 12.946000 25.840000 0 1 0
1544 50 2 -0.12 8.900000 12.326000 27.050000 0 1 0
1545 50 4 0.06 10.570000 13.266000 26.100000 0 1 0
1546 50 4 0.06 9.670000 12.176000 25.060000 0 1 0
1547 50 4 0.06 7.920000 12.066000 26.700000 0 1 0
1548 50 4 0.06 8.630000 13.166000 27.730000 0 1 0
1549 50 2 -0.12 8.950000 15.356000 26.090000 0 1 0
1550 50 2 -0.12 8.960000 14.126000 25.250000 0 1 0
1551 50 4 0.06 8.710000 15.156000 27.120000 0 1 0
1552 50 4 0.06 10.010000 15.536000 26.250000 0 1 0
1553 50 4 0.06 9.540000 14.416000 24.390000 0 1 0
1554 50 4 0.06 7.960000 13.966000 24.800000 0 1 0
1555 50 2 -0.12 8.320000 17.686000 26.640000 0 1 0
1556 50 2 -0.12 8.300000 16.656000 25.520000 0 1 0
1557 50 4 0.06 7.540000 17.396000 27.350000 0 1 0
1558 50 4 0.06 9.310000 17.766000 27.130000 0 1 0
1559 50 4 0.06 8.940000 16.976000 24.740000 0 1 0
1560 50 4 0.06 7.200000 16.656000 25.240000 0 1 0
1561 51 1 0 45.770000 58.330000 10.860000 0 0 0
1562 51 2 -0.12 46.120000 58.100000 6.990000 0 0 0
1563 51 3 -0.18 46.800000 56.900000 6.330000 0 0 0
1564 51 4 0.06 45.150000 58.180000 6.530000 0 0 0
1565 51 4 0.06 46.590000 58.980000 6.810000 0 0 0
1566 51 4 0.06 45.940000 56.190000 6.380000 0 0 0
1567 51 4 0.06 47.750000 56.600000 6.720000 0 0 0
1568 51 4 0.06 47.030000 57.190000 5.360000 0 0 0
1569 51 2 -0.12 45.770000 57.740000 8.390000 0 0 0
1570 51 2 -0.12 44.770000 58.780000 9.080000 0 0 0
1571 51 4 0.06 46.660000 57.610000 9.070000 0 0 0
1572 51 4 0.06 45.320000 56.710000 8.530000 0 0 0
1573 51 4 0.06 43.950000 58.970000 8.380000 0 0 0
1574 51 4 0.06 45.380000 59.690000 9.360000 0 0 0
1575 51 2 -0.12 44.060000 58.200000 10.320000 0 0 0
1576 51 2 -0.12 44.940000 57.810000 11.520000 0 0 0
1577 51 4 0.06 43.510000 57.340000 10.070000 0 0 0
1578 51 4 0.06 43.440000 58.900000 10.840000 0 0 0
1579 51 4 0.06 45.870000 57.350000 11.040000 0 0 0
1580 51 4 0.06 44.430000 56.970000 12.090000 0 0 0
1581 51 2 -0.12 45.220000 58.930000 12.490000 0 0 0
1582 51 2 -0.12 46.190000 58.470000 13.530000 0 0 0
1583 51 4 0.06 44.260000 59.230000 12.900000 0 0 0
1584 51 4 0.06 45.600000 59.640000 11.860000 0 0 0
1585 51 4 0.06 46.990000 58.050000 13.030000 0 0 0
1586 51 4 0.06 45.660000 57.770000 14.180000 0 0 0
1587 51 2 -0.12 46.510000 59.570000 14.540000 0 0 0
1588 51 2 -0.12 47.360000 59.050000 15.760000 0 0 0
1589 51 4 0.06 45.520000 59.820000 15.000000 0 0 0
1590 51 4 0.06 46.780000 60.500000 14.120000 0 0 0
1591 51 4 0.06 48.270000 58.640000 15.560000 0 0 0
1592 51 4 0.06 46.850000 58.180000 16.250000 0 0 0
1593 52 5 0 40.340000 58.250000 20.550000 0 0 0
1594 52 2 -0.12 37.420000 54.300000 19.700000 0 0 0
1595 52 2 -0.12 38.500000 54.040000 20.630000 0 0 0
1596 52 4 0.06 36.340000 54.340000 20.130000 0 0 0
1597 52 4 0.06 37.520000 55.190000 19.090000 0 0 0
1598 52 4 0.06 39.270000 53.410000 20.310000 0 0 0
1599 52 4 0.06 38.020000 53.270000 21.280000 0 0 0
1600 52 2 -0.12 39.040000 55.240000 21.390000 0 0 0
1601 52 2 -0.12 39.410000 56.570000 20.560000 0 0 0
1602 52 4 0.06 39.870000 54.840000 21.900000 0 0 0
1603 52 4 0.06 38.380000 55.460000 22.240000 0 0 0
1604 52 4 0.06 38.490000 57.180000 20.270000 0 0 0
1605 52 4 0.06 39.800000 56.200000 19.620000 0 0 0
1606 52 2 -0.12 40.340000 57.540000 21.230000 0 0 0
1607 52 2 -0.12 40.590000 58.660000 20.150000 0 0 0
1608 52 4 0.06 41.250000 57.050000 21.500000 0 0 0
1609 52 4 0.06 39.950000 57.960000 22.110000 0 0 0
1610 52 4 0.06 39.600000 59.130000 19.940000 0 0 0
1611 52 4 0.06 40.970000 58.140000 19.260000 0 0 0
1612 52 2 -0.12 41.620000 59.690000 20.700000 0 0 0
1613 52 2 -0.12 41.440000 61.090000 20.190000 0 0 0
1614 52 4 0.06 42.460000 59.150000 20.290000 0 0 0
1615 52 4 0.06 41.700000 59.570000 21.730000 0 0 0
1616 52 4 0.06 40.430000 61.390000 20.580000 0 0 0
1617 52 4 0.06 41.460000 61.130000 19.170000 0 0 0
1618 52 2 -0.12 42.350000 0.126000 20.900000 0 1 0
1619 52 2 -0.12 42.810000 1.266000 20.040000 0 1 0
1620 52 4 0.06 43.190000 61.620000 21.290000 0 0 0
1621 52 4 0.06 41.840000 0.586000 21.760000 0 1 0
1622 52 4 0.06 41.950000 2.016000 20.060000 0 1 0
1623 52 4 0.06 42.830000 1.016000 18.920000 0 1 0
1624 53 5 0 39.050000 55.970000 15.770000 0 0 0
1625 53 2 -0.12 39.140000 50.410000 16.570000 0 0 0
1626 53 2 -0.12 38.860000 51.830000 16.960000 0 0 0
1627 53 4 0.06 40.010000 50.400000 15.880000 0 0 0
1628 53 4 0.06 39.510000 49.780000 17.380000 0 0 0
1629 53 4 0.06 39.570000 52.370000 17.680000 0 0 0
1630 53 4 0.06 37.940000 51.810000 17.560000 0 0 0
1631 53 2 -0.12 38.830000 52.950000 15.830000 0 0 0
1632 53 2 -0.12 38.280000 54.250000 16.370000 0 0 0
1633 53 4 0.06 38.030000 52.820000 15.020000 0 0 0
1634 53 4 0.06 39.840000 53.050000 15.420000 0 0 0
1635 53 4 0.06 38.810000 54.530000 17.330000 0 0 0
1636 53 4 0.06 37.230000 54.060000 16.740000 0 0 0
1637 53 2 -0.12 38.220000 55.400000 15.410000 0 0 0
1638 53 2 -0.12 38.630000 56.660000 16.120000 0 0 0
1639 53 4 0.06 37.280000 55.560000 15.080000 0 0 0
1640 53 4 0.06 38.930000 55.120000 14.550000 0 0 0
1641 53 4 0.06 39.560000 56.390000 16.640000 0 0 0
1642 53 4 0.06 37.990000 56.840000 17.020000 0 0 0
1643 53 2 -0.12 38.890000 57.850000 15.150000 0 0 0
1644 53 2 -0.12 39.440000 59.160000 15.910000 0 0 0
1645 53 4 0.06 37.890000 57.990000 14.670000 0 0 0
1646 53 4 0.06 39.620000 57.570000 14.450000 0 0 0
1647 53 4 0.06 40.430000 59.120000 16.460000 0 0 0
1648 53 4 0.06 38.630000 59.380000 16.730000 0 0 0
1649 53 2 -0.12 39.510000 60.440000 15.110000 0 0 0
1650 53 2 -0.12 40.690000 60.660000 14.180000 0 0 0
1651 53 4 0.06 39.450000 61.310000 15.770000 0 0 0
1652 53 4 0.06 38.550000 60.420000 14.650000 0 0 0
1653 53 4 0.06 40.670000 61.740000 13.920000 0 0 0
1654 53 4 0.06 40.580000 60.060000 13.300000 0 0 0
1655 54 5 0 31.190000 50.300000 11.340000 0 0 0
1656 54 2 -0.12 25.990000 50.080000 11.660000 0 0 0
1657 54 2 -0.12 27.110000 50.420000 10.670000 0 0 0
1658 54 4 0.06 25.950000 49.000000 11.830000 0 0 0
1659 54 4 0.06 26.260000 50.480000 12.680000 0 0 0
1660 54 4 0.06 26.990000 51.480000 10.420000 0 0 0
1661 54 4 0.06 26.880000 49.880000 9.720000 0 0 0
1662 54 2 -0.12 28.530000 50.010000 11.140000 0 0 0
1663 54 2 -0.12 29.730000 50.540000 10.320000 0 0 0
1664 54 4 0.06 28.580000 48.930000 11.100000 0 0 0
1665 54 4 0.06 28.580000 50.100000 12.220000 0 0 0
1666 54 4 0.06 29.760000 51.620000 10.420000 0 0 0
1667 54 4 0.06 29.510000 50.200000 9.300000 0 0 0
1668 54 2 -0.12 31.060000 50.060000 10.840000 0 0 0
1669 54 2 -0.12 31.460000 50.830000 12.100000 0 0 0
1670 54 4 0.06 31.840000 50.240000 10.110000 0 0 0
1671 54 4 0.06 31.160000 49.010000 11.090000 0 0 0
1672 54 4 0.06 30.670000 50.740000 12.720000 0 0 0
1673 54 4 0.06 31.470000 51.830000 11.820000 0 0 0
1674 54 2 -0.12 32.870000 50.430000 12.600000 0 0 0
1675 54 2 -0.12 33.810000 50.300000 11.450000 0 0 0
1676 54 4 0.06 32.830000 49.410000 13.020000 0 0 0
1677 54 4 0.06 33.260000 51.090000 13.320000 0 0 0
1678 54 4 0.06 33.750000 51.180000 10.760000 0 0 0
1679 54 4 0.06 33.690000 49.430000 10.770000 0 0 0
1680 54 2 -0.12 35.220000 50.360000 11.900000 0 0 0
1681 54 2 -0.12 36.130000 50.070000 10.770000 0 0 0
1682 54 4 0.06 35.230000 49.590000 12.720000 0 0 0
1683 54 4 0.06 35.310000 51.330000 12.490000 0 0 0
1684 54 4 0.06 35.820000 50.650000 9.950000 0 0 0
1685 54 4 0.06 36.120000 49.060000 10.420000 0 0 0
1686 55 5 0 39.610000 42.460000 10.610000 0 0 0
1687 55 2 -0.12 36.140000 42.960000 14.460000 0 0 0
1688 55 2 -0.12 37.000000 42.650000 13.270000 0 0 0
1689 55 4 0.06 36.630000 42.480000 15.320000 0 0 0
1690 55 4 0.06 36.320000 44.010000 14.660000 0 0 0
1691 55 4 0.06 37.080000 43.600000 12.730000 0 0 0
1692 55 4 0.06 36.500000 42.030000 12.640000 0 0 0
1693 55 2 -0.12 38.330000 41.990000 13.560000 0 0 0
1694 55 2 -0.12 39.100000 41.710000 12.240000 0 0 0
1695 55 4 0.06 38.080000 41.030000 14.040000 0 0 0
1696 55 4 0.06 38.890000 42.730000 14.150000 0 0 0
1697 55 4 0.06 38.510000 41.400000 11.370000 0 0 0
1698 55 4 0.06 39.650000 40.750000 12.510000 0 0 0
1699 55 2 -0.12 40.170000 42.820000 11.900000 0 0 0
1700 55 2 -0.12 41.060000 42.520000 10.660000 0 0 0
1701 55 4 0.06 40.940000 43.010000 12.710000 0 0 0
1702 55 4 0.06 39.620000 43.790000 11.860000 0 0 0
1703 55 4 0.06 41.350000 41.470000 10.720000 0 0 0
1704 55 4 0.06 42.010000 43.140000 10.750000 0 0 0
1705 55 2 -0.12 40.460000 42.850000 9.360000 0 0 0
1706 55 2 -0.12 41.180000 42.220000 8.150000 0 0 0
1707 55 4 0.06 40.610000 43.890000 9.160000 0 0 0
1708 55 4 0.06 39.450000 42.470000 9.130000 0 0 0
1709 55 4 0.06 40.950000 41.180000 8.280000 0 0 0
1710 55 4 0.06 42.300000 42.230000 8.270000 0 0 0
1711 55 2 -0.12 40.840000 42.760000 6.830000 0 0 0
1712 55 2 -0.12 41.590000 42.030000 5.670000 0 0 0
1713 55 4 0.06 41.240000 43.800000 6.750000 0 0 0
1714 55 4 0.06 39.760000 42.820000 6.530000 0 0 0
1715 55 4 0.06 42.660000 41.630000 6.040000 0 0 0
1716 55 4 0.06 41.820000 42.800000 4.970000 0 0 0
1717 56 5 0 40.230000 48.110000 20.920000 0 0 0
1718 56 2 -0.12 36.160000 50.090000 24.310000 0 0 0
1719 56 2 -0.12 36.730000 49.590000 22.970000 0 0 0
1720 56 4 0.06 35.130000 50.560000 24.140000 0 0 0
1721 56 4 0.06 35.970000 49.200000 24.920000 0 0 0
1722 56 4 0.06 36.690000 50.480000 22.260000 0 0 0
1723 56 4 0.06 36.150000 48.720000 22.480000 0 0 0
1724 56 2 -0.12 38.300000 49.310000 22.970000 0 0 0
1725 56 2 -0.12 38.750000 48.800000 21.620000 0 0 0
1726 56 4 0.06 38.540000 48.570000 23.750000 0 0 0
1727 56 4 0.06 38.820000 50.250000 23.310000 0 0 0
1728 56 4 0.06 38.530000 49.530000 20.810000 0 0 0
1729 56 4 0.06 38.250000 47.910000 21.280000 0 0 0
1730 56 2 -0.12 40.230000 48.360000 21.720000 0 0 0
1731 56 2 -0.12 40.700000 48.220000 20.290000 0 0 0
1732 56 4 0.06 40.260000 47.390000 22.140000 0 0 0
1733 56 4 0.06 40.860000 49.000000 22.330000 0 0 0
1734 56 4 0.06 40.550000 49.200000 19.870000 0 0 0
1735 56 4 0.06 39.970000 47.590000 19.730000 0 0 0
1736 56 2 -0.12 41.930000 47.410000 20.090000 0 0 0
1737 56 2 -0.12 42.450000 47.530000 18.700000 0 0 0
1738 56 4 0.06 41.720000 46.360000 20.370000 0 0 0
1739 56 4 0.06 42.620000 47.670000 20.820000 0 0 0
1740 56 4 0.06 42.650000 48.620000 18.570000 0 0 0
1741 56 4 0.06 41.600000 47.420000 18.010000 0 0 0
1742 56 2 -0.12 43.740000 46.680000 18.450000 0 0 0
1743 56 2 -0.12 43.490000 45.080000 18.170000 0 0 0
1744 56 4 0.06 44.610000 46.990000 19.090000 0 0 0
1745 56 4 0.06 44.170000 47.120000 17.540000 0 0 0
1746 56 4 0.06 42.750000 45.130000 17.360000 0 0 0
1747 56 4 0.06 43.130000 44.580000 19.100000 0 0 0
1748 57 5 0 49.060000 43.650000 20.590000 0 0 0
1749 57 2 -0.12 48.220000 48.480000 22.450000 0 0 0
1750 57 2 -0.12 48.110000 47.000000 22.080000 0 0 0
1751 57 4 0.06 49.050000 48.500000 23.210000 0 0 0
1752 57 4 0.06 48.560000 48.980000 21.600000 0 0 0
1753 57 4 0.06 47.220000 46.930000 21.420000 0 0 0
1754 57 4 0.06 47.850000 46.400000 23.040000 0 0 0
1755 57 2 -0.12 49.390000 46.370000 21.450000 0 0 0
1756 57 2 -0.12 49.230000 45.000000 20.890000 0 0 0
1757 57 4 0.06 50.020000 46.350000 22.330000 0 0 0
1758 57 4 0.06 49.590000 47.010000 20.560000 0 0 0
1759 57 4 0.06 48.410000 45.020000 20.220000 0 0 0
1760 57 4 0.06 49.000000 44.360000 21.740000 0 0 0
1761 57 2 -0.12 50.420000 44.500000 20.120000 0 0 0
1762 57 2 -0.12 50.170000 43.240000 19.230000 0 0 0
1763 57 4 0.06 51.050000 44.310000 20.920000 0 0 0
1764 57 4 0.06 51.010000 45.160000 19.610000 0 0 0
1765 57 4 0.06 51.210000 43.130000 18.780000 0 0 0
1766 57 4 0.06 49.530000 43.540000 18.420000 0 0 0
1767 57 2 -0.12 49.610000 42.020000 20.040000 0 0 0
1768 57 2 -0.12 49.080000 40.840000 19.160000 0 0 0
1769 57 4 0.06 48.790000 42.350000 20.500000 0 0 0
1770 57 4 0.06 50.260000 41.750000 20.860000 0 0 0
1771 57 4 0.06 49.770000 40.710000 18.340000 0 0 0
1772 57 4 0.06 48.190000 41.370000 18.900000 0 0 0
1773 57 2 -0.12 48.730000 39.430000 19.720000 0 0 0
1774 57 2 -0.12 47.560000 39.550000 20.730000 0 0 0
1775 57 4 0.06 49.640000 39.090000 20.130000 0 0 0
1776 57 4 0.06 48.540000 38.720000 18.900000 0 0 0
1777 57 4 0.06 46.940000 40.450000 20.520000 0 0 0
1778 57 4 0.06 48.090000 39.840000 21.670000 0 0 0
1779 58 5 0 49.190000 43.870000 31.420000 0 0 0
1780 58 2 -0.12 46.370000 47.860000 32.270000 0 0 0
1781 58 2 -0.12 46.880000 46.570000 32.880000 0 0 0
1782 58 4 0.06 46.160000 47.490000 31.320000 0 0 0
1783 58 4 0.06 45.460000 48.250000 32.860000 0 0 0
1784 58 4 0.06 46.070000 45.820000 32.930000 0 0 0
1785 58 4 0.06 47.160000 46.760000 33.860000 0 0 0
1786 58 2 -0.12 48.110000 45.990000 32.150000 0 0 0
1787 58 2 -0.12 48.690000 44.570000 32.410000 0 0 0
1788 58 4 0.06 48.980000 46.560000 32.480000 0 0 0
1789 58 4 0.06 47.980000 46.080000 31.080000 0 0 0
1790 58 4 0.06 48.470000 44.290000 33.420000 0 0 0
1791 58 4 0.06 49.770000 44.670000 32.170000 0 0 0
1792 58 2 -0.12 47.960000 43.460000 31.640000 0 0 0
1793 58 2 -0.12 48.680000 42.080000 31.780000 0 0 0
1794 58 4 0.06 47.680000 43.730000 30.620000 0 0 0
1795 58 4 0.06 46.970000 43.320000 32.110000 0 0 0
1796 58 4 0.06 48.090000 41.230000 32.010000 0 0 0
1797 58 4 0.06 49.360000 42.140000 32.630000 0 0 0
1798 58 2 -0.12 49.640000 41.780000 30.690000 0 0 0
1799 58 2 -0.12 50.870000 42.790000 30.570000 0 0 0
1800 58 4 0.06 49.150000 41.980000 29.700000 0 0 0
1801 58 4 0.06 50.060000 40.780000 30.910000 0 0 0
1802 58 4 0.06 51.480000 43.000000 31.550000 0 0 0
1803 58 4 0.06 50.430000 43.720000 30.190000 0 0 0
1804 58 2 -0.12 51.870000 42.280000 29.530000 0 0 0
1805 58 2 -0.12 52.900000 41.300000 30.160000 0 0 0
1806 58 4 0.06 52.440000 43.000000 29.020000 0 0 0
1807 58 4 0.06 51.320000 41.650000 28.770000 0 0 0
1808 58 4 0.06 52.200000 40.660000 30.720000 0 0 0
1809 58 4 0.06 53.460000 41.830000 30.960000 0 0 0
1810 59 5 0 40.730000 39.150000 36.320000 0 0 0
1811 59 2 -0.12 37.660000 43.280000 34.320000 0 0 0
1812 59 2 -0.12 38.370000 42.170000 35.140000 0 0 0
1813 59 4 0.06 38.370000 43.700000 33.640000 0 0 0
1814 59 4 0.06 36.880000 42.840000 33.670000 0 0 0
1815 59 4 0.06 37.690000 41.830000 35.840000 0 0 0
1816 59 4 0.06 39.170000 42.660000 35.680000 0 0 0
1817 59 2 -0.12 39.060000 41.130000 34.290000 0 0 0
1818 59 2 -0.12 40.270000 40.460000 34.800000 0 0 0
1819 59 4 0.06 39.250000 41.320000 33.230000 0 0 0
1820 59 4 0.06 38.300000 40.300000 34.370000 0 0 0
1821 59 4 0.06 40.920000 41.240000 35.240000 0 0 0
1822 59 4 0.06 40.700000 39.860000 33.920000 0 0 0
1823 59 2 -0.12 40.010000 39.420000 35.940000 0 0 0
1824 59 2 -0.12 41.390000 38.860000 36.150000 0 0 0
1825 59 4 0.06 39.470000 38.560000 35.670000 0 0 0
1826 59 4 0.06 39.650000 39.900000 36.760000 0 0 0
1827 59 4 0.06 42.200000 39.540000 36.450000 0 0 0
1828 59 4 0.06 41.780000 38.300000 35.280000 0 0 0
1829 59 2 -0.12 41.350000 37.720000 37.240000 0 0 0
1830 59 2 -0.12 42.660000 37.060000 37.600000 0 0 0
1831 59 4 0.06 40.520000 37.060000 36.920000 0 0 0
1832 59 4 0.06 41.100000 38.230000 38.120000 0 0 0
1833 59 4 0.06 43.230000 37.800000 38.010000 0 0 0
1834 59 4 0.06 43.210000 36.830000 36.660000 0 0 0
1835 59 2 -0.12 42.530000 35.750000 38.590000 0 0 0
1836 59 2 -0.12 44.010000 35.650000 39.190000 0 0 0
1837 59 4 0.06 42.250000 34.950000 37.920000 0 0 0
1838 59 4 0.06 41.680000 35.790000 39.350000 0 0 0
1839 59 4 0.06 44.030000 36.350000 40.010000 0 0 0
1840 59 4 0.06 44.750000 36.000000 38.510000 0 0 0
1841 60 1 0 41.750000 33.540000 39.100000 0 0 0
1842 60 2 -0.12 42.360000 29.890000 41.200000 0 0 0
1843 60 3 -0.18 41.700000 28.450000 41.260000 0 0 0
1844 60 4 0.06 42.750000 30.020000 42.240000 0 0 0
1845 60 4 0.06 43.290000 29.520000 40.550000 0 0 0
1846 60 4 0.06 41.560000 28.100000 40.250000 0 0 0
1847 60 4 0.06 40.670000 28.350000 41.810000 0 0 0
1848 60 4 0.06 42.350000 27.600000 41.810000 0 0 0
1849 60 2 -0.12 42.450000 32.150000 39.790000 0 0 0
1850 60 2 -0.12 41.570000 31.050000 40.520000 0 0 0
1851 60 4 0.06 43.260000 32.570000 40.390000 0 0 0
1852 60 4 0.06 43.060000 31.690000 38.960000 0 0 0
1853 60 4 0.06 40.910000 30.610000 39.730000 0 0 0
1854 60 4 0.06 41.010000 31.560000 41.280000 0 0 0
1855 60 2 -0.12 42.310000 33.810000 37.780000 0 0 0
1856 60 2 -0.12 41.630000 33.190000 38.990000 0 0 0
1857 60 4 0.06 43.300000 34.130000 38.040000 0 0 0
1858 60 4 0.06 42.400000 33.040000 37.000000 0 0 0
1859 60 4 0.06 40.650000 32.930000 38.640000 0 0 0
1860 60 4 0.06 41.360000 34.030000 39.670000 0 0 0
1861 60 2 -0.12 41.680000 36.220000 38.030000 0 0 0
1862 60 2 -0.12 41.690000 34.990000 37.190000 0 0 0
1863 60 4 0.06 41.440000 36.020000 39.060000 0 0 0
1864 60 4 0.06 42.740000 36.400000 38.190000 0 0 0
1865 60 4 0.06 42.270000 35.280000 36.330000 0 0 0
1866 60 4 0.06 40.690000 34.830000 36.740000 0 0 0
1867 60 2 -0.12 41.050000 38.550000 38.580000 0 0 0
1868 60 2 -0.12 41.030000 37.520000 37.460000 0 0 0
1869 60 4 0.06 40.270000 38.260000 39.290000 0 0 0
1870 60 4 0.06 42.040000 38.630000 39.070000 0 0 0
1871 60 4 0.06 41.670000 37.840000 36.680000 0 0 0
1872 60 4 0.06 39.930000 37.520000 37.180000 0 0 0
1873 61 1 0 23.690000 12.070000 2.020000 0 0 0
1874 61 2 -0.12 24.040000 11.840000 60.154000 0 0 -1
1875 61 3 -0.18 24.720000 10.640000 59.494000 0 0 -1
1876 61 4 0.06 23.070000 11.920000 59.694000 0 0 -1
1877 61 4 0.06 24.510000 12.720000 59.974000 0 0 -1
1878 61 4 0.06 23.860000 9.930000 59.544000 0 0 -1
1879 61 4 0.06 25.670000 10.340000 59.884000 0 0 -1
1880 61 4 0.06 24.950000 10.930000 58.524000 0 0 -1
1881 61 2 -0.12 23.690000 11.480000 61.554000 0 0 -1
1882 61 2 -0.12 22.690000 12.520000 0.240000 0 0 0
1883 61 4 0.06 24.580000 11.350000 0.230000 0 0 0
1884 61 4 0.06 23.240000 10.450000 61.694000 0 0 -1
1885 61 4 0.06 21.870000 12.710000 61.544000 0 0 -1
1886 61 4 0.06 23.300000 13.430000 0.520000 0 0 0
1887 61 2 -0.12 21.980000 11.940000 1.480000 0 0 0
1888 61 2 -0.12 22.860000 11.550000 2.680000 0 0 0
1889 61 4 0.06 21.430000 11.080000 1.230000 0 0 0
1890 61 4 0.06 21.360000 12.640000 2.000000 0 0 0
1891 61 4 0.06 23.790000 11.090000 2.200000 0 0 0
1892 61 4 0.06 22.350000 10.710000 3.250000 0 0 0
1893 61 2 -0.12 23.140000 12.670000 3.650000 0 0 0
1894 61 2 -0.12 24.110000 12.210000 4.690000 0 0 0
1895 61 4 0.06 22.180000 12.970000 4.060000 0 0 0
1896 61 4 0.06 23.520000 13.380000 3.020000 0 0 0
1897 61 4 0.06 24.910000 11.790000 4.190000 0 0 0
1898 61 4 0.06 23.580000 11.510000 5.340000 0 0 0
1899 61 2 -0.12 24.430000 13.310000 5.700000 0 0 0
1900 61 2 -0.12 25.280000 12.790000 6.920000 0 0 0
1901 61 4 0.06 23.440000 13.560000 6.160000 0 0 0
1902 61 4 0.06 24.700000 14.240000 5.280000 0 0 0
1903 61 4 0.06 26.190000 12.380000 6.720000 0 0 0
1904 61 4 0.06 24.770000 11.920000 7.410000 0 0 0
1905 62 5 0 20.400000 6.510000 5.470000 0 0 0
1906 62 2 -0.12 17.480000 2.560000 4.620000 0 0 0
1907 62 2 -0.12 18.560000 2.300000 5.550000 0 0 0
1908 62 4 0.06 16.400000 2.600000 5.050000 0 0 0
1909 62 4 0.06 17.580000 3.450000 4.010000 0 0 0
1910 62 4 0.06 19.330000 1.670000 5.230000 0 0 0
1911 62 4 0.06 18.080000 1.530000 6.200000 0 0 0
1912 62 2 -0.12 19.100000 3.500000 6.310000 0 0 0
1913 62 2 -0.12 19.470000 4.830000 5.480000 0 0 0
1914 62 4 0.06 19.930000 3.100000 6.820000 0 0 0
1915 62 4 0.06 18.440000 3.720000 7.160000 0 0 0
1916 62 4 0.06 18.550000 5.440000 5.190000 0 0 0
1917 62 4 0.06 19.860000 4.460000 4.540000 0 0 0
1918 62 2 -0.12 20.400000 5.800000 6.150000 0 0 0
1919 62 2 -0.12 20.650000 6.920000 5.070000 0 0 0
1920 62 4 0.06 21.310000 5.310000 6.420000 0 0 0
1921 62 4 0.06 20.010000 6.220000 7.030000 0 0 0
1922 62 4 0.06 19.660000 7.390000 4.860000 0 0 0
1923 62 4 0.06 21.030000 6.400000 4.180000 0 0 0
1924 62 2 -0.12 21.680000 7.950000 5.620000 0 0 0
1925 62 2 -0.12 21.500000 9.350000 5.110000 0 0 0
1926 62 4 0.06 22.520000 7.410000 5.210000 0 0 0
1927 62 4 0.06 21.760000 7.830000 6.650000 0 0 0
1928 62 4 0.06 20.490000 9.650000 5.500000 0 0 0
1929 62 4 0.06 21.520000 9.390000 4.090000 0 0 0
1930 62 2 -0.12 22.410000 10.390000 5.820000 0 0 0
1931 62 2 -0.12 22.870000 11.530000 4.960000 0 0 0
1932 62 4 0.06 23.250000 9.880000 6.210000 0 0 0
1933 62 4 0.06 21.900000 10.850000 6.680000 0 0 0
1934 62 4 0.06 22.010000 12.280000 4.980000 0 0 0
1935 62 4 0.06 22.890000 11.280000 3.840000 0 0 0
1936 63 5 0 21.190000 3.070000 58.084000 0 0 -1
1937 63 2 -0.12 21.280000 59.514000 58.884000 0 -1 -1
1938 63 2 -0.12 21.000000 60.934000 59.274000 0 -1 -1
1939 63 4 0.06 22.150000 59.504000 58.194000 0 -1 -1
1940 63 4 0.06 21.650000 58.884000 59.694000 0 -1 -1
1941 63 4 0.06 21.710000 61.474000 59.994000 0 -1 -1
1942 63 4 0.06 20.080000 60.914000 59.874000 0 -1 -1
1943 63 2 -0.12 20.970000 0.050000 58.144000 0 0 -1
1944 63 2 -0.12 20.420000 1.350000 58.684000 0 0 -1
1945 63 4 0.06 20.170000 61.924000 57.334000 0 -1 -1
1946 63 4 0.06 21.980000 0.150000 57.734000 0 0 -1
1947 63 4 0.06 20.950000 1.630000 59.644000 0 0 -1
1948 63 4 0.06 19.370000 1.160000 59.054000 0 0 -1
1949 63 2 -0.12 20.360000 2.500000 57.724000 0 0 -1
1950 63 2 -0.12 20.770000 3.760000 58.434000 0 0 -1
1951 63 4 0.06 19.420000 2.660000 57.394000 0 0 -1
1952 63 4 0.06 21.070000 2.220000 56.864000 0 0 -1
1953 63 4 0.06 21.700000 3.490000 58.954000 0 0 -1
1954 63 4 0.06 20.130000 3.940000 59.334000 0 0 -1
1955 63 2 -0.12 21.030000 4.950000 57.464000 0 0 -1
1956 63 2 -0.12 21.580000 6.260000 58.224000 0 0 -1
1957 63 4 0.06 20.030000 5.090000 56.984000 0 0 -1
1958 63 4 0.06 21.760000 4.670000 56.764000 0 0 -1
1959 63 4 0.06 22.570000 6.220000 58.774000 0 0 -1
1960 63 4 0.06 20.770000 6.480000 59.044000 0 0 -1
1961 63 2 -0.12 21.650000 7.540000 57.424000 0 0 -1
1962 63 2 -0.12 22.830000 7.760000 56.494000 0 0 -1
1963 63 4 0.06 21.590000 8.410000 58.084000 0 0 -1
1964 63 4 0.06 20.690000 7.520000 56.964000 0 0 -1
1965 63 4 0.06 22.810000 8.840000 56.234000 0 0 -1
1966 63 4 0.06 22.720000 7.160000 55.614000 0 0 -1
1967 64 5 0 17.050000 12.900000 59.334000 0 0 -1
1968 64 2 -0.12 11.850000 12.680000 59.654000 0 0 -1
1969 64 2 -0.12 12.970000 13.020000 58.664000 0 0 -1
1970 64 4 0.06 11.810000 11.600000 59.824000 0 0 -1
1971 64 4 0.06 12.120000 13.080000 60.674000 0 0 -1
1972 64 4 0.06 12.850000 14.080000 58.414000 0 0 -1
1973 64 4 0.06 12.740000 12.480000 57.714000 0 0 -1
1974 64 2 -0.12 14.390000 12.610000 59.134000 0 0 -1
1975 64 2 -0.12 15.590000 13.140000 58.314000 0 0 -1
1976 64 4 0.06 14.440000 11.530000 59.094000 0 0 -1
1977 64 4 0.06 14.440000 12.700000 60.214000 0 0 -1
1978 64 4 0.06 15.620000 14.220000 58.414000 0 0 -1
1979 64 4 0.06 15.370000 12.800000 57.294000 0 0 -1
1980 64 2 -0.12 16.920000 12.660000 58.834000 0 0 -1
1981 64 2 -0.12 17.320000 13.430000 60.094000 0 0 -1
1982 64 4 0.06 17.700000 12.840000 58.104000 0 0 -1
1983 64 4 0.06 17.020000 11.610000 59.084000 0 0 -1
1984 64 4 0.06 16.530000 13.340000 60.714000 0 0 -1
1985 64 4 0.06 17.330000 14.430000 59.814000 0 0 -1
1986 64 2 -0.12 18.730000 13.030000 60.594000 0 0 -1
1987 64 2 -0.12 19.670000 12.900000 59.444000 0 0 -1
1988 64 4 0.06 18.690000 12.010000 61.014000 0 0 -1
1989 64 4 0.06 19.120000 13.690000 61.314000 0 0 -1
1990 64 4 0.06 19.610000 13.780000 58.754000 0 0 -1
1991 64 4 0.06 19.550000 12.030000 58.764000 0 0 -1
1992 64 2 -0.12 21.080000 12.960000 59.894000 0 0 -1
1993 64 2 -0.12 21.990000 12.670000 58.764000 0 0 -1
1994 64 4 0.06 21.090000 12.190000 60.714000 0 0 -1
1995 64 4 0.06 21.170000 13.930000 60.484000 0 0 -1
1996 64 4 0.06 21.680000 13.250000 57.944000 0 0 -1
1997 64 4 0.06 21.980000 11.660000 58.414000 0 0 -1
1998 65 5 0 26.350000 7.250000 4.110000 0 0 0
1999 65 2 -0.12 22.880000 7.750000 7.960000 0 0 0
2000 65 2 -0.12 23.740000 7.440000 6.770000 0 0 0
2001 65 4 0.06 23.370000 7.270000 8.820000 0 0 0
2002 65 4 0.06 23.060000 8.800000 8.160000 0 0 0
2003 65 4 0.06 23.820000 8.390000 6.230000 0 0 0
2004 65 4 0.06 23.240000 6.820000 6.140000 0 0 0
2005 65 2 -0.12 25.070000 6.780000 7.060000 0 0 0
2006 65 2 -0.12 25.840000 6.500000 5.740000 0 0 0
2007 65 4 0.06 24.820000 5.820000 7.540000 0 0 0
2008 65 4 0.06 25.630000 7.520000 7.650000 0 0 0
2009 65 4 0.06 25.250000 6.190000 4.870000 0 0 0
2010 65 4 0.06 26.390000 5.540000 6.010000 0 0 0
2011 65 2 -0.12 26.910000 7.610000 5.400000 0 0 0
2012 65 2 -0.12 27.800000 7.310000 4.160000 0 0 0
2013 65 4 0.06 27.680000 7.800000 6.210000 0 0 0
2014 65 4 0.06 26.360000 8.580000 5.360000 0 0 0
2015 65 4 0.06 28.090000 6.260000 4.220000 0 0 0
2016 65 4 0.06 28.750000 7.930000 4.250000 0 0 0
2017 65 2 -0.12 27.200000 7.640000 2.860000 0 0 0
2018 65 2 -0.12 27.920000 7.010000 1.650000 0 0 0
2019 65 4 0.06 27.350000 8.680000 2.660000 0 0 0
2020 65 4 0.06 26.190000 7.260000 2.630000 0 0 0
2021 65 4 0.06 27.690000 5.970000 1.780000 0 0 0
2022 65 4 0.06 29.040000 7.020000 1.770000 0 0 0
2023 65 2 -0.12 27.580000 7.550000 0.330000 0 0 0
2024 65 2 -0.12 28.330000 6.820000 61.174000 0 0 -1
2025 65 4 0.06 27.980000 8.590000 0.250000 0 0 0
2026 65 4 0.06 26.500000 7.610000 0.030000 0 0 0
2027 65 4 0.06 29.400000 6.420000 61.544000 0 0 -1
2028 65 4 0.06 28.560000 7.590000 60.474000 0 0 -1
2029 66 5 0 19.240000 8.350000 12.980000 0 0 0
2030 66 2 -0.12 15.170000 10.330000 16.370000 0 0 0
2031 66 2 -0.12 15.740000 9.830000 15.030000 0 0 0
2032 66 4 0.06 14.140000 10.800000 16.200000 0 0 0
2033 66 4 0.06 14.980000 9.440000 16.980000 0 0 0
2034 66 4 0.06 15.700000 10.720000 14.320000 0 0 0
2035 66 4 0.06 15.160000 8.960000 14.540000 0 0 0
2036 66 2 -0.12 17.310000 9.550000 15.030000 0 0 0
2037 66 2 -0.12 17.760000 9.040000 13.680000 0 0 0
2038 66 4 0.06 17.550000 8.810000 15.810000 0 0 0
2039 66 4 0.06 17.830000 10.490000 15.370000 0 0 0
2040 66 4 0.06 17.540000 9.770000 12.870000 0 0 0
2041 66 4 0.06 17.260000 8.150000 13.340000 0 0 0
2042 66 2 -0.12 19.240000 8.600000 13.780000 0 0 0
2043 66 2 -0.12 19.710000 8.460000 12.350000 0 0 0
2044 66 4 0.06 19.270000 7.630000 14.200000 0 0 0
2045 66 4 0.06 19.870000 9.240000 14.390000 0 0 0
2046 66 4 0.06 19.560000 9.440000 11.930000 0 0 0
2047 66 4 0.06 18.980000 7.830000 11.790000 0 0 0
2048 66 2 -0.12 20.940000 7.650000 12.150000 0 0 0
2049 66 2 -0.12 21.460000 7.770000 10.760000 0 0 0
2050 66 4 0.06 20.730000 6.600000 12.430000 0 0 0
2051 66 4 0.06 21.630000 7.910000 12.880000 0 0 0
2052 66 4 0.06 21.660000 8.860000 10.630000 0 0 0
2053 66 4 0.06 20.610000 7.660000 10.070000 0 0 0
2054 66 2 -0.12 22.750000 6.920000 10.510000 0 0 0
2055 66 2 -0.12 22.500000 5.320000 10.230000 0 0 0
2056 66 4 0.06 23.620000 7.230000 11.150000 0 0 0
2057 66 4 0.06 23.180000 7.360000 9.600000 0 0 0
2058 66 4 0.06 21.760000 5.370000 9.420000 0 0 0
2059 66 4 0.06 22.140000 4.820000 11.160000 0 0 0
2060 67 5 0 27.560000 3.880000 16.500000 0 0 0
2061 67 2 -0.12 26.720000 8.710000 18.360000 0 0 0
2062 67 2 -0.12 26.610000 7.230000 17.990000 0 0 0
2063 67 4 0.06 27.550000 8.730000 19.120000 0 0 0
2064 67 4 0.06 27.060000 9.210000 17.510000 0 0 0
2065 67 4 0.06 25.720000 7.160000 17.330000 0 0 0
2066 67 4 0.06 26.350000 6.630000 18.950000 0 0 0
2067 67 2 -0.12 27.890000 6.600000 17.360000 0 0 0
2068 67 2 -0.12 27.730000 5.230000 16.800000 0 0 0
2069 67 4 0.06 28.520000 6.580000 18.240000 0 0 0
2070 67 4 0.06 28.090000 7.240000 16.470000 0 0 0
2071 67 4 0.06 26.910000 5.250000 16.130000 0 0 0
2072 67 4 0.06 27.500000 4.590000 17.650000 0 0 0
2073 67 2 -0.12 28.920000 4.730000 16.030000 0 0 0
2074 67 2 -0.12 28.670000 3.470000 15.140000 0 0 0
2075 67 4 0.06 29.550000 4.540000 16.830000 0 0 0
2076 67 4 0.06 29.510000 5.390000 15.520000 0 0 0
2077 67 4 0.06 29.710000 3.360000 14.690000 0 0 0
2078 67 4 0.06 28.030000 3.770000 14.330000 0 0 0
2079 67 2 -0.12 28.110000 2.250000 15.950000 0 0 0
2080 67 2 -0.12 27.580000 1.070000 15.070000 0 0 0
2081 67 4 0.06 27.290000 2.580000 16.410000 0 0 0
2082 67 4 0.06 28.760000 1.980000 16.770000 0 0 0
2083 67 4 0.06 28.270000 0.940000 14.250000 0 0 0
2084 67 4 0.06 26.690000 1.600000 14.810000 0 0 0
2085 67 2 -0.12 27.230000 61.664000 15.630000 0 -1 0
2086 67 2 -0.12 26.060000 61.784000 16.640000 0 -1 0
2087 67 4 0.06 28.140000 61.324000 16.040000 0 -1 0
2088 67 4 0.06 27.040000 60.954000 14.810000 0 -1 0
2089 67 4 0.06 25.440000 0.680000 16.430000 0 0 0
2090 67 4 0.06 26.590000 0.070000 17.580000 0 0 0
2091 68 5 0 32.170000 5.260000 5.870000 0 0 0
2092 68 2 -0.12 29.350000 9.250000 6.720000 0 0 0
2093 68 2 -0.12 29.860000 7.960000 7.330000 0 0 0
2094 68 4 0.06 29.140000 8.880000 5.770000 0 0 0
2095 68 4 0.06 28.440000 9.640000 7.310000 0 0 0
2096 68 4 0.06 29.050000 7.210000 7.380000 0 0 0
2097 68 4 0.06 30.140000 8.150000 8.310000 0 0 0
2098 68 2 -0.12 31.090000 7.380000 6.600000 0 0 0
2099 68 2 -0.12 31.670000 5.960000 6.860000 0 0 0
2100 68 4 0.06 31.960000 7.950000 6.930000 0 0 0
2101 68 4 0.06 30.960000 7.470000 5.530000 0 0 0
2102 68 4 0.06 31.450000 5.680000 7.870000 0 0 0
2103 68 4 0.06 32.750000 6.060000 6.620000 0 0 0
2104 68 2 -0.12 30.940000 4.850000 6.090000 0 0 0
2105 68 2 -0.12 31.660000 3.470000 6.230000 0 0 0
2106 68 4 0.06 30.660000 5.120000 5.070000 0 0 0
2107 68 4 0.06 29.950000 4.710000 6.560000 0 0 0
2108 68 4 0.06 31.070000 2.620000 6.460000 0 0 0
2109 68 4 0.06 32.340000 3.530000 7.080000 0 0 0
2110 68 2 -0.12 32.620000 3.170000 5.140000 0 0 0
2111 68 2 -0.12 33.850000 4.180000 5.020000 0 0 0
2112 68 4 0.06 32.130000 3.370000 4.150000 0 0 0
2113 68 4 0.06 33.040000 2.170000 5.360000 0 0 0
2114 68 4 0.06 34.460000 4.390000 6.000000 0 0 0
2115 68 4 0.06 33.410000 5.110000 4.640000 0 0 0
2116 68 2 -0.12 34.850000 3.670000 3.980000 0 0 0
2117 68 2 -0.12 35.880000 2.690000 4.610000 0 0 0
2118 68 4 0.06 35.420000 4.390000 3.470000 0 0 0
2119 68 4 0.06 34.300000 3.040000 3.220000 0 0 0
2120 68 4 0.06 35.180000 2.050000 5.170000 0 0 0
2121 68 4 0.06 36.440000 3.220000 5.410000 0 0 0
2122 69 5 0 30.960000 58.824000 11.230000 0 -1 0
2123 69 2 -0.12 27.890000 0.950000 9.230000 0 0 0
2124 69 2 -0.12 28.600000 61.844000 10.050000 0 -1 0
2125 69 4 0.06 28.600000 1.370000 8.550000 0 0 0
2126 69 4 0.06 27.110000 0.510000 8.580000 0 0 0
2127 69 4 0.06 27.920000 61.504000 10.750000 0 -1 0
2128 69 4 0.06 29.400000 0.330000 10.590000 0 0 0
2129 69 2 -0.12 29.290000 60.804000 9.200000 0 -1 0
2130 69 2 -0.12 30.500000 60.134000 9.710000 0 -1 0
2131 69 4 0.06 29.480000 60.994000 8.140000 0 -1 0
2132 69 4 0.06 28.530000 59.974000 9.280000 0 -1 0
2133 69 4 0.06 31.150000 60.914000 10.150000 0 -1 0
2134 69 4 0.06 30.930000 59.534000 8.830000 0 -1 0
2135 69 2 -0.12 30.240000 59.094000 10.850000 0 -1 0
2136 69 2 -0.12 31.620000 58.534000 11.060000 0 -1 0
2137 69 4 0.06 29.700000 58.234000 10.580000 0 -1 0
2138 69 4 0.06 29.880000 59.574000 11.670000 0 -1 0
2139 69 4 0.06 32.430000 59.214000 11.360000 0 -1 0
2140 69 4 0.06 32.010000 57.974000 10.190000 0 -1 0
2141 69 2 -0.12 31.580000 57.394000 12.150000 0 -1 0
2142 69 2 -0.12 32.890000 56.734000 12.510000 0 -1 0
2143 69 4 0.06 30.750000 56.734000 11.830000 0 -1 0
2144 69 4 0.06 31.330000 57.904000 13.030000 0 -1 0
2145 69 4 0.06 33.460000 57.474000 12.920000 0 -1 0
2146 69 4 0.06 33.440000 56.504000 11.570000 0 -1 0
2147 69 2 -0.12 32.760000 55.424000 13.500000 0 -1 0
2148 69 2 -0.12 34.240000 55.324000 14.100000 0 -1 0
2149 69 4 0.06 32.480000 54.624000 12.830000 0 -1 0
2150 69 4 0.06 31.910000 55.464000 14.260000 0 -1 0
2151 69 4 0.06 34.260000 56.024000 14.920000 0 -1 0
2152 69 4 0.06 34.980000 55.674000 13.420000 0 -1 0
2153 70 1 0 24.660000 54.484000 9.220000 0 -1 0
2154 70 2 -0.12 25.270000 50.834000 11.320000 0 -1 0
2155 70 3 -0.18 24.610000 49.394000 11.380000 0 -1 0
2156 70 4 0.06 25.660000 50.964000 12.360000 0 -1 0
2157 70 4 0.06 26.200000 50.464000 10.670000 0 -1 0
2158 70 4 0.06 24.470000 49.044000 10.370000 0 -1 0
2159 70 4 0.06 23.580000 49.294000 11.930000 0 -1 0
2160 70 4 0.06 25.260000 48.544000 11.930000 0 -1 0
2161 70 2 -0.12 25.360000 53.094000 9.910000 0 -1 0
2162 70 2 -0.12 24.480000 51.994000 10.640000 0 -1 0
2163 70 4 0.06 26.170000 53.514000 10.510000 0 -1 0
2164 70 4 0.06 25.970000 52.634000 9.080000 0 -1 0
2165 70 4 0.06 23.820000 51.554000 9.850000 0 -1 0
2166 70 4 0.06 23.920000 52.504000 11.400000 0 -1 0
2167 70 2 -0.12 25.220000 54.754000 7.900000 0 -1 0
2168 70 2 -0.12 24.540000 54.134000 9.110000 0 -1 0
2169 70 4 0.06 26.210000 55.074000 8.160000 0 -1 0
2170 70 4 0.06 25.310000 53.984000 7.120000 0 -1 0
2171 70 4 0.06 23.560000 53.874000 8.760000 0 -1 0
2172 70 4 0.06 24.270000 54.974000 9.790000 0 -1 0
2173 70 2 -0.12 24.590000 57.164000 8.150000 0 -1 0
2174 70 2 -0.12 24.600000 55.934000 7.310000 0 -1 0
2175 70 4 0.06 24.350000 56.964000 9.180000 0 -1 0
2176 70 4 0.06 25.650000 57.344000 8.310000 0 -1 0
2177 70 4 0.06 25.180000 56.224000 6.450000 0 -1 0
2178 70 4 0.06 23.600000 55.774000 6.860000 0 -1 0
2179 70 2 -0.12 23.960000 59.494000 8.700000 0 -1 0
2180 70 2 -0.12 23.940000 58.464000 7.580000 0 -1 0
2181 70 4 0.06 23.180000 59.204000 9.410000 0 -1 0
2182 70 4 0.06 24.950000 59.574000 9.190000 0 -1 0
2183 70 4 0.06 24.580000 58.784000 6.800000 0 -1 0
2184 70 4 0.06 22.840000 58.464000 7.300000 0 -1 0
2185 71 1 0 1.060000 49.010000 20.920000 0 0 0
2186 71 2 -0.12 1.410000 48.780000 17.050000 0 0 0
2187 71 3 -0.18 2.090000 47.580000 16.390000 0 0 0
2188 71 4 0.06 0.440000 48.860000 16.590000 0 0 0
2189 71 4 0.06 1.880000 49.660000 16.870000 0 0 0
2190 71 4 0.06 1.230000 46.870000 16.440000 0 0 0
2191 71 4 0.06 3.040000 47.280000 16.780000 0 0 0
2192 71 4 0.06 2.320000 47.870000 15.420000 0 0 0
2193 71 2 -0.12 1.060000 48.420000 18.450000 0 0 0
2194 71 2 -0.12 0.060000 49.460000 19.140000 0 0 0
2195 71 4 0.06 1.950000 48.290000 19.130000 0 0 0
2196 71 4 0.06 0.610000 47.390000 18.590000 0 0 0
2197 71 4 0.06 61.244000 49.650000 18.440000 -1 0 0
2198 71 4 0.06 0.670000 50.370000 19.420000 0 0 0
2199 71 2 -0.12 61.354000 48.880000 20.380000 -1 0 0
2200 71 2 -0.12 0.230000 48.490000 21.580000 0 0 0
2201 71 4 0.06 60.804000 48.020000 20.130000 -1 0 0
2202 71 4 0.06 60.734000 49.580000 20.900000 -1 0 0
2203 71 4 0.06 1.160000 48.030000 21.100000 0 0 0
2204 71 4 0.06 61.724000 47.650000 22.150000 -1 0 0
2205 71 2 -0.12 0.510000 49.610000 22.550000 0 0 0
2206 71 2 -0.12 1.480000 49.150000 23.590000 0 0 0
2207 71 4 0.06 61.554000 49.910000 22.960000 -1 0 0
2208 71 4 0.06 0.890000 50.320000 21.920000 0 0 0
2209 71 4 0.06 2.280000 48.730000 23.090000 0 0 0
2210 71 4 0.06 0.950000 48.450000 24.240000 0 0 0
2211 71 2 -0.12 1.800000 50.250000 24.600000 0 0 0
2212 71 2 -0.12 2.650000 49.730000 25.820000 0 0 0
2213 71 4 0.06 0.810000 50.500000 25.060000 0 0 0
2214 71 4 0.06 2.070000 51.180000 24.180000 0 0 0
2215 71 4 0.06 3.560000 49.320000 25.620000 0 0 0
2216 71 4 0.06 2.140000 48.860000 26.310000 0 0 0
2217 72 5 0 0.480000 40.810000 14.760000 0 0 0
2218 72 2 -0.12 59.564000 36.860000 13.910000 -1 0 0
2219 72 2 -0.12 60.644000 36.600000 14.840000 -1 0 0
2220 72 4 0.06 58.484000 36.900000 14.340000 -1 0 0
2221 72 4 0.06 59.664000 37.750000 13.300000 -1 0 0
2222 72 4 0.06 61.414000 35.970000 14.520000 -1 0 0
2223 72 4 0.06 60.164000 35.830000 15.490000 -1 0 0
2224 72 2 -0.12 61.184000 37.800000 15.600000 -1 0 0
2225 72 2 -0.12 61.554000 39.130000 14.770000 -1 0 0
2226 72 4 0.06 0.010000 37.400000 16.110000 0 0 0
2227 72 4 0.06 60.524000 38.020000 16.450000 -1 0 0
2228 72 4 0.06 60.634000 39.740000 14.480000 -1 0 0
2229 72 4 0.06 61.944000 38.760000 13.830000 -1 0 0
2230 72 2 -0.12 0.480000 40.100000 15.440000 0 0 0
2231 72 2 -0.12 0.730000 41.220000 14.360000 0 0 0
2232 72 4 0.06 1.390000 39.610000 15.710000 0 0 0
2233 72 4 0.06 0.090000 40.520000 16.320000 0 0 0
2234 72 4 0.06 61.744000 41.690000 14.150000 -1 0 0
2235 72 4 0.06 1.110000 40.700000 13.470000 0 0 0
2236 72 2 -0.12 1.760000 42.250000 14.910000 0 0 0
2237 72 2 -0.12 1.580000 43.650000 14.400000 0 0 0
2238 72 4 0.06 2.600000 41.710000 14.500000 0 0 0
2239 72 4 0.06 1.840000 42.130000 15.940000 0 0 0
2240 72 4 0.06 0.570000 43.950000 14.790000 0 0 0
2241 72 4 0.06 1.600000 43.690000 13.380000 0 0 0
2242 72 2 -0.12 2.490000 44.690000 15.110000 0 0 0
2243 72 2 -0.12 2.950000 45.830000 14.250000 0 0 0
2244 72 4 0.06 3.330000 44.180000 15.500000 0 0 0
2245 72 4 0.06 1.980000 45.150000 15.970000 0 0 0
2246 72 4 0.06 2.090000 46.580000 14.270000 0 0 0
2247 72 4 0.06 2.970000 45.580000 13.130000 0 0 0
2248 73 5 0 57.114000 37.220000 17.300000 -1 0 0
2249 73 2 -0.12 57.204000 31.660000 18.100000 -1 0 0
2250 73 2 -0.12 56.924000 33.080000 18.490000 -1 0 0
2251 73 4 0.06 58.074000 31.650000 17.410000 -1 0 0
2252 73 4 0.06 57.574000 31.030000 18.910000 -1 0 0
2253 73 4 0.06 57.634000 33.620000 19.210000 -1 0 0
2254 73 4 0.06 56.004000 33.060000 19.090000 -1 0 0
2255 73 2 -0.12 56.894000 34.200000 17.360000 -1 0 0
2256 73 2 -0.12 56.344000 35.500000 17.900000 -1 0 0
2257 73 4 0.06 56.094000 34.070000 16.550000 -1 0 0
2258 73 4 0.06 57.904000 34.300000 16.950000 -1 0 0
2259 73 4 0.06 56.874000 35.780000 18.860000 -1 0 0
2260 73 4 0.06 55.294000 35.310000 18.270000 -1 0 0
2261 73 2 -0.12 56.284000 36.650000 16.940000 -1 0 0
2262 73 2 -0.12 56.694000 37.910000 17.650000 -1 0 0
2263 73 4 0.06 55.344000 36.810000 16.610000 -1 0 0
2264 73 4 0.06 56.994000 36.370000 16.080000 -1 0 0
2265 73 4 0.06 57.624000 37.640000 18.170000 -1 0 0
2266 73 4 0.06 56.054000 38.090000 18.550000 -1 0 0
2267 73 2 -0.12 56.954000 39.100000 16.680000 -1 0 0
2268 73 2 -0.12 57.504000 40.410000 17.440000 -1 0 0
2269 73 4 0.06 55.954000 39.240000 16.200000 -1 0 0
2270 73 4 0.06 57.684000 38.820000 15.980000 -1 0 0
2271 73 4 0.06 58.494000 40.370000 17.990000 -1 0 0
2272 73 4 0.06 56.694000 40.630000 18.260000 -1 0 0
2273 73 2 -0.12 57.574000 41.690000 16.640000 -1 0 0
2274 73 2 -0.12 58.754000 41.910000 15.710000 -1 0 0
2275 73 4 0.06 57.514000 42.560000 17.300000 -1 0 0
2276 73 4 0.06 56.614000 41.670000 16.180000 -1 0 0
2277 73 4 0.06 58.734000 42.990000 15.450000 -1 0 0
2278 73 4 0.06 58.644000 41.310000 14.830000 -1 0 0
2279 74 5 0 54.334000 27.840000 17.490000 -1 0 0
2280 74 2 -0.12 49.134000 27.620000 17.810000 -1 0 0
2281 74 2 -0.12 50.254000 27.960000 16.820000 -1 0 0
2282 74 4 0.06 49.094000 26.540000 17.980000 -1 0 0
2283 74 4 0.06 49.404000 28.020000 18.830000 -1 0 0
2284 74 4 0.06 50.134000 29.020000 16.570000 -1 0 0
2285 74 4 0.06 50.024000 27.420000 15.870000 -1 0 0
2286 74 2 -0.12 51.674000 27.550000 17.290000 -1 0 0
2287 74 2 -0.12 52.874000 28.080000 16.470000 -1 0 0
2288 74 4 0.06 51.724000 26.470000 17.250000 -1 0 0
2289 74 4 0.06 51.724000 27.640000 18.370000 -1 0 0
2290 74 4 0.06 52.904000 29.160000 16.570000 -1 0 0
2291 74 4 0.06 52.654000 27.740000 15.450000 -1 0 0
2292 74 2 -0.12 54.204000 27.600000 16.990000 -1 0 0
2293 74 2 -0.12 54.604000 28.370000 18.250000 -1 0 0
2294 74 4 0.06 54.984000 27.780000 16.260000 -1 0 0
2295 74 4 0.06 54.304000 26.550000 17.240000 -1 0 0
2296 74 4 0.06 53.814000 28.280000 18.870000 -1 0 0
2297 74 4 0.06 54.614000 29.370000 17.970000 -1 0 0
2298 74 2 -0.12 56.014000 27.970000 18.750000 -1 0 0
2299 74 2 -0.12 56.954000 27.840000 17.600000 -1 0 0
2300 74 4 0.06 55.974000 26.950000 19.170000 -1 0 0
2301 74 4 0.06 56.404000 28.630000 19.470000 -1 0 0
2302 74 4 0.06 56.894000 28.720000 16.910000 -1 0 0
2303 74 4 0.06 56.834000 26.970000 16.920000 -1 0 0
2304 74 2 -0.12 58.364000 27.900000 18.050000 -1 0 0
2305 74 2 -0.12 59.274000 27.610000 16.920000 -1 0 0
2306 74 4 0.06 58.374000 27.130000 18.870000 -1 0 0
2307 74 4 0.06 58.454000 28.870000 18.640000 -1 0 0
2308 74 4 0.06 58.964000 28.190000 16.100000 -1 0 0
2309 74 4 0.06 59.264000 26.600000 16.570000 -1 0 0
2310 75 5 0 52.304000 33.570000 18.230000 -1 0 0
2311 75 2 -0.12 48.834000 34.070000 22.080000 -1 0 0
2312 75 2 -0.12 49.694000 33.760000 20.890000 -1 0 0
2313 75 4 0.06 49.324000 33.590000 22.940000 -1 0 0
2314 75 4 0.06 49.014000 35.120000 22.280000 -1 0 0
2315 75 4 0.06 49.774000 34.710000 20.350000 -1 0 0
2316 75 4 0.06 49.194000 33.140000 20.260000 -1 0 0
2317 75 2 -0.12 51.024000 33.100000 21.180000 -1 0 0
2318 75 2 -0.12 51.794000 32.820000 19.860000 -1 0 0
2319 75 4 0.06 50.774000 32.140000 21.660000 -1 0 0
2320 75 4 0.06 51.584000 33.840000 21.770000 -1 0 0
2321 75 4 0.06 51.204000 32.510000 18.990000 -1 0 0
2322 75 4 0.06 52.344000 31.860000 20.130000 -1 0 0
2323 75 2 -0.12 52.864000 33.930000 19.520000 -1 0 0
2324 75 2 -0.12 53.754000 33.630000 18.280000 -1 0 0
2325 75 4 0.06 53.634000 34.120000 20.330000 -1 0 0
2326 75 4 0.06 52.314000 34.900000 19.480000 -1 0 0
2327 75 4 0.06 54.044000 32.580000 18.340000 -1 0 0
2328 75 4 0.06 54.704000 34.250000 18.370000 -1 0 0
2329 75 2 -0.12 53.154000 33.960000 16.980000 -1 0 0
2330 75 2 -0.12 53.874000 33.330000 15.770000 -1 0 0
2331 75 4 0.06 53.304000 35.000000 16.780000 -1 0 0
2332 75 4 0.06 52.144000 33.580000 16.750000 -1 0 0
2333 75 4 0.06 53.644000 32.290000 15.900000 -1 0 0
2334 75 4 0.06 54.994000 33.340000 15.890000 -1 0 0
2335 75 2 -0.12 53.534000 33.870000 14.450000 -1 0 0
2336 75 2 -0.12 54.284000 33.140000 13.290000 -1 0 0
2337 75 4 0.06 53.934000 34.910000 14.370000 -1 0 0
2338 75 4 0.06 52.454000 33.930000 14.150000 -1 0 0
2339 75 4 0.06 55.354000 32.740000 13.660000 -1 0 0
2340 75 4 0.06 54.514000 33.910000 12.590000 -1 0 0
2341 76 5 0 52.634000 35.550000 26.130000 -1 0 0
2342 76 2 -0.12 48.564000 37.530000 29.520000 -1 0 0
2343 76 2 -0.12 49.134000 37.030000 28.180000 -1 0 0
2344 76 4 0.06 47.534000 38.000000 29.350000 -1 0 0
2345 76 4 0.06 48.374000 36.640000 30.130000 -1 0 0
2346 76 4 0.06 49.094000 37.920000 27.470000 -1 0 0
2347 76 4 0.06 48.554000 36.160000 27.690000 -1 0 0
2348 76 2 -0.12 50.704000 36.750000 28.180000 -1 0 0
2349 76 2 -0.12 51.154000 36.240000 26.830000 -1 0 0
2350 76 4 0.06 50.944000 36.010000 28.960000 -1 0 0
2351 76 4 0.06 51.224000 37.690000 28.520000 -1 0 0
2352 76 4 0.06 50.934000 36.970000 26.020000 -1 0 0
2353 76 4 0.06 50.654000 35.350000 26.490000 -1 0 0
2354 76 2 -0.12 52.634000 35.800000 26.930000 -1 0 0
2355 76 2 -0.12 53.104000 35.660000 25.500000 -1 0 0
2356 76 4 0.06 52.664000 34.830000 27.350000 -1 0 0
2357 76 4 0.06 53.264000 36.440000 27.540000 -1 0 0
2358 76 4 0.06 52.954000 36.640000 25.080000 -1 0 0
2359 76 4 0.06 52.374000 35.030000 24.940000 -1 0 0
2360 76 2 -0.12 54.334000 34.850000 25.300000 -1 0 0
2361 76 2 -0.12 54.854000 34.970000 23.910000 -1 0 0
2362 76 4 0.06 54.124000 33.800000 25.580000 -1 0 0
2363 76 4 0.06 55.024000 35.110000 26.030000 -1 0 0
2364 76 4 0.06 55.054000 36.060000 23.780000 -1 0 0
2365 76 4 0.06 54.004000 34.860000 23.220000 -1 0 0
2366 76 2 -0.12 56.144000 34.120000 23.660000 -1 0 0
2367 76 2 -0.12 55.894000 32.520000 23.380000 -1 0 0
2368 76 4 0.06 57.014000 34.430000 24.300000 -1 0 0
2369 76 4 0.06 56.574000 34.560000 22.750000 -1 0 0
2370 76 4 0.06 55.154000 32.570000 22.570000 -1 0 0
2371 76 4 0.06 55.534000 32.020000 24.310000 -1 0 0
2372 77 5 0 59.354000 32.160000 23.040000 -1 0 0
2373 77 2 -0.12 58.514000 36.990000 24.900000 -1 0 0
2374 77 2 -0.12 58.404000 35.510000 24.530000 -1 0 0
2375 77 4 0.06 59.344000 37.010000 25.660000 -1 0 0
2376 77 4 0.06 58.854000 37.490000 24.050000 -1 0 0
2377 77 4 0.06 57.514000 35.440000 23.870000 -1 0 0
2378 77 4 0.06 58.144000 34.910000 25.490000 -1 0 0
2379 77 2 -0.12 59.684000 34.880000 23.900000 -1 0 0
2380 77 2 -0.12 59.524000 33.510000 23.340000 -1 0 0
2381 77 4 0.06 60.314000 34.860000 24.780000 -1 0 0
2382 77 4 0.06 59.884000 35.520000 23.010000 -1 0 0
2383 77 4 0.06 58.704000 33.530000 22.670000 -1 0 0
2384 77 4 0.06 59.294000 32.870000 24.190000 -1 0 0
2385 77 2 -0.12 60.714000 33.010000 22.570000 -1 0 0
2386 77 2 -0.12 60.464000 31.750000 21.680000 -1 0 0
2387 77 4 0.06 61.344000 32.820000 23.370000 -1 0 0
2388 77 4 0.06 61.304000 33.670000 22.060000 -1 0 0
2389 77 4 0.06 61.504000 31.640000 21.230000 -1 0 0
2390 77 4 0.06 59.824000 32.050000 20.870000 -1 0 0
2391 77 2 -0.12 59.904000 30.530000 22.490000 -1 0 0
2392 77 2 -0.12 59.374000 29.350000 21.610000 -1 0 0
2393 77 4 0.06 59.084000 30.860000 22.950000 -1 0 0
2394 77 4 0.06 60.554000 30.260000 23.310000 -1 0 0
2395 77 4 0.06 60.064000 29.220000 20.790000 -1 0 0
2396 77 4 0.06 58.484000 29.880000 21.350000 -1 0 0
2397 77 2 -0.12 59.024000 27.940000 22.170000 -1 0 0
2398 77 2 -0.12 57.854000 28.060000 23.180000 -1 0 0
2399 77 4 0.06 59.934000 27.600000 22.580000 -1 0 0
2400 77 4 0.06 58.834000 27.230000 21.350000 -1 0 0
2401 77 4 0.06 57.234000 28.960000 22.970000 -1 0 0
2402 77 4 0.06 58.384000 28.350000 24.120000 -1 0 0
2403 78 5 0 4.050000 38.720000 24.330000 0 0 0
2404 78 2 -0.12 1.230000 42.710000 25.180000 0 0 0
2405 78 2 -0.12 1.740000 41.420000 25.790000 0 0 0
2406 78 4 0.06 1.020000 42.340000 24.230000 0 0 0
2407 78 4 0.06 0.320000 43.100000 25.770000 0 0 0
2408 78 4 0.06 0.930000 40.670000 25.840000 0 0 0
2409 78 4 0.06 2.020000 41.610000 26.770000 0 0 0
2410 78 2 -0.12 2.970000 40.840000 25.060000 0 0 0
2411 78 2 -0.12 3.550000 39.420000 25.320000 0 0 0
2412 78 4 0.06 3.840000 41.410000 25.390000 0 0 0
2413 78 4 0.06 2.840000 40.930000 23.990000 0 0 0
2414 78 4 0.06 3.330000 39.140000 26.330000 0 0 0
2415 78 4 0.06 4.630000 39.520000 25.080000 0 0 0
2416 78 2 -0.12 2.820000 38.310000 24.550000 0 0 0
2417 78 2 -0.12 3.540000 36.930000 24.690000 0 0 0
2418 78 4 0.06 2.540000 38.580000 23.530000 0 0 0
2419 78 4 0.06 1.830000 38.170000 25.020000 0 0 0
2420 78 4 0.06 2.950000 36.080000 24.920000 0 0 0
2421 78 4 0.06 4.220000 36.990000 25.540000 0 0 0
2422 78 2 -0.12 4.500000 36.630000 23.600000 0 0 0
2423 78 2 -0.12 5.730000 37.640000 23.480000 0 0 0
2424 78 4 0.06 4.010000 36.830000 22.610000 0 0 0
2425 78 4 0.06 4.920000 35.630000 23.820000 0 0 0
2426 78 4 0.06 6.340000 37.850000 24.460000 0 0 0
2427 78 4 0.06 5.290000 38.570000 23.100000 0 0 0
2428 78 2 -0.12 6.730000 37.130000 22.440000 0 0 0
2429 78 2 -0.12 7.760000 36.150000 23.070000 0 0 0
2430 78 4 0.06 7.300000 37.850000 21.930000 0 0 0
2431 78 4 0.06 6.180000 36.500000 21.680000 0 0 0
2432 78 4 0.06 7.060000 35.510000 23.630000 0 0 0
2433 78 4 0.06 8.320000 36.680000 23.870000 0 0 0
2434 79 5 0 2.990000 33.910000 14.420000 0 0 0
2435 79 2 -0.12 61.924000 38.040000 12.420000 -1 0 0
2436 79 2 -0.12 0.630000 36.930000 13.240000 0 0 0
2437 79 4 0.06 0.630000 38.460000 11.740000 0 0 0
2438 79 4 0.06 61.144000 37.600000 11.770000 -1 0 0
2439 79 4 0.06 61.954000 36.590000 13.940000 -1 0 0
2440 79 4 0.06 1.430000 37.420000 13.780000 0 0 0
2441 79 2 -0.12 1.320000 35.890000 12.390000 0 0 0
2442 79 2 -0.12 2.530000 35.220000 12.900000 0 0 0
2443 79 4 0.06 1.510000 36.080000 11.330000 0 0 0
2444 79 4 0.06 0.560000 35.060000 12.470000 0 0 0
2445 79 4 0.06 3.180000 36.000000 13.340000 0 0 0
2446 79 4 0.06 2.960000 34.620000 12.020000 0 0 0
2447 79 2 -0.12 2.270000 34.180000 14.040000 0 0 0
2448 79 2 -0.12 3.650000 33.620000 14.250000 0 0 0
2449 79 4 0.06 1.730000 33.320000 13.770000 0 0 0
2450 79 4 0.06 1.910000 34.660000 14.860000 0 0 0
2451 79 4 0.06 4.460000 34.300000 14.550000 0 0 0
2452 79 4 0.06 4.040000 33.060000 13.380000 0 0 0
2453 79 2 -0.12 3.610000 32.480000 15.340000 0 0 0
2454 79 2 -0.12 4.920000 31.820000 15.700000 0 0 0
2455 79 4 0.06 2.780000 31.820000 15.020000 0 0 0
2456 79 4 0.06 3.360000 32.990000 16.220000 0 0 0
2457 79 4 0.06 5.490000 32.560000 16.110000 0 0 0
2458 79 4 0.06 5.470000 31.590000 14.760000 0 0 0
2459 79 2 -0.12 4.790000 30.510000 16.690000 0 0 0
2460 79 2 -0.12 6.270000 30.410000 17.290000 0 0 0
2461 79 4 0.06 4.510000 29.710000 16.020000 0 0 0
2462 79 4 0.06 3.940000 30.550000 17.450000 0 0 0
2463 79 4 0.06 6.290000 31.110000 18.110000 0 0 0
2464 79 4 0.06 7.010000 30.760000 16.610000 0 0 0
2465 80 1 0 0.410000 45.240000 17.310000 0 0 0
2466 80 2 -0.12 1.020000 41.590000 19.410000 0 0 0
2467 80 3 -0.18 0.360000 40.150000 19.470000 0 0 0
2468 80 4 0.06 1.410000 41.720000 20.450000 0 0 0
2469 80 4 0.06 1.950000 41.220000 18.760000 0 0 0
2470 80 4 0.06 0.220000 39.800000 18.460000 0 0 0
2471 80 4 0.06 61.334000 40.050000 20.020000 -1 0 0
2472 80 4 0.06 1.010000 39.300000 20.020000 0 0 0
2473 80 2 -0.12 1.110000 43.850000 18.000000 0 0 0
2474 80 2 -0.12 0.230000 42.750000 18.730000 0 0 0
2475 80 4 0.06 1.920000 44.270000 18.600000 0 0 0
2476 80 4 0.06 1.720000 43.390000 17.170000 0 0 0
2477 80 4 0.06 61.574000 42.310000 17.940000 -1 0 0
2478 80 4 0.06 61.674000 43.260000 19.490000 -1 0 0
2479 80 2 -0.12 0.970000 45.510000 15.990000 0 0 0
2480 80 2 -0.12 0.290000 44.890000 17.200000 0 0 0
2481 80 4 0.06 1.960000 45.830000 16.250000 0 0 0
2482 80 4 0.06 1.060000 44.740000 15.210000 0 0 0
2483 80 4 0.06 61.314000 44.630000 16.850000 -1 0 0
2484 80 4 0.06 0.020000 45.730000 17.880000 0 0 0
2485 80 2 -0.12 0.340000 47.920000 16.240000 0 0 0
2486 80 2 -0.12 0.350000 46.690000 15.400000 0 0 0
2487 80 4 0.06 0.100000 47.720000 17.270000 0 0 0
2488 80 4 0.06 1.400000 48.100000 16.400000 0 0 0
2489 80 4 0.06 0.930000 46.980000 14.540000 0 0 0
2490 80 4 0.06 61.354000 46.530000 14.950000 -1 0 0
2491 80 2 -0.12 61.714000 50.250000 16.790000 -1 0 0
2492 80 2 -0.12 61.694000 49.220000 15.670000 -1 0 0
2493 80 4 0.06 60.934000 49.960000 17.500000 -1 0 0
2494 80 4 0.06 0.700000 50.330000 17.280000 0 0 0
2495 80 4 0.06 0.330000 49.540000 14.890000 0 0 0
2496 80 4 0.06 60.594000 49.220000 15.390000 -1 0 0
2497 81 1 0 36.030000 14.310000 33.600000 0 0 0
2498 81 2 -0.12 36.380000 14.080000 29.730000 0 0 0
2499 81 3 -0.18 37.060000 12.880000 29.070000 0 0 0
2500 81 4 0.06 35.410000 14.160000 29.270000 0 0 0
2501 81 4 0.06 36.850000 14.960000 29.550000 0 0 0
2502 81 4 0.06 36.200000 12.170000 29.120000 0 0 0
2503 81 4 0.06 38.010000 12.580000 29.460000 0 0 0
2504 81 4 0.06 37.290000 13.170000 28.100000 0 0 0
2505 81 2 -0.12 36.030000 13.720000 31.130000 0 0 0
2506 81 2 -0.12 35.030000 14.760000 31.820000 0 0 0
2507 81 4 0.06 36.920000 13.590000 31.810000 0 0 0
2508 81 4 0.06 35.580000 12.690000 31.270000 0 0 0
2509 81 4 0.06 34.210000 14.950000 31.120000 0 0 0
2510 81 4 0.06 35.640000 15.670000 32.100000 0 0 0
2511 81 2 -0.12 34.320000 14.180000 33.060000 0 0 0
2512 81 2 -0.12 35.200000 13.790000 34.260000 0 0 0
2513 81 4 0.06 33.770000 13.320000 32.810000 0 0 0
2514 81 4 0.06 33.700000 14.880000 33.580000 0 0 0
2515 81 4 0.06 36.130000 13.330000 33.780000 0 0 0
2516 81 4 0.06 34.690000 12.950000 34.830000 0 0 0
2517 81 2 -0.12 35.480000 14.910000 35.230000 0 0 0
2518 81 2 -0.12 36.450000 14.450000 36.270000 0 0 0
2519 81 4 0.06 34.520000 15.210000 35.640000 0 0 0
2520 81 4 0.06 35.860000 15.620000 34.600000 0 0 0
2521 81 4 0.06 37.250000 14.030000 35.770000 0 0 0
2522 81 4 0.06 35.920000 13.750000 36.920000 0 0 0
2523 81 2 -0.12 36.770000 15.550000 37.280000 0 0 0
2524 81 2 -0.12 37.620000 15.030000 38.500000 0 0 0
2525 81 4 0.06 35.780000 15.800000 37.740000 0 0 0
2526 81 4 0.06 37.040000 16.480000 36.860000 0 0 0
2527 81 4 0.06 38.530000 14.620000 38.300000 0 0 0
2528 81 4 0.06 37.110000 14.160000 38.990000 0 0 0
2529 82 5 0 28.760000 6.630000 36.300000 0 0 0
2530 82 2 -0.12 25.840000 2.680000 35.450000 0 0 0
2531 82 2 -0.12 26.920000 2.420000 36.380000 0 0 0
2532 82 4 0.06 24.760000 2.720000 35.880000 0 0 0
2533 82 4 0.06 25.940000 3.570000 34.840000 0 0 0
2534 82 4 0.06 27.690000 1.790000 36.060000 0 0 0
2535 82 4 0.06 26.440000 1.650000 37.030000 0 0 0
2536 82 2 -0.12 27.460000 3.620000 37.140000 0 0 0
2537 82 2 -0.12 27.830000 4.950000 36.310000 0 0 0
2538 82 4 0.06 28.290000 3.220000 37.650000 0 0 0
2539 82 4 0.06 26.800000 3.840000 37.990000 0 0 0
2540 82 4 0.06 26.910000 5.560000 36.020000 0 0 0
2541 82 4 0.06 28.220000 4.580000 35.370000 0 0 0
2542 82 2 -0.12 28.760000 5.920000 36.980000 0 0 0
2543 82 2 -0.12 29.010000 7.040000 35.900000 0 0 0
2544 82 4 0.06 29.670000 5.430000 37.250000 0 0 0
2545 82 4 0.06 28.370000 6.340000 37.860000 0 0 0
2546 82 4 0.06 28.020000 7.510000 35.690000 0 0 0
2547 82 4 0.06 29.390000 6.520000 35.010000 0 0 0
2548 82 2 -0.12 30.040000 8.070000 36.450000 0 0 0
2549 82 2 -0.12 29.860000 9.470000 35.940000 0 0 0
2550 82 4 0.06 30.880000 7.530000 36.040000 0 0 0
2551 82 4 0.06 30.120000 7.950000 37.480000 0 0 0
2552 82 4 0.06 28.850000 9.770000 36.330000 0 0 0
2553 82 4 0.06 29.880000 9.510000 34.920000 0 0 0
2554 82 2 -0.12 30.770000 10.510000 36.650000 0 0 0
2555 82 2 -0.12 31.230000 11.650000 35.790000 0 0 0
2556 82 4 0.06 31.610000 10.000000 37.040000 0 0 0
2557 82 4 0.06 30.260000 10.970000 37.510000 0 0 0
2558 82 4 0.06 30.370000 12.400000 35.810000 0 0 0
2559 82 4 0.06 31.250000 11.400000 34.670000 0 0 0
2560 83 5 0 24.180000 7.900000 43.890000 0 0 0
2561 83 2 -0.12 24.270000 2.340000 44.690000 0 0 0
2562 83 2 -0.12 23.990000 3.760000 45.080000 0 0 0
2563 83 4 0.06 25.140000 2.330000 44.000000 0 0 0
2564 83 4 0.06 24.640000 1.710000 45.500000 0 0 0
2565 83 4 0.06 24.700000 4.300000 45.800000 0 0 0
2566 83 4 0.06 23.070000 3.740000 45.680000 0 0 0
2567 83 2 -0.12 23.960000 4.880000 43.950000 0 0 0
2568 83 2 -0.12 23.410000 6.180000 44.490000 0 0 0
2569 83 4 0.06 23.160000 4.750000 43.140000 0 0 0
2570 83 4 0.06 24.970000 4.980000 43.540000 0 0 0
2571 83 4 0.06 23.940000 6.460000 45.450000 0 0 0
2572 83 4 0.06 22.360000 5.990000 44.860000 0 0 0
2573 83 2 -0.12 23.350000 7.330000 43.530000 0 0 0
2574 83 2 -0.12 23.760000 8.590000 44.240000 0 0 0
2575 83 4 0.06 22.410000 7.490000 43.200000 0 0 0
2576 83 4 0.06 24.060000 7.050000 42.670000 0 0 0
2577 83 4 0.06 24.690000 8.320000 44.760000 0 0 0
2578 83 4 0.06 23.120000 8.770000 45.140000 0 0 0
2579 83 2 -0.12 24.020000 9.780000 43.270000 0 0 0
2580 83 2 -0.12 24.570000 11.090000 44.030000 0 0 0
2581 83 4 0.06 23.020000 9.920000 42.790000 0 0 0
2582 83 4 0.06 24.750000 9.500000 42.570000 0 0 0
2583 83 4 0.06 25.560000 11.050000 44.580000 0 0 0
2584 83 4 0.06 23.760000 11.310000 44.850000 0 0 0
2585 83 2 -0.12 24.640000 12.370000 43.230000 0 0 0
2586 83 2 -0.12 25.820000 12.590000 42.300000 0 0 0
2587 83 4 0.06 24.580000 13.240000 43.890000 0 0 0
2588 83 4 0.06 23.680000 12.350000 42.770000 0 0 0
2589 83 4 0.06 25.800000 13.670000 42.040000 0 0 0
2590 83 4 0.06 25.710000 11.990000 41.420000 0 0 0
2591 84 5 0 30.590000 16.880000 44.570000 0 0 0
2592 84 2 -0.12 25.390000 16.660000 44.890000 0 0 0
2593 84 2 -0.12 26.510000 17.000000 43.900000 0 0 0
2594 84 4 0.06 25.350000 15.580000 45.060000 0 0 0
2595 84 4 0.06 25.660000 17.060000 45.910000 0 0 0
2596 84 4 0.06 26.390000 18.060000 43.650000 0 0 0
2597 84 4 0.06 26.280000 16.460000 42.950000 0 0 0
2598 84 2 -0.12 27.930000 16.590000 44.370000 0 0 0
2599 84 2 -0.12 29.130000 17.120000 43.550000 0 0 0
2600 84 4 0.06 27.980000 15.510000 44.330000 0 0 0
2601 84 4 0.06 27.980000 16.680000 45.450000 0 0 0
2602 84 4 0.06 29.160000 18.200000 43.650000 0 0 0
2603 84 4 0.06 28.910000 16.780000 42.530000 0 0 0
2604 84 2 -0.12 30.460000 16.640000 44.070000 0 0 0
2605 84 2 -0.12 30.860000 17.410000 45.330000 0 0 0
2606 84 4 0.06 31.240000 16.820000 43.340000 0 0 0
2607 84 4 0.06 30.560000 15.590000 44.320000 0 0 0
2608 84 4 0.06 30.070000 17.320000 45.950000 0 0 0
2609 84 4 0.06 30.870000 18.410000 45.050000 0 0 0
2610 84 2 -0.12 32.270000 17.010000 45.830000 0 0 0
2611 84 2 -0.12 33.210000 16.880000 44.680000 0 0 0
2612 84 4 0.06 32.230000 15.990000 46.250000 0 0 0
2613 84 4 0.06 32.660000 17.670000 46.550000 0 0 0
2614 84 4 0.06 33.150000 17.760000 43.990000 0 0 0
2615 84 4 0.06 33.090000 16.010000 44.000000 0 0 0
2616 84 2 -0.12 34.620000 16.940000 45.130000 0 0 0
2617 84 2 -0.12 35.530000 16.650000 44.000000 0 0 0
2618 84 4 0.06 34.630000 16.170000 45.950000 0 0 0
2619 84 4 0.06 34.710000 17.910000 45.720000 0 0 0
2620 84 4 0.06 35.220000 17.230000 43.180000 0 0 0
2621 84 4 0.06 35.520000 15.640000 43.650000 0 0 0
2622 85 5 0 22.450000 18.780000 36.730000 0 0 0
2623 85 2 -0.12 18.980000 19.280000 40.580000 0 0 0
2624 85 2 -0.12 19.840000 18.970000 39.390000 0 0 0
2625 85 4 0.06 19.470000 18.800000 41.440000 0 0 0
2626 85 4 0.06 19.160000 20.330000 40.780000 0 0 0
2627 85 4 0.06 19.920000 19.920000 38.850000 0 0 0
2628 85 4 0.06 19.340000 18.350000 38.760000 0 0 0
2629 85 2 -0.12 21.170000 18.310000 39.680000 0 0 0
2630 85 2 -0.12 21.940000 18.030000 38.360000 0 0 0
2631 85 4 0.06 20.920000 17.350000 40.160000 0 0 0
2632 85 4 0.06 21.730000 19.050000 40.270000 0 0 0
2633 85 4 0.06 21.350000 17.720000 37.490000 0 0 0
2634 85 4 0.06 22.490000 17.070000 38.630000 0 0 0
2635 85 2 -0.12 23.010000 19.140000 38.020000 0 0 0
2636 85 2 -0.12 23.900000 18.840000 36.780000 0 0 0
2637 85 4 0.06 23.780000 19.330000 38.830000 0 0 0
2638 85 4 0.06 22.460000 20.110000 37.980000 0 0 0
2639 85 4 0.06 24.190000 17.790000 36.840000 0 0 0
2640 85 4 0.06 24.850000 19.460000 36.870000 0 0 0
2641 85 2 -0.12 23.300000 19.170000 35.480000 0 0 0
2642 85 2 -0.12 24.020000 18.540000 34.270000 0 0 0
2643 85 4 0.06 23.450000 20.210000 35.280000 0 0 0
2644 85 4 0.06 22.290000 18.790000 35.250000 0 0 0
2645 85 4 0.06 23.790000 17.500000 34.400000 0 0 0
2646 85 4 0.06 25.140000 18.550000 34.390000 0 0 0
2647 85 2 -0.12 23.680000 19.080000 32.950000 0 0 0
2648 85 2 -0.12 24.430000 18.350000 31.790000 0 0 0
2649 85 4 0.06 24.080000 20.120000 32.870000 0 0 0
2650 85 4 0.06 22.600000 19.140000 32.650000 0 0 0
2651 85 4 0.06 25.500000 17.950000 32.160000 0 0 0
2652 85 4 0.06 24.660000 19.120000 31.090000 0 0 0
2653 86 5 0 30.930000 24.810000 39.490000 0 0 0
2654 86 2 -0.12 26.860000 26.790000 42.880000 0 0 0
2655 86 2 -0.12 27.430000 26.290000 41.540000 0 0 0
2656 86 4 0.06 25.830000 27.260000 42.710000 0 0 0
2657 86 4 0.06 26.670000 25.900000 43.490000 0 0 0
2658 86 4 0.06 27.390000 27.180000 40.830000 0 0 0
2659 86 4 0.06 26.850000 25.420000 41.050000 0 0 0
2660 86 2 -0.12 29.000000 26.010000 41.540000 0 0 0
2661 86 2 -0.12 29.450000 25.500000 40.190000 0 0 0
2662 86 4 0.06 29.240000 25.270000 42.320000 0 0 0
2663 86 4 0.06 29.520000 26.950000 41.880000 0 0 0
2664 86 4 0.06 29.230000 26.230000 39.380000 0 0 0
2665 86 4 0.06 28.950000 24.610000 39.850000 0 0 0
2666 86 2 -0.12 30.930000 25.060000 40.290000 0 0 0
2667 86 2 -0.12 31.400000 24.920000 38.860000 0 0 0
2668 86 4 0.06 30.960000 24.090000 40.710000 0 0 0
2669 86 4 0.06 31.560000 25.700000 40.900000 0 0 0
2670 86 4 0.06 31.250000 25.900000 38.440000 0 0 0
2671 86 4 0.06 30.670000 24.290000 38.300000 0 0 0
2672 86 2 -0.12 32.630000 24.110000 38.660000 0 0 0
2673 86 2 -0.12 33.150000 24.230000 37.270000 0 0 0
2674 86 4 0.06 32.420000 23.060000 38.940000 0 0 0
2675 86 4 0.06 33.320000 24.370000 39.390000 0 0 0
2676 86 4 0.06 33.350000 25.320000 37.140000 0 0 0
2677 86 4 0.06 32.300000 24.120000 36.580000 0 0 0
2678 86 2 -0.12 34.440000 23.380000 37.020000 0 0 0
2679 86 2 -0.12 34.190000 21.780000 36.740000 0 0 0
2680 86 4 0.06 35.310000 23.690000 37.660000 0 0 0
2681 86 4 0.06 34.870000 23.820000 36.110000 0 0 0
2682 86 4 0.06 33.450000 21.830000 35.930000 0 0 0
2683 86 4 0.06 33.830000 21.280000 37.670000 0 0 0
2684 87 5 0 29.960000 13.070000 38.800000 0 0 0
2685 87 2 -0.12 29.120000 17.900000 40.660000 0 0 0
2686 87 2 -0.12 29.010000 16.420000 40.290000 0 0 0
2687 87 4 0.06 29.950000 17.920000 41.420000 0 0 0
2688 87 4 0.06 29.460000 18.400000 39.810000 0 0 0
2689 87 4 0.06 28.120000 16.350000 39.630000 0 0 0
2690 87 4 0.06 28.750000 15.820000 41.250000 0 0 0
2691 87 2 -0.12 30.290000 15.790000 39.660000 0 0 0
2692 87 2 -0.12 30.130000 14.420000 39.100000 0 0 0
2693 87 4 0.06 30.920000 15.770000 40.540000 0 0 0
2694 87 4 0.06 30.490000 16.430000 38.770000 0 0 0
2695 87 4 0.06 29.310000 14.440000 38.430000 0 0 0
2696 87 4 0.06 29.900000 13.780000 39.950000 0 0 0
2697 87 2 -0.12 31.320000 13.920000 38.330000 0 0 0
2698 87 2 -0.12 31.070000 12.660000 37.440000 0 0 0
2699 87 4 0.06 31.950000 13.730000 39.130000 0 0 0
2700 87 4 0.06 31.910000 14.580000 37.820000 0 0 0
2701 87 4 0.06 32.110000 12.550000 36.990000 0 0 0
2702 87 4 0.06 30.430000 12.960000 36.630000 0 0 0
2703 87 2 -0.12 30.510000 11.440000 38.250000 0 0 0
2704 87 2 -0.12 29.980000 10.260000 37.370000 0 0 0
2705 87 4 0.06 29.690000 11.770000 38.710000 0 0 0
2706 87 4 0.06 31.160000 11.170000 39.070000 0 0 0
2707 87 4 0.06 30.670000 10.130000 36.550000 0 0 0
2708 87 4 0.06 29.090000 10.790000 37.110000 0 0 0
2709 87 2 -0.12 29.630000 8.850000 37.930000 0 0 0
2710 87 2 -0.12 28.460000 8.970000 38.940000 0 0 0
2711 87 4 0.06 30.540000 8.510000 38.340000 0 0 0
2712 87 4 0.06 29.440000 8.140000 37.110000 0 0 0
2713 87 4 0.06 27.840000 9.870000 38.730000 0 0 0
2714 87 4 0.06 28.990000 9.260000 39.880000 0 0 0
2715 88 5 0 34.740000 9.060000 48.050000 0 0 0
2716 88 2 -0.12 31.920000 13.050000 48.900000 0 0 0
2717 88 2 -0.12 32.430000 11.760000 49.510000 0 0 0
2718 88 4 0.06 31.710000 12.680000 47.950000 0 0 0
2719 88 4 0.06 31.010000 13.440000 49.490000 0 0 0
2720 88 4 0.06 31.620000 11.010000 49.560000 0 0 0
2721 88 4 0.06 32.710000 11.950000 50.490000 0 0 0
2722 88 2 -0.12 33.660000 11.180000 48.780000 0 0 0
2723 88 2 -0.12 34.240000 9.760000 49.040000 0 0 0
2724 88 4 0.06 34.530000 11.750000 49.110000 0 0 0
2725 88 4 0.06 33.530000 11.270000 47.710000 0 0 0
2726 88 4 0.06 34.020000 9.480000 50.050000 0 0 0
2727 88 4 0.06 35.320000 9.860000 48.800000 0 0 0
2728 88 2 -0.12 33.510000 8.650000 48.270000 0 0 0
2729 88 2 -0.12 34.230000 7.270000 48.410000 0 0 0
2730 88 4 0.06 33.230000 8.920000 47.250000 0 0 0
2731 88 4 0.06 32.520000 8.510000 48.740000 0 0 0
2732 88 4 0.06 33.640000 6.420000 48.640000 0 0 0
2733 88 4 0.06 34.910000 7.330000 49.260000 0 0 0
2734 88 2 -0.12 35.190000 6.970000 47.320000 0 0 0
2735 88 2 -0.12 36.420000 7.980000 47.200000 0 0 0
2736 88 4 0.06 34.700000 7.170000 46.330000 0 0 0
2737 88 4 0.06 35.610000 5.970000 47.540000 0 0 0
2738 88 4 0.06 37.030000 8.190000 48.180000 0 0 0
2739 88 4 0.06 35.980000 8.910000 46.820000 0 0 0
2740 88 2 -0.12 37.420000 7.470000 46.160000 0 0 0
2741 88 2 -0.12 38.450000 6.490000 46.790000 0 0 0
2742 88 4 0.06 37.990000 8.190000 45.650000 0 0 0
2743 88 4 0.06 36.870000 6.840000 45.400000 0 0 0
2744 88 4 0.06 37.750000 5.850000 47.350000 0 0 0
2745 88 4 0.06 39.010000 7.020000 47.590000 0 0 0
2746 89 5 0 24.500000 9.240000 48.790000 0 0 0
2747 89 2 -0.12 21.430000 13.370000 46.790000 0 0 0
2748 89 2 -0.12 22.140000 12.260000 47.610000 0 0 0
2749 89 4 0.06 22.140000 13.790000 46.110000 0 0 0
2750 89 4 0.06 20.650000 12.930000 46.140000 0 0 0
2751 89 4 0.06 21.460000 11.920000 48.310000 0 0 0
2752 89 4 0.06 22.940000 12.750000 48.150000 0 0 0
2753 89 2 -0.12 22.830000 11.220000 46.760000 0 0 0
2754 89 2 -0.12 24.040000 10.550000 47.270000 0 0 0
2755 89 4 0.06 23.020000 11.410000 45.700000 0 0 0
2756 89 4 0.06 22.070000 10.390000 46.840000 0 0 0
2757 89 4 0.06 24.690000 11.330000 47.710000 0 0 0
2758 89 4 0.06 24.470000 9.950000 46.390000 0 0 0
2759 89 2 -0.12 23.780000 9.510000 48.410000 0 0 0
2760 89 2 -0.12 25.160000 8.950000 48.620000 0 0 0
2761 89 4 0.06 23.240000 8.650000 48.140000 0 0 0
2762 89 4 0.06 23.420000 9.990000 49.230000 0 0 0
2763 89 4 0.06 25.970000 9.630000 48.920000 0 0 0
2764 89 4 0.06 25.550000 8.390000 47.750000 0 0 0
2765 89 2 -0.12 25.120000 7.810000 49.710000 0 0 0
2766 89 2 -0.12 26.430000 7.150000 50.070000 0 0 0
2767 89 4 0.06 24.290000 7.150000 49.390000 0 0 0
2768 89 4 0.06 24.870000 8.320000 50.590000 0 0 0
2769 89 4 0.06 27.000000 7.890000 50.480000 0 0 0
2770 89 4 0.06 26.980000 6.920000 49.130000 0 0 0
2771 89 2 -0.12 26.300000 5.840000 51.060000 0 0 0
2772 89 2 -0.12 27.780000 5.740000 51.660000 0 0 0
2773 89 4 0.06 26.020000 5.040000 50.390000 0 0 0
2774 89 4 0.06 25.450000 5.880000 51.820000 0 0 0
2775 89 4 0.06 27.800000 6.440000 52.480000 0 0 0
2776 89 4 0.06 28.520000 6.090000 50.980000 0 0 0
2777 90 1 0 25.050000 0.510000 52.250000 0 0 0
2778 90 2 -0.12 25.660000 58.864000 54.350000 0 -1 0
2779 90 3 -0.18 25.000000 57.424000 54.410000 0 -1 0
2780 90 4 0.06 26.050000 58.994000 55.390000 0 -1 0
2781 90 4 0.06 26.590000 58.494000 53.700000 0 -1 0
2782 90 4 0.06 24.860000 57.074000 53.400000 0 -1 0
2783 90 4 0.06 23.970000 57.324000 54.960000 0 -1 0
2784 90 4 0.06 25.650000 56.574000 54.960000 0 -1 0
2785 90 2 -0.12 25.750000 61.124000 52.940000 0 -1 0
2786 90 2 -0.12 24.870000 60.024000 53.670000 0 -1 0
2787 90 4 0.06 26.560000 61.544000 53.540000 0 -1 0
2788 90 4 0.06 26.360000 60.664000 52.110000 0 -1 0
2789 90 4 0.06 24.210000 59.584000 52.880000 0 -1 0
2790 90 4 0.06 24.310000 60.534000 54.430000 0 -1 0
2791 90 2 -0.12 25.610000 0.780000 50.930000 0 0 0
2792 90 2 -0.12 24.930000 0.160000 52.140000 0 0 0
2793 90 4 0.06 26.600000 1.100000 51.190000 0 0 0
2794 90 4 0.06 25.700000 0.010000 50.150000 0 0 0
2795 90 4 0.06 23.950000 61.904000 51.790000 0 -1 0
2796 90 4 0.06 24.660000 1.000000 52.820000 0 0 0
2797 90 2 -0.12 24.980000 3.190000 51.180000 0 0 0
2798 90 2 -0.12 24.990000 1.960000 50.340000 0 0 0
2799 90 4 0.06 24.740000 2.990000 52.210000 0 0 0
2800 90 4 0.06 26.040000 3.370000 51.340000 0 0 0
2801 90 4 0.06 25.570000 2.250000 49.480000 0 0 0
2802 90 4 0.06 23.990000 1.800000 49.890000 0 0 0
2803 90 2 -0.12 24.350000 5.520000 51.730000 0 0 0
2804 90 2 -0.12 24.330000 4.490000 50.610000 0 0 0
2805 90 4 0.06 23.570000 5.230000 52.440000 0 0 0
2806 90 4 0.06 25.340000 5.600000 52.220000 0 0 0
2807 90 4 0.06 24.970000 4.810000 49.830000 0 0 0
2808 90 4 0.06 23.230000 4.490000 50.330000 0 0 0
2809 91 1 0 16.900000 37.660000 48.690000 0 0 0
2810 91 2 -0.12 17.250000 37.430000 44.820000 0 0 0
2811 91 3 -0.18 17.930000 36.230000 44.160000 0 0 0
2812 91 4 0.06 16.280000 37.510000 44.360000 0 0 0
2813 91 4 0.06 17.720000 38.310000 44.640000 0 0 0
2814 91 4 0.06 17.070000 35.520000 44.210000 0 0 0
2815 91 4 0.06 18.880000 35.930000 44.550000 0 0 0
2816 91 4 0.06 18.160000 36.520000 43.190000 0 0 0
2817 91 2 -0.12 16.900000 37.070000 46.220000 0 0 0
2818 91 2 -0.12 15.900000 38.110000 46.910000 0 0 0
2819 91 4 0.06 17.790000 36.940000 46.900000 0 0 0
2820 91 4 0.06 16.450000 36.040000 46.360000 0 0 0
2821 91 4 0.06 15.080000 38.300000 46.210000 0 0 0
2822 91 4 0.06 16.510000 39.020000 47.190000 0 0 0
2823 91 2 -0.12 15.190000 37.530000 48.150000 0 0 0
2824 91 2 -0.12 16.070000 37.140000 49.350000 0 0 0
2825 91 4 0.06 14.640000 36.670000 47.900000 0 0 0
2826 91 4 0.06 14.570000 38.230000 48.670000 0 0 0
2827 91 4 0.06 17.000000 36.680000 48.870000 0 0 0
2828 91 4 0.06 15.560000 36.300000 49.920000 0 0 0
2829 91 2 -0.12 16.350000 38.260000 50.320000 0 0 0
2830 91 2 -0.12 17.320000 37.800000 51.360000 0 0 0
2831 91 4 0.06 15.390000 38.560000 50.730000 0 0 0
2832 91 4 0.06 16.730000 38.970000 49.690000 0 0 0
2833 91 4 0.06 18.120000 37.380000 50.860000 0 0 0
2834 91 4 0.06 16.790000 37.100000 52.010000 0 0 0
2835 91 2 -0.12 17.640000 38.900000 52.370000 0 0 0
2836 91 2 -0.12 18.490000 38.380000 53.590000 0 0 0
2837 91 4 0.06 16.650000 39.150000 52.830000 0 0 0
2838 91 4 0.06 17.910000 39.830000 51.950000 0 0 0
2839 91 4 0.06 19.400000 37.970000 53.390000 0 0 0
2840 91 4 0.06 17.980000 37.510000 54.080000 0 0 0
2841 92 5 0 12.790000 48.480000 51.940000 0 0 0
2842 92 2 -0.12 9.870000 44.530000 51.090000 0 0 0
2843 92 2 -0.12 10.950000 44.270000 52.020000 0 0 0
2844 92 4 0.06 8.790000 44.570000 51.520000 0 0 0
2845 92 4 0.06 9.970000 45.420000 50.480000 0 0 0
2846 92 4 0.06 11.720000 43.640000 51.700000 0 0 0
2847 92 4 0.06 10.470000 43.500000 52.670000 0 0 0
2848 92 2 -0.12 11.490000 45.470000 52.780000 0 0 0
2849 92 2 -0.12 11.860000 46.800000 51.950000 0 0 0
2850 92 4 0.06 12.320000 45.070000 53.290000 0 0 0
2851 92 4 0.06 10.830000 45.690000 53.630000 0 0 0
2852 92 4 0.06 10.940000 47.410000 51.660000 0 0 0
2853 92 4 0.06 12.250000 46.430000 51.010000 0 0 0
2854 92 2 -0.12 12.790000 47.770000 52.620000 0 0 0
2855 92 2 -0.12 13.040000 48.890000 51.540000 0 0 0
2856 92 4 0.06 13.700000 47.280000 52.890000 0 0 0
2857 92 4 0.06 12.400000 48.190000 53.500000 0 0 0
2858 92 4 0.06 12.050000 49.360000 51.330000 0 0 0
2859 92 4 0.06 13.420000 48.370000 50.650000 0 0 0
2860 92 2 -0.12 14.070000 49.920000 52.090000 0 0 0
2861 92 2 -0.12 13.890000 51.320000 51.580000 0 0 0
2862 92 4 0.06 14.910000 49.380000 51.680000 0 0 0
2863 92 4 0.06 14.150000 49.800000 53.120000 0 0 0
2864 92 4 0.06 12.880000 51.620000 51.970000 0 0 0
2865 92 4 0.06 13.910000 51.360000 50.560000 0 0 0
2866 92 2 -0.12 14.800000 52.360000 52.290000 0 0 0
2867 92 2 -0.12 15.260000 53.500000 51.430000 0 0 0
2868 92 4 0.06 15.640000 51.850000 52.680000 0 0 0
2869 92 4 0.06 14.290000 52.820000 53.150000 0 0 0
2870 92 4 0.06 14.400000 54.250000 51.450000 0 0 0
2871 92 4 0.06 15.280000 53.250000 50.310000 0 0 0
2872 93 5 0 5.780000 44.610000 58.240000 0 0 0
2873 93 2 -0.12 5.870000 39.050000 59.040000 0 0 0
2874 93 2 -0.12 5.590000 40.470000 59.430000 0 0 0
2875 93 4 0.06 6.740000 39.040000 58.350000 0 0 0
2876 93 4 0.06 6.240000 38.420000 59.850000 0 0 0
2877 93 4 0.06 6.300000 41.010000 60.150000 0 0 0
2878 93 4 0.06 4.670000 40.450000 60.030000 0 0 0
2879 93 2 -0.12 5.560000 41.590000 58.300000 0 0 0
2880 93 2 -0.12 5.010000 42.890000 58.840000 0 0 0
2881 93 4 0.06 4.760000 41.460000 57.490000 0 0 0
2882 93 4 0.06 6.570000 41.690000 57.890000 0 0 0
2883 93 4 0.06 5.540000 43.170000 59.800000 0 0 0
2884 93 4 0.06 3.960000 42.700000 59.210000 0 0 0
2885 93 2 -0.12 4.950000 44.040000 57.880000 0 0 0
2886 93 2 -0.12 5.360000 45.300000 58.590000 0 0 0
2887 93 4 0.06 4.010000 44.200000 57.550000 0 0 0
2888 93 4 0.06 5.660000 43.760000 57.020000 0 0 0
2889 93 4 0.06 6.290000 45.030000 59.110000 0 0 0
2890 93 4 0.06 4.720000 45.480000 59.490000 0 0 0
2891 93 2 -0.12 5.620000 46.490000 57.620000 0 0 0
2892 93 2 -0.12 6.170000 47.800000 58.380000 0 0 0
2893 93 4 0.06 4.620000 46.630000 57.140000 0 0 0
2894 93 4 0.06 6.350000 46.210000 56.920000 0 0 0
2895 93 4 0.06 7.160000 47.760000 58.930000 0 0 0
2896 93 4 0.06 5.360000 48.020000 59.200000 0 0 0
2897 93 2 -0.12 6.240000 49.080000 57.580000 0 0 0
2898 93 2 -0.12 7.420000 49.300000 56.650000 0 0 0
2899 93 4 0.06 6.180000 49.950000 58.240000 0 0 0
2900 93 4 0.06 5.280000 49.060000 57.120000 0 0 0
2901 93 4 0.06 7.400000 50.380000 56.390000 0 0 0
2902 93 4 0.06 7.310000 48.700000 55.770000 0 0 0
2903 94 5 0 60.724000 39.570000 57.240000 -1 0 0
2904 94 2 -0.12 55.524000 39.350000 57.560000 -1 0 0
2905 94 2 -0.12 56.644000 39.690000 56.570000 -1 0 0
2906 94 4 0.06 55.484000 38.270000 57.730000 -1 0 0
2907 94 4 0.06 55.794000 39.750000 58.580000 -1 0 0
2908 94 4 0.06 56.524000 40.750000 56.320000 -1 0 0
2909 94 4 0.06 56.414000 39.150000 55.620000 -1 0 0
2910 94 2 -0.12 58.064000 39.280000 57.040000 -1 0 0
2911 94 2 -0.12 59.264000 39.810000 56.220000 -1 0 0
2912 94 4 0.06 58.114000 38.200000 57.000000 -1 0 0
2913 94 4 0.06 58.114000 39.370000 58.120000 -1 0 0
2914 94 4 0.06 59.294000 40.890000 56.320000 -1 0 0
2915 94 4 0.06 59.044000 39.470000 55.200000 -1 0 0
2916 94 2 -0.12 60.594000 39.330000 56.740000 -1 0 0
2917 94 2 -0.12 60.994000 40.100000 58.000000 -1 0 0
2918 94 4 0.06 61.374000 39.510000 56.010000 -1 0 0
2919 94 4 0.06 60.694000 38.280000 56.990000 -1 0 0
2920 94 4 0.06 60.204000 40.010000 58.620000 -1 0 0
2921 94 4 0.06 61.004000 41.100000 57.720000 -1 0 0
2922 94 2 -0.12 0.400000 39.700000 58.500000 0 0 0
2923 94 2 -0.12 1.340000 39.570000 57.350000 0 0 0
2924 94 4 0.06 0.360000 38.680000 58.920000 0 0 0
2925 94 4 0.06 0.790000 40.360000 59.220000 0 0 0
2926 94 4 0.06 1.280000 40.450000 56.660000 0 0 0
2927 94 4 0.06 1.220000 38.700000 56.670000 0 0 0
2928 94 2 -0.12 2.750000 39.630000 57.800000 0 0 0
2929 94 2 -0.12 3.660000 39.340000 56.670000 0 0 0
2930 94 4 0.06 2.760000 38.860000 58.620000 0 0 0
2931 94 4 0.06 2.840000 40.600000 58.390000 0 0 0
2932 94 4 0.06 3.350000 39.920000 55.850000 0 0 0
2933 94 4 0.06 3.650000 38.330000 56.320000 0 0 0
2934 95 5 0 1.940000 31.150000 60.160000 0 0 0
2935 95 2 -0.12 60.474000 31.650000 2.006000 -1 0 1
2936 95 2 -0.12 61.334000 31.340000 0.816000 -1 0 1
2937 95 4 0.06 60.964000 31.170000 2.866000 -1 0 1
2938 95 4 0.06 60.654000 32.700000 2.206000 -1 0 1
2939 95 4 0.06 61.414000 32.290000 0.276000 -1 0 1
2940 95 4 0.06 60.834000 30.720000 0.186000 -1 0 1
2941 95 2 -0.12 0.660000 30.680000 1.106000 0 0 1
2942 95 2 -0.12 1.430000 30.400000 61.790000 0 0 0
2943 95 4 0.06 0.410000 29.720000 1.586000 0 0 1
2944 95 4 0.06 1.220000 31.420000 1.696000 0 0 1
2945 95 4 0.06 0.840000 30.090000 60.920000 0 0 0
2946 95 4 0.06 1.980000 29.440000 0.056000 0 0 1
2947 95 2 -0.12 2.500000 31.510000 61.450000 0 0 0
2948 95 2 -0.12 3.390000 31.210000 60.210000 0 0 0
2949 95 4 0.06 3.270000 31.700000 0.256000 0 0 1
2950 95 4 0.06 1.950000 32.480000 61.410000 0 0 0
2951 95 4 0.06 3.680000 30.160000 60.270000 0 0 0
2952 95 4 0.06 4.340000 31.830000 60.300000 0 0 0
2953 95 2 -0.12 2.790000 31.540000 58.910000 0 0 0
2954 95 2 -0.12 3.510000 30.910000 57.700000 0 0 0
2955 95 4 0.06 2.940000 32.580000 58.710000 0 0 0
2956 95 4 0.06 1.780000 31.160000 58.680000 0 0 0
2957 95 4 0.06 3.280000 29.870000 57.830000 0 0 0
2958 95 4 0.06 4.630000 30.920000 57.820000 0 0 0
2959 95 2 -0.12 3.170000 31.450000 56.380000 0 0 0
2960 95 2 -0.12 3.920000 30.720000 55.220000 0 0 0
2961 95 4 0.06 3.570000 32.490000 56.300000 0 0 0
2962 95 4 0.06 2.090000 31.510000 56.080000 0 0 0
2963 95 4 0.06 4.990000 30.320000 55.590000 0 0 0
2964 95 4 0.06 4.150000 31.490000 54.520000 0 0 0
2965 96 5 0 4.240000 32.960000 8.446000 0 0 1
2966 96 2 -0.12 0.170000 34.940000 11.836000 0 0 1
2967 96 2 -0.12 0.740000 34.440000 10.496000 0 0 1
2968 96 4 0.06 61.144000 35.410000 11.666000 -1 0 1
2969 96 4 0.06 61.984000 34.050000 12.446000 -1 0 1
2970 96 4 0.06 0.700000 35.330000 9.786000 0 0 1
2971 96 4 0.06 0.160000 33.570000 10.006000 0 0 1
2972 96 2 -0.12 2.310000 34.160000 10.496000 0 0 1
2973 96 2 -0.12 2.760000 33.650000 9.146000 0 0 1
2974 96 4 0.06 2.550000 33.420000 11.276000 0 0 1
2975 96 4 0.06 2.830000 35.100000 10.836000 0 0 1
2976 96 4 0.06 2.540000 34.380000 8.336000 0 0 1
2977 96 4 0.06 2.260000 32.760000 8.806000 0 0 1
2978 96 2 -0.12 4.240000 33.210000 9.246000 0 0 1
2979 96 2 -0.12 4.710000 33.070000 7.816000 0 0 1
2980 96 4 0.06 4.270000 32.240000 9.666000 0 0 1
2981 96 4 0.06 4.870000 33.850000 9.856000 0 0 1
2982 96 4 0.06 4.560000 34.050000 7.396000 0 0 1
2983 96 4 0.06 3.980000 32.440000 7.256000 0 0 1
2984 96 2 -0.12 5.940000 32.260000 7.616000 0 0 1
2985 96 2 -0.12 6.460000 32.380000 6.226000 0 0 1
2986 96 4 0.06 5.730000 31.210000 7.896000 0 0 1
2987 96 4 0.06 6.630000 32.520000 8.346000 0 0 1
2988 96 4 0.06 6.660000 33.470000 6.096000 0 0 1
2989 96 4 0.06 5.610000 32.270000 5.536000 0 0 1
2990 96 2 -0.12 7.750000 31.530000 5.976000 0 0 1
2991 96 2 -0.12 7.500000 29.930000 5.696000 0 0 1
2992 96 4 0.06 8.620000 31.840000 6.616000 0 0 1
2993 96 4 0.06 8.180000 31.970000 5.066000 0 0 1
2994 96 4 0.06 6.760000 29.980000 4.886000 0 0 1
2995 96 4 0.06 7.140000 29.430000 6.626000 0 0 1
2996 97 5 0 57.354000 34.810000 6.556000 -1 0 1
2997 97 2 -0.12 56.514000 39.640000 8.416000 -1 0 1
2998 97 2 -0.12 56.404000 38.160000 8.046000 -1 0 1
2999 97 4 0.06 57.344000 39.660000 9.176000 -1 0 1
3000 97 4 0.06 56.854000 40.140000 7.566000 -1 0 1
3001 97 4 0.06 55.514000 38.090000 7.386000 -1 0 1
3002 97 4 0.06 56.144000 37.560000 9.006000 -1 0 1
3003 97 2 -0.12 57.684000 37.530000 7.416000 -1 0 1
3004 97 2 -0.12 57.524000 36.160000 6.856000 -1 0 1
3005 97 4 0.06 58.314000 37.510000 8.296000 -1 0 1
3006 97 4 0.06 57.884000 38.170000 6.526000 -1 0 1
3007 97 4 0.06 56.704000 36.180000 6.186000 -1 0 1
3008 97 4 0.06 57.294000 35.520000 7.706000 -1 0 1
3009 97 2 -0.12 58.714000 35.660000 6.086000 -1 0 1
3010 97 2 -0.12 58.464000 34.400000 5.196000 -1 0 1
3011 97 4 0.06 59.344000 35.470000 6.886000 -1 0 1
3012 97 4 0.06 59.304000 36.320000 5.576000 -1 0 1
3013 97 4 0.06 59.504000 34.290000 4.746000 -1 0 1
3014 97 4 0.06 57.824000 34.700000 4.386000 -1 0 1
3015 97 2 -0.12 57.904000 33.180000 6.006000 -1 0 1
3016 97 2 -0.12 57.374000 32.000000 5.126000 -1 0 1
3017 97 4 0.06 57.084000 33.510000 6.466000 -1 0 1
3018 97 4 0.06 58.554000 32.910000 6.826000 -1 0 1
3019 97 4 0.06 58.064000 31.870000 4.306000 -1 0 1
3020 97 4 0.06 56.484000 32.530000 4.866000 -1 0 1
3021 97 2 -0.12 57.024000 30.590000 5.686000 -1 0 1
3022 97 2 -0.12 55.854000 30.710000 6.696000 -1 0 1
3023 97 4 0.06 57.934000 30.250000 6.096000 -1 0 1
3024 97 4 0.06 56.834000 29.880000 4.866000 -1 0 1
3025 97 4 0.06 55.234000 31.610000 6.486000 -1 0 1
3026 97 4 0.06 56.384000 31.000000 7.636000 -1 0 1
3027 98 5 0 0.650000 43.780000 9.556000 0 0 1
3028 98 2 -0.12 59.834000 47.770000 10.406000 -1 0 1
3029 98 2 -0.12 60.344000 46.480000 11.016000 -1 0 1
3030 98 4 0.06 59.624000 47.400000 9.456000 -1 0 1
3031 98 4 0.06 58.924000 48.160000 10.996000 -1 0 1
3032 98 4 0.06 59.534000 45.730000 11.066000 -1 0 1
3033 98 4 0.06 60.624000 46.670000 11.996000 -1 0 1
3034 98 2 -0.12 61.574000 45.900000 10.286000 -1 0 1
3035 98 2 -0.12 0.150000 44.480000 10.546000 0 0 1
3036 98 4 0.06 0.440000 46.470000 10.616000 0 0 1
3037 98 4 0.06 61.444000 45.990000 9.216000 -1 0 1
3038 98 4 0.06 61.934000 44.200000 11.556000 -1 0 1
3039 98 4 0.06 1.230000 44.580000 10.306000 0 0 1
3040 98 2 -0.12 61.424000 43.370000 9.776000 -1 0 1
3041 98 2 -0.12 0.140000 41.990000 9.916000 0 0 1
3042 98 4 0.06 61.144000 43.640000 8.756000 -1 0 1
3043 98 4 0.06 60.434000 43.230000 10.246000 -1 0 1
3044 98 4 0.06 61.554000 41.140000 10.146000 -1 0 1
3045 98 4 0.06 0.820000 42.050000 10.766000 0 0 1
3046 98 2 -0.12 1.100000 41.690000 8.826000 0 0 1
3047 98 2 -0.12 2.330000 42.700000 8.706000 0 0 1
3048 98 4 0.06 0.610000 41.890000 7.836000 0 0 1
3049 98 4 0.06 1.520000 40.690000 9.046000 0 0 1
3050 98 4 0.06 2.940000 42.910000 9.686000 0 0 1
3051 98 4 0.06 1.890000 43.630000 8.326000 0 0 1
3052 98 2 -0.12 3.330000 42.190000 7.666000 0 0 1
3053 98 2 -0.12 4.360000 41.210000 8.296000 0 0 1
3054 98 4 0.06 3.900000 42.910000 7.156000 0 0 1
3055 98 4 0.06 2.780000 41.560000 6.906000 0 0 1
3056 98 4 0.06 3.660000 40.570000 8.856000 0 0 1
3057 98 4 0.06 4.920000 41.740000 9.096000 0 0 1
3058 99 5 0 5.890000 53.880000 7.846000 0 0 1
3059 99 2 -0.12 2.820000 58.010000 5.846000 0 0 1
3060 99 2 -0.12 3.530000 56.900000 6.666000 0 0 1
3061 99 4 0.06 3.530000 58.430000 5.166000 0 0 1
3062 99 4 0.06 2.040000 57.570000 5.196000 0 0 1
3063 99 4 0.06 2.850000 56.560000 7.366000 0 0 1
3064 99 4 0.06 4.330000 57.390000 7.206000 0 0 1
3065 99 2 -0.12 4.220000 55.860000 5.816000 0 0 1
3066 99 2 -0.12 5.430000 55.190000 6.326000 0 0 1
3067 99 4 0.06 4.410000 56.050000 4.756000 0 0 1
3068 99 4 0.06 3.460000 55.030000 5.896000 0 0 1
3069 99 4 0.06 6.080000 55.970000 6.766000 0 0 1
3070 99 4 0.06 5.860000 54.590000 5.446000 0 0 1
3071 99 2 -0.12 5.170000 54.150000 7.466000 0 0 1
3072 99 2 -0.12 6.550000 53.590000 7.676000 0 0 1
3073 99 4 0.06 4.630000 53.290000 7.196000 0 0 1
3074 99 4 0.06 4.810000 54.630000 8.286000 0 0 1
3075 99 4 0.06 7.360000 54.270000 7.976000 0 0 1
3076 99 4 0.06 6.940000 53.030000 6.806000 0 0 1
3077 99 2 -0.12 6.510000 52.450000 8.766000 0 0 1
3078 99 2 -0.12 7.820000 51.790000 9.126000 0 0 1
3079 99 4 0.06 5.680000 51.790000 8.446000 0 0 1
3080 99 4 0.06 6.260000 52.960000 9.646000 0 0 1
3081 99 4 0.06 8.390000 52.530000 9.536000 0 0 1
3082 99 4 0.06 8.370000 51.560000 8.186000 0 0 1
3083 99 2 -0.12 7.690000 50.480000 10.116000 0 0 1
3084 99 2 -0.12 9.170000 50.380000 10.716000 0 0 1
3085 99 4 0.06 7.410000 49.680000 9.446000 0 0 1
3086 99 4 0.06 6.840000 50.520000 10.876000 0 0 1
3087 99 4 0.06 9.190000 51.080000 11.536000 0 0 1
3088 99 4 0.06 9.910000 50.730000 10.036000 0 0 1
3089 100 1 0 60.784000 51.800000 60.390000 -1 0 0
3090 100 2 -0.12 61.394000 48.150000 0.486000 -1 0 1
3091 100 3 -0.18 60.734000 46.710000 0.546000 -1 0 1
3092 100 4 0.06 61.784000 48.280000 1.526000 -1 0 1
3093 100 4 0.06 0.320000 47.780000 61.840000 0 0 0
3094 100 4 0.06 60.594000 46.360000 61.540000 -1 0 0
3095 100 4 0.06 59.704000 46.610000 1.096000 -1 0 1
3096 100 4 0.06 61.384000 45.860000 1.096000 -1 0 1
3097 100 2 -0.12 61.484000 50.410000 61.080000 -1 0 0
3098 100 2 -0.12 60.604000 49.310000 61.810000 -1 0 0
3099 100 4 0.06 0.290000 50.830000 61.680000 0 0 0
3100 100 4 0.06 0.090000 49.950000 60.250000 0 0 0
3101 100 4 0.06 59.944000 48.870000 61.020000 -1 0 0
3102 100 4 0.06 60.044000 49.820000 0.566000 -1 0 1
3103 100 2 -0.12 61.344000 52.070000 59.070000 -1 0 0
3104 100 2 -0.12 60.664000 51.450000 60.280000 -1 0 0
3105 100 4 0.06 0.330000 52.390000 59.330000 0 0 0
3106 100 4 0.06 61.434000 51.300000 58.290000 -1 0 0
3107 100 4 0.06 59.684000 51.190000 59.930000 -1 0 0
3108 100 4 0.06 60.394000 52.290000 60.960000 -1 0 0
3109 100 2 -0.12 60.714000 54.480000 59.320000 -1 0 0
3110 100 2 -0.12 60.724000 53.250000 58.480000 -1 0 0
3111 100 4 0.06 60.474000 54.280000 60.350000 -1 0 0
3112 100 4 0.06 61.774000 54.660000 59.480000 -1 0 0
3113 100 4 0.06 61.304000 53.540000 57.620000 -1 0 0
3114 100 4 0.06 59.724000 53.090000 58.030000 -1 0 0
3115 100 2 -0.12 60.084000 56.810000 59.870000 -1 0 0
3116 100 2 -0.12 60.064000 55.780000 58.750000 -1 0 0
3117 100 4 0.06 59.304000 56.520000 60.580000 -1 0 0
3118 100 4 0.06 61.074000 56.890000 60.360000 -1 0 0
3119 100 4 0.06 60.704000 56.100000 57.970000 -1 0 0
3120 100 4 0.06 58.964000 55.780000 58.470000 -1 0 0

Bonds

1 1 2 3
2 2 2 4
3 2 2 5
4 1 2 9
5 2 3 6
6 2 3 7
7 2 3 8
8 1 9 10
9 2 9 11
10 2 9 12
11 2 10 13
12 2 10 14
13 1 10 15
14 1 15 16
15 2 15 17
16 2 15 18
17 2 16 19
18 2 16 20
19 1 16 21
20 1 21 22
21 2 21 23
22 2 21 24
23 2 22 25
24 2 22 26
25 1 22 27
26 1 27 28
27 2 27 29
28 2 27 30
29 2 28 31
30 2 28 32
31 1 34 35
32 2 34 36
33 2 34 37
34 2 35 38
35 2 35 39
36 1 35 40
37 1 40 41
38 2 40 42
39 2 40 43
40 2 41 44
41 2 41 45
42 1 41 46
43 1 46 47
44 2 46 48
45 2 46 49
46 2 47 50
47 2 47 51
48 1 47 52
49 1 52 53
50 2 52 54
51 2 52 55
52 2 53 56
53 2 53 57
54 1 53 58
55 1 58 59
56 2 58 60
57 2 58 61
58 2 59 62
59 2 59 63
60 1 65 66
61 2 65 67
62 2 65 68
63 2 66 69
64 2 66 70
65 1 66 71
66 1 71 72
67 2 71 73
68 2 71 74
69 2 72 75
70 2 72 76
71 1 72 77
72 1 77 78
73 2 77 79
74 2 77 80
75 2 78 81
76 2 78 82
77 1 78 83
78 1 83 84
79 2 83 85
80 2 83 86
81 2 84 87
82 2 84 88
83 1 84 89
84 1 89 90
85 2 89 91
86 2 89 92
87 2 90 93
88 2 90 94
89 1 96 97
90 2 96 98
91 2 96 99
92 2 97 100
93 2 97 101
94 1 97 102
95 1 102 103
96 2 102 104
97 2 102 105
98 2 103 106
99 2 103 107
100 1 103 108
101 1 108 109
102 2 108 110
103 2 108 111
104 2 109 112
105 2 109 113
106 1 109 114
107 1 114 115
108 2 114 116
109 2 114 117
110 2 115 118
111 2 115 119
112 1 115 120
113 1 120 121
114 2 120 122
115 2 120 123
116 2 121 124
117 2 121 125
118 1 127 128
119 2 127 129
120 2 127 130
121 2 128 131
122 2 128 132
123 1 128 133
124 1 133 134
125 2 133 135
126 2 133 136
127 2 134 137
128 2 134 138
129 1 134 139
130 1 139 140
131 2 139 141
132 2 139 142
133 2 140 143
134 2 140 144
135 1 140 145
136 1 145 146
137 2 145 147
138 2 145 148
139 2 146 149
140 2 146 150
141 1 146 151
142 1 151 152
143 2 151 153
144 2 151 154
145 2 152 155
146 2 152 156
147 1 158 159
148 2 158 160
149 2 158 161
150 2 159 162
151 2 159 163
152 1 159 164
153 1 164 165
154 2 164 166
155 2 164 167
156 2 165 168
157 2 165 169
158 1 165 170
159 1 170 171
160 2 170 172
161 2 170 173
162 2 171 174
163 2 171 175
164 1 171 176
165 1 176 177
166 2 176 178
167 2 176 179
168 2 177 180
169 2 177 181
170 1 177 182
171 1 182 183
172 2 182 184
173 2 182 185
174 2 183 186
175 2 183 187
176 1 189 190
177 2 189 191
178 2 189 192
179 2 190 193
180 2 190 194
181 1 190 195
182 1 195 196
183 2 195 197
184 2 195 198
185 2 196 199
186 2 196 200
187 1 196 201
188 1 201 202
189 2 201 203
190 2 201 204
191 2 202 205
192 2 202 206
193 1 202 207
194 1 207 208
195 2 207 209
196 2 207 210
197 2 208 211
198 2 208 212
199 1 208 213
200 1 213 214
201 2 213 215
202 2 213 216
203 2 214 217
204 2 214 218
205 1 220 221
206 2 220 222
207 2 220 223
208 2 221 224
209 2 221 225
210 1 221 226
211 1 226 227
212 2 226 228
213 2 226 229
214 2 227 230
215 2 227 231
216 1 227 232
217 1 232 233
218 2 232 234
219 2 232 235
220 2 233 236
221 2 233 237
222 1 233 238
223 1 238 239
224 2 238 240
225 2 238 241
226 2 239 242
227 2 239 243
228 1 239 244
229 1 244 245
230 2 244 246
231 2 244 247
232 2 245 248
233 2 245 249
234 1 251 252
235 2 251 253
236 2 251 254
237 2 252 255
238 2 252 256
239 1 252 257
240 1 257 258
241 2 257 259
242 2 257 260
243 2 258 261
244 2 258 262
245 1 258 263
246 1 263 264
247 2 263 265
248 2 263 266
249 2 264 267
250 2 264 268
251 1 264 269
252 1 269 270
253 2 269 271
254 2 269 272
255 2 270 273
256 2 270 274
257 1 270 275
258 1 275 276
259 2 275 277
260 2 275 278
261 2 276 279
262 2 276 280
263 1 282 283
264 2 282 284
265 2 282 285
266 2 283 286
267 2 283 287
268 2 283 288
269 1 289 290
270 2 289 291
271 2 289 292
272 1 290 282
273 2 290 293
274 2 290 294
275 1 295 296
276 2 295 297
277 2 295 298
278 1 296 289
279 2 296 299
280 2 296 300
281 1 301 302
282 2 301 303
283 2 301 304
284 1 302 295
285 2 302 305
286 2 302 306
287 1 307 308
288 2 307 309
289 2 307 310
290 1 308 301
291 2 308 311
292 2 308 312
293 1 314 315
294 2 314 316
295 2 314 317
296 1 314 321
297 2 315 318
298 2 315 319
299 2 315 320
300 1 321 322
301 2 321 323
302 2 321 324
303 2 322 325
304 2 322 326
305 1 322 327
306 1 327 328
307 2 327 329
308 2 327 330
309 2 328 331
310 2 328 332
311 1 328 333
312 1 333 334
313 2 333 335
314 2 333 336
315 2 334 337
316 2 334 338
317 1 334 339
318 1 339 340
319 2 339 341
320 2 339 342
321 2 340 343
322 2 340 344
323 1 346 347
324 2 346 348
325 2 346 349
326 2 347 350
327 2 347 351
328 1 347 352
329 1 352 353
330 2 352 354
331 2 352 355
332 2 353 356
333 2 353 357
334 1 353 358
335 1 358 359
336 2 358 360
337 2 358 361
338 2 359 362
339 2 359 363
340 1 359 364
341 1 364 365
342 2 364 366
343 2 364 367
344 2 365 368
345 2 365 369
346 1 365 370
347 1 370 371
348 2 370 372
349 2 370 373
350 2 371 374
351 2 371 375
352 1 377 378
353 2 377 379
354 2 377 380
355 2 378 381
356 2 378 382
357 1 378 383
358 1 383 384
359 2 383 385
360 2 383 386
361 2 384 387
362 2 384 388
363 1 384 389
364 1 389 390
365 2 389 391
366 2 389 392
367 2 390 393
368 2 390 394
369 1 390 395
370 1 395 396
371 2 395 397
372 2 395 398
373 2 396 399
374 2 396 400
375 1 396 401
376 1 401 402
377 2 401 403
378 2 401 404
379 2 402 405
380 2 402 406
381 1 408 409
382 2 408 410
383 2 408 411
384 2 409 412
385 2 409 413
386 1 409 414
387 1 414 415
388 2 414 416
389 2 414 417
390 2 415 418
391 2 415 419
392 1 415 420
393 1 420 421
394 2 420 422
395 2 420 423
396 2 421 424
397 2 421 425
398 1 421 426
399 1 426 427
400 2 426 428
401 2 426 429
402 2 427 430
403 2 427 431
404 1 427 432
405 1 432 433
406 2 432 434
407 2 432 435
408 2 433 436
409 2 433 437
410 1 439 440
411 2 439 441
412 2 439 442
413 2 440 443
414 2 440 444
415 1 440 445
416 1 445 446
417 2 445 447
418 2 445 448
419 2 446 449
420 2 446 450
421 1 446 451
422 1 451 452
423 2 451 453
424 2 451 454
425 2 452 455
426 2 452 456
427 1 452 457
428 1 457 458
429 2 457 459
430 2 457 460
431 2 458 461
432 2 458 462
433 1 458 463
434 1 463 464
435 2 463 465
436 2 463 466
437 2 464 467
438 2 464 468
439 1 470 471
440 2 470 472
441 2 470 473
442 2 471 474
443 2 471 475
444 1 471 476
445 1 476 477
446 2 476 478
447 2 476 479
448 2 477 480
449 2 477 481
450 1 477 482
451 1 482 483
452 2 482 484
453 2 482 485
454 2 483 486
455 2 483 487
456 1 483 488
457 1 488 489
458 2 488 490
459 2 488 491
460 2 489 492
461 2 489 493
462 1 489 494
463 1 494 495
464 2 494 496
465 2 494 497
466 2 495 498
467 2 495 499
468 1 501 502
469 2 501 503
470 2 501 504
471 2 502 505
472 2 502 506
473 1 502 507
474 1 507 508
475 2 507 509
476 2 507 510
477 2 508 511
478 2 508 512
479 1 508 513
480 1 513 514
481 2 513 515
482 2 513 516
483 2 514 517
484 2 514 518
485 1 514 519
486 1 519 520
487 2 519 521
488 2 519 522
489 2 520 523
490 2 520 524
491 1 520 525
492 1 525 526
493 2 525 527
494 2 525 528
495 2 526 529
496 2 526 530
497 1 532 533
498 2 532 534
499 2 532 535
500 2 533 536
501 2 533 537
502 1 533 538
503 1 538 539
504 2 538 540
505 2 538 541
506 2 539 542
507 2 539 543
508 1 539 544
509 1 544 545
510 2 544 546
511 2 544 547
512 2 545 548
513 2 545 549
514 1 545 550
515 1 550 551
516 2 550 552
517 2 550 553
518 2 551 554
519 2 551 555
520 1 551 556
521 1 556 557
522 2 556 558
523 2 556 559
524 2 557 560
525 2 557 561
526 1 563 564
527 2 563 565
528 2 563 566
529 2 564 567
530 2 564 568
531 1 564 569
532 1 569 570
533 2 569 571
534 2 569 572
535 2 570 573
536 2 570 574
537 1 570 575
538 1 575 576
539 2 575 577
540 2 575 578
541 2 576 579
542 2 576 580
543 1 576 581
544 1 581 582
545 2 581 583
546 2 581 584
547 2 582 585
548 2 582 586
549 1 582 587
550 1 587 588
551 2 587 589
552 2 587 590
553 2 588 591
554 2 588 592
555 1 594 595
556 2 594 596
557 2 594 597
558 2 595 598
559 2 595 599
560 2 595 600
561 1 601 602
562 2 601 603
563 2 601 604
564 1 602 594
565 2 602 605
566 2 602 606
567 1 607 608
568 2 607 609
569 2 607 610
570 1 608 601
571 2 608 611
572 2 608 612
573 1 613 614
574 2 613 615
575 2 613 616
576 1 614 607
577 2 614 617
578 2 614 618
579 1 619 620
580 2 619 621
581 2 619 622
582 1 620 613
583 2 620 623
584 2 620 624
585 1 626 627
586 2 626 628
587 2 626 629
588 1 626 633
589 2 627 630
590 2 627 631
591 2 627 632
592 1 633 634
593 2 633 635
594 2 633 636
595 2 634 637
596 2 634 638
597 1 634 639
598 1 639 640
599 2 639 641
600 2 639 642
601 2 640 643
602 2 640 644
603 1 640 645
604 1 645 646
605 2 645 647
606 2 645 648
607 2 646 649
608 2 646 650
609 1 646 651
610 1 651 652
611 2 651 653
612 2 651 654
613 2 652 655
614 2 652 656
615 1 658 659
616 2 658 660
617 2 658 661
618 2 659 662
619 2 659 663
620 1 659 664
621 1 664 665
622 2 664 666
623 2 664 667
624 2 665 668
625 2 665 669
626 1 665 670
627 1 670 671
628 2 670 672
629 2 670 673
630 2 671 674
631 2 671 675
632 1 671 676
633 1 676 677
634 2 676 678
635 2 676 679
636 2 677 680
637 2 677 681
638 1 677 682
639 1 682 683
640 2 682 684
641 2 682 685
642 2 683 686
643 2 683 687
644 1 689 690
645 2 689 691
646 2 689 692
647 2 690 693
648 2 690 694
649 1 690 695
650 1 695 696
651 2 695 697
652 2 695 698
653 2 696 699
654 2 696 700
655 1 696 701
656 1 701 702
657 2 701 703
658 2 701 704
659 2 702 705
660 2 702 706
661 1 702 707
662 1 707 708
663 2 707 709
664 2 707 710
665 2 708 711
666 2 708 712
667 1 708 713
668 1 713 714
669 2 713 715
670 2 713 716
671 2 714 717
672 2 714 718
673 1 720 721
674 2 720 722
675 2 720 723
676 2 721 724
677 2 721 725
678 1 721 726
679 1 726 727
680 2 726 728
681 2 726 729
682 2 727 730
683 2 727 731
684 1 727 732
685 1 732 733
686 2 732 734
687 2 732 735
688 2 733 736
689 2 733 737
690 1 733 738
691 1 738 739
692 2 738 740
693 2 738 741
694 2 739 742
695 2 739 743
696 1 739 744
697 1 744 745
698 2 744 746
699 2 744 747
700 2 745 748
701 2 745 749
702 1 751 752
703 2 751 753
704 2 751 754
705 2 752 755
706 2 752 756
707 1 752 757
708 1 757 758
709 2 757 759
710 2 757 760
711 2 758 761
712 2 758 762
713 1 758 763
714 1 763 764
715 2 763 765
716 2 763 766
717 2 764 767
718 2 764 768
719 1 764 769
720 1 769 770
721 2 769 771
722 2 769 772
723 2 770 773
724 2 770 774
725 1 770 775
726 1 775 776
727 2 775 777
728 2 775 778
729 2 776 779
730 2 776 780
731 1 782 783
732 2 782 784
733 2 782 785
734 2 783 786
735 2 783 787
736 1 783 788
737 1 788 789
738 2 788 790
739 2 788 791
740 2 789 792
741 2 789 793
742 1 789 794
743 1 794 795
744 2 794 796
745 2 794 797
746 2 795 798
747 2 795 799
748 1 795 800
749 1 800 801
750 2 800 802
751 2 800 803
752 2 801 804
753 2 801 805
754 1 801 806
755 1 806 807
756 2 806 808
757 2 806 809
758 2 807 810
759 2 807 811
760 1 813 814
761 2 813 815
762 2 813 816
763 2 814 817
764 2 814 818
765 1 814 819
766 1 819 820
767 2 819 821
768 2 819 822
769 2 820 823
770 2 820 824
771 1 820 825
772 1 825 826
773 2 825 827
774 2 825 828
775 2 826 829
776 2 826 830
777 1 826 831
778 1 831 832
779 2 831 833
780 2 831 834
781 2 832 835
782 2 832 836
783 1 832 837
784 1 837 838
785 2 837 839
786 2 837 840
787 2 838 841
788 2 838 842
789 1 844 845
790 2 844 846
791 2 844 847
792 2 845 848
793 2 845 849
794 1 845 850
795 1 850 851
796 2 850 852
797 2 850 853
798 2 851 854
799 2 851 855
800 1 851 856
801 1 856 857
802 2 856 858
803 2 856 859
804 2 857 860
805 2 857 861
806 1 857 862
807 1 862 863
808 2 862 864
809 2 862 865
810 2 863 866
811 2 863 867
812 1 863 868
813 1 868 869
814 2 868 870
815 2 868 871
816 2 869 872
817 2 869 873
818 1 875 876
819 2 875 877
820 2 875 878
821 2 876 879
822 2 876 880
823 1 876 881
824 1 881 882
825 2 881 883
826 2 881 884
827 2 882 885
828 2 882 886
829 1 882 887
830 1 887 888
831 2 887 889
832 2 887 890
833 2 888 891
834 2 888 892
835 1 888 893
836 1 893 894
837 2 893 895
838 2 893 896
839 2 894 897
840 2 894 898
841 1 894 899
842 1 899 900
843 2 899 901
844 2 899 902
845 2 900 903
846 2 900 904
847 1 906 907
848 2 906 908
849 2 906 909
850 2 907 910
851 2 907 911
852 2 907 912
853 1 913 914
854 2 913 915
855 2 913 916
856 1 914 906
857 2 914 917
858 2 914 918
859 1 919 920
860 2 919 921
861 2 919 922
862 1 920 913
863 2 920 923
864 2 920 924
865 1 925 926
866 2 925 927
867 2 925 928
868 1 926 919
869 2 926 929
870 2 926 930
871 1 931 932
872 2 931 933
873 2 931 934
874 1 932 925
875 2 932 935
876 2 932 936
877 1 938 939
878 2 938 940
879 2 938 941
880 1 938 945
881 2 939 942
882 2 939 943
883 2 939 944
884 1 945 946
885 2 945 947
886 2 945 948
887 2 946 949
888 2 946 950
889 1 946 951
890 1 951 952
891 2 951 953
892 2 951 954
893 2 952 955
894 2 952 956
895 1 952 957
896 1 957 958
897 2 957 959
898 2 957 960
899 2 958 961
900 2 958 962
901 1 958 963
902 1 963 964
903 2 963 965
904 2 963 966
905 2 964 967
906 2 964 968
907 1 970 971
908 2 970 972
909 2 970 973
910 2 971 974
911 2 971 975
912 1 971 976
913 1 976 977
914 2 976 978
915 2 976 979
916 2 977 980
917 2 977 981
918 1 977 982
919 1 982 983
920 2 982 984
921 2 982 985
922 2 983 986
923 2 983 987
924 1 983 988
925 1 988 989
926 2 988 990
927 2 988 991
928 2 989 992
929 2 989 993
930 1 989 994
931 1 994 995
932 2 994 996
933 2 994 997
934 2 995 998
935 2 995 999
936 1 1001 1002
937 2 1001 1003
938 2 1001 1004
939 2 1002 1005
940 2 1002 1006
941 1 1002 1007
942 1 1007 1008
943 2 1007 1009
944 2 1007 1010
945 2 1008 1011
946 2 1008 1012
947 1 1008 1013
948 1 1013 1014
949 2 1013 1015
950 2 1013 1016
951 2 1014 1017
952 2 1014 1018
953 1 1014 1019
954 1 1019 1020
955 2 1019 1021
956 2 1019 1022
957 2 1020 1023
958 2 1020 1024
959 1 1020 1025
960 1 1025 1026
961 2 1025 1027
962 2 1025 1028
963 2 1026 1029
964 2 1026 1030
965 1 1032 1033
966 2 1032 1034
967 2 1032 1035
968 2 1033 1036
969 2 1033 1037
970 1 1033 1038
971 1 1038 1039
972 2 1038 1040
973 2 1038 1041
974 2 1039 1042
975 2 1039 1043
976 1 1039 1044
977 1 1044 1045
978 2 1044 1046
979 2 1044 1047
980 2 1045 1048
981 2 1045 1049
982 1 1045 1050
983 1 1050 1051
984 2 1050 1052
985 2 1050 1053
986 2 1051 1054
987 2 1051 1055
988 1 1051 1056
989 1 1056 1057
990 2 1056 1058
991 2 1056 1059
992 2 1057 1060
993 2 1057 1061
994 1 1063 1064
995 2 1063 1065
996 2 1063 1066
997 2 1064 1067
998 2 1064 1068
999 1 1064 1069
1000 1 1069 1070
1001 2 1069 1071
1002 2 1069 1072
1003 2 1070 1073
1004 2 1070 1074
1005 1 1070 1075
1006 1 1075 1076
1007 2 1075 1077
1008 2 1075 1078
1009 2 1076 1079
1010 2 1076 1080
1011 1 1076 1081
1012 1 1081 1082
1013 2 1081 1083
1014 2 1081 1084
1015 2 1082 1085
1016 2 1082 1086
1017 1 1082 1087
1018 1 1087 1088
1019 2 1087 1089
1020 2 1087 1090
1021 2 1088 1091
1022 2 1088 1092
1023 1 1094 1095
1024 2 1094 1096
1025 2 1094 1097
1026 2 1095 1098
1027 2 1095 1099
1028 1 1095 1100
1029 1 1100 1101
1030 2 1100 1102
1031 2 1100 1103
1032 2 1101 1104
1033 2 1101 1105
1034 1 1101 1106
1035 1 1106 1107
1036 2 1106 1108
1037 2 1106 1109
1038 2 1107 1110
1039 2 1107 1111
1040 1 1107 1112
1041 1 1112 1113
1042 2 1112 1114
1043 2 1112 1115
1044 2 1113 1116
1045 2 1113 1117
1046 1 1113 1118
1047 1 1118 1119
1048 2 1118 1120
1049 2 1118 1121
1050 2 1119 1122
1051 2 1119 1123
1052 1 1125 1126
1053 2 1125 1127
1054 2 1125 1128
1055 2 1126 1129
1056 2 1126 1130
1057 1 1126 1131
1058 1 1131 1132
1059 2 1131 1133
1060 2 1131 1134
1061 2 1132 1135
1062 2 1132 1136
1063 1 1132 1137
1064 1 1137 1138
1065 2 1137 1139
1066 2 1137 1140
1067 2 1138 1141
1068 2 1138 1142
1069 1 1138 1143
1070 1 1143 1144
1071 2 1143 1145
1072 2 1143 1146
1073 2 1144 1147
1074 2 1144 1148
1075 1 1144 1149
1076 1 1149 1150
1077 2 1149 1151
1078 2 1149 1152
1079 2 1150 1153
1080 2 1150 1154
1081 1 1156 1157
1082 2 1156 1158
1083 2 1156 1159
1084 2 1157 1160
1085 2 1157 1161
1086 1 1157 1162
1087 1 1162 1163
1088 2 1162 1164
1089 2 1162 1165
1090 2 1163 1166
1091 2 1163 1167
1092 1 1163 1168
1093 1 1168 1169
1094 2 1168 1170
1095 2 1168 1171
1096 2 1169 1172
1097 2 1169 1173
1098 1 1169 1174
1099 1 1174 1175
1100 2 1174 1176
1101 2 1174 1177
1102 2 1175 1178
1103 2 1175 1179
1104 1 1175 1180
1105 1 1180 1181
1106 2 1180 1182
1107 2 1180 1183
1108 2 1181 1184
1109 2 1181 1185
1110 1 1187 1188
1111 2 1187 1189
1112 2 1187 1190
1113 2 1188 1191
1114 2 1188 1192
1115 1 1188 1193
1116 1 1193 1194
1117 2 1193 1195
1118 2 1193 1196
1119 2 1194 1197
1120 2 1194 1198
1121 1 1194 1199
1122 1 1199 1200
1123 2 1199 1201
1124 2 1199 1202
1125 2 1200 1203
1126 2 1200 1204
1127 1 1200 1205
1128 1 1205 1206
1129 2 1205 1207
1130 2 1205 1208
1131 2 1206 1209
1132 2 1206 1210
1133 1 1206 1211
1134 1 1211 1212
1135 2 1211 1213
1136 2 1211 1214
1137 2 1212 1215
1138 2 1212 1216
1139 1 1218 1219
1140 2 1218 1220
1141 2 1218 1221
1142 2 1219 1222
1143 2 1219 1223
1144 2 1219 1224
1145 1 1225 1226
1146 2 1225 1227
1147 2 1225 1228
1148 1 1226 1218
1149 2 1226 1229
1150 2 1226 1230
1151 1 1231 1232
1152 2 1231 1233
1153 2 1231 1234
1154 1 1232 1225
1155 2 1232 1235
1156 2 1232 1236
1157 1 1237 1238
1158 2 1237 1239
1159 2 1237 1240
1160 1 1238 1231
1161 2 1238 1241
1162 2 1238 1242
1163 1 1243 1244
1164 2 1243 1245
1165 2 1243 1246
1166 1 1244 1237
1167 2 1244 1247
1168 2 1244 1248
1169 1 1250 1251
1170 2 1250 1252
1171 2 1250 1253
1172 1 1250 1257
1173 2 1251 1254
1174 2 1251 1255
1175 2 1251 1256
1176 1 1257 1258
1177 2 1257 1259
1178 2 1257 1260
1179 2 1258 1261
1180 2 1258 1262
1181 1 1258 1263
1182 1 1263 1264
1183 2 1263 1265
1184 2 1263 1266
1185 2 1264 1267
1186 2 1264 1268
1187 1 1264 1269
1188 1 1269 1270
1189 2 1269 1271
1190 2 1269 1272
1191 2 1270 1273
1192 2 1270 1274
1193 1 1270 1275
1194 1 1275 1276
1195 2 1275 1277
1196 2 1275 1278
1197 2 1276 1279
1198 2 1276 1280
1199 1 1282 1283
1200 2 1282 1284
1201 2 1282 1285
1202 2 1283 1286
1203 2 1283 1287
1204 1 1283 1288
1205 1 1288 1289
1206 2 1288 1290
1207 2 1288 1291
1208 2 1289 1292
1209 2 1289 1293
1210 1 1289 1294
1211 1 1294 1295
1212 2 1294 1296
1213 2 1294 1297
1214 2 1295 1298
1215 2 1295 1299
1216 1 1295 1300
1217 1 1300 1301
1218 2 1300 1302
1219 2 1300 1303
1220 2 1301 1304
1221 2 1301 1305
1222 1 1301 1306
1223 1 1306 1307
1224 2 1306 1308
1225 2 1306 1309
1226 2 1307 1310
1227 2 1307 1311
1228 1 1313 1314
1229 2 1313 1315
1230 2 1313 1316
1231 2 1314 1317
1232 2 1314 1318
1233 1 1314 1319
1234 1 1319 1320
1235 2 1319 1321
1236 2 1319 1322
1237 2 1320 1323
1238 2 1320 1324
1239 1 1320 1325
1240 1 1325 1326
1241 2 1325 1327
1242 2 1325 1328
1243 2 1326 1329
1244 2 1326 1330
1245 1 1326 1331
1246 1 1331 1332
1247 2 1331 1333
1248 2 1331 1334
1249 2 1332 1335
1250 2 1332 1336
1251 1 1332 1337
1252 1 1337 1338
1253 2 1337 1339
1254 2 1337 1340
1255 2 1338 1341
1256 2 1338 1342
1257 1 1344 1345
1258 2 1344 1346
1259 2 1344 1347
1260 2 1345 1348
1261 2 1345 1349
1262 1 1345 1350
1263 1 1350 1351
1264 2 1350 1352
1265 2 1350 1353
1266 2 1351 1354
1267 2 1351 1355
1268 1 1351 1356
1269 1 1356 1357
1270 2 1356 1358
1271 2 1356 1359
1272 2 1357 1360
1273 2 1357 1361
1274 1 1357 1362
1275 1 1362 1363
1276 2 1362 1364
1277 2 1362 1365
1278 2 1363 1366
1279 2 1363 1367
1280 1 1363 1368
1281 1 1368 1369
1282 2 1368 1370
1283 2 1368 1371
1284 2 1369 1372
1285 2 1369 1373
1286 1 1375 1376
1287 2 1375 1377
1288 2 1375 1378
1289 2 1376 1379
1290 2 1376 1380
1291 1 1376 1381
1292 1 1381 1382
1293 2 1381 1383
1294 2 1381 1384
1295 2 1382 1385
1296 2 1382 1386
1297 1 1382 1387
1298 1 1387 1388
1299 2 1387 1389
1300 2 1387 1390
1301 2 1388 1391
1302 2 1388 1392
1303 1 1388 1393
1304 1 1393 1394
1305 2 1393 1395
1306 2 1393 1396
1307 2 1394 1397
1308 2 1394 1398
1309 1 1394 1399
1310 1 1399 1400
1311 2 1399 1401
1312 2 1399 1402
1313 2 1400 1403
1314 2 1400 1404
1315 1 1406 1407
1316 2 1406 1408
1317 2 1406 1409
1318 2 1407 1410
1319 2 1407 1411
1320 1 1407 1412
1321 1 1412 1413
1322 2 1412 1414
1323 2 1412 1415
1324 2 1413 1416
1325 2 1413 1417
1326 1 1413 1418
1327 1 1418 1419
1328 2 1418 1420
1329 2 1418 1421
1330 2 1419 1422
1331 2 1419 1423
1332 1 1419 1424
1333 1 1424 1425
1334 2 1424 1426
1335 2 1424 1427
1336 2 1425 1428
1337 2 1425 1429
1338 1 1425 1430
1339 1 1430 1431
1340 2 1430 1432
1341 2 1430 1433
1342 2 1431 1434
1343 2 1431 1435
1344 1 1437 1438
1345 2 1437 1439
1346 2 1437 1440
1347 2 1438 1441
1348 2 1438 1442
1349 1 1438 1443
1350 1 1443 1444
1351 2 1443 1445
1352 2 1443 1446
1353 2 1444 1447
1354 2 1444 1448
1355 1 1444 1449
1356 1 1449 1450
1357 2 1449 1451
1358 2 1449 1452
1359 2 1450 1453
1360 2 1450 1454
1361 1 1450 1455
1362 1 1455 1456
1363 2 1455 1457
1364 2 1455 1458
1365 2 1456 1459
1366 2 1456 1460
1367 1 1456 1461
1368 1 1461 1462
1369 2 1461 1463
1370 2 1461 1464
1371 2 1462 1465
1372 2 1462 1466
1373 1 1468 1469
1374 2 1468 1470
1375 2 1468 1471
1376 2 1469 1472
1377 2 1469 1473
1378 1 1469 1474
1379 1 1474 1475
1380 2 1474 1476
1381 2 1474 1477
1382 2 1475 1478
1383 2 1475 1479
1384 1 1475 1480
1385 1 1480 1481
1386 2 1480 1482
1387 2 1480 1483
1388 2 1481 1484
1389 2 1481 1485
1390 1 1481 1486
1391 1 1486 1487
1392 2 1486 1488
1393 2 1486 1489
1394 2 1487 1490
1395 2 1487 1491
1396 1 1487 1492
1397 1 1492 1493
1398 2 1492 1494
1399 2 1492 1495
1400 2 1493 1496
1401 2 1493 1497
1402 1 1499 1500
1403 2 1499 1501
1404 2 1499 1502
1405 2 1500 1503
1406 2 1500 1504
1407 1 1500 1505
1408 1 1505 1506
1409 2 1505 1507
1410 2 1505 1508
1411 2 1506 1509
1412 2 1506 1510
1413 1 1506 1511
1414 1 1511 1512
1415 2 1511 1513
1416 2 1511 1514
1417 2 1512 1515
1418 2 1512 1516
1419 1 1512 1517
1420 1 1517 1518
1421 2 1517 1519
1422 2 1517 1520
1423 2 1518 1521
1424 2 1518 1522
1425 1 1518 1523
1426 1 1523 1524
1427 2 1523 1525
1428 2 1523 1526
1429 2 1524 1527
1430 2 1524 1528
1431 1 1530 1531
1432 2 1530 1532
1433 2 1530 1533
1434 2 1531 1534
1435 2 1531 1535
1436 2 1531 1536
1437 1 1537 1538
1438 2 1537 1539
1439 2 1537 1540
1440 1 1538 1530
1441 2 1538 1541
1442 2 1538 1542
1443 1 1543 1544
1444 2 1543 1545
1445 2 1543 1546
1446 1 1544 1537
1447 2 1544 1547
1448 2 1544 1548
1449 1 1549 1550
1450 2 1549 1551
1451 2 1549 1552
1452 1 1550 1543
1453 2 1550 1553
1454 2 1550 1554
1455 1 1555 1556
1456 2 1555 1557
1457 2 1555 1558
1458 1 1556 1549
1459 2 1556 1559
1460 2 1556 1560
1461 1 1562 1563
1462 2 1562 1564
1463 2 1562 1565
1464 1 1562 1569
1465 2 1563 1566
1466 2 1563 1567
1467 2 1563 1568
1468 1 1569 1570
1469 2 1569 1571
1470 2 1569 1572
1471 2 1570 1573
1472 2 1570 1574
1473 1 1570 1575
1474 1 1575 1576
1475 2 1575 1577
1476 2 1575 1578
1477 2 1576 1579
1478 2 1576 1580
1479 1 1576 1581
1480 1 1581 1582
1481 2 1581 1583
1482 2 1581 1584
1483 2 1582 1585
1484 2 1582 1586
1485 1 1582 1587
1486 1 1587 1588
1487 2 1587 1589
1488 2 1587 1590
1489 2 1588 1591
1490 2 1588 1592
1491 1 1594 1595
1492 2 1594 1596
1493 2 1594 1597
1494 2 1595 1598
1495 2 1595 1599
1496 1 1595 1600
1497 1 1600 1601
1498 2 1600 1602
1499 2 1600 1603
1500 2 1601 1604
1501 2 1601 1605
1502 1 1601 1606
1503 1 1606 1607
1504 2 1606 1608
1505 2 1606 1609
1506 2 1607 1610
1507 2 1607 1611
1508 1 1607 1612
1509 1 1612 1613
1510 2 1612 1614
1511 2 1612 1615
1512 2 1613 1616
1513 2 1613 1617
1514 1 1613 1618
1515 1 1618 1619
1516 2 1618 1620
1517 2 1618 1621
1518 2 1619 1622
1519 2 1619 1623
1520 1 1625 1626
1521 2 1625 1627
1522 2 1625 1628
1523 2 1626 1629
1524 2 1626 1630
1525 1 1626 1631
1526 1 1631 1632
1527 2 1631 1633
1528 2 1631 1634
1529 2 1632 1635
1530 2 1632 1636
1531 1 1632 1637
1532 1 1637 1638
1533 2 1637 1639
1534 2 1637 1640
1535 2 1638 1641
1536 2 1638 1642
1537 1 1638 1643
1538 1 1643 1644
1539 2 1643 1645
1540 2 1643 1646
1541 2 1644 1647
1542 2 1644 1648
1543 1 1644 1649
1544 1 1649 1650
1545 2 1649 1651
1546 2 1649 1652
1547 2 1650 1653
1548 2 1650 1654
1549 1 1656 1657
1550 2 1656 1658
1551 2 1656 1659
1552 2 1657 1660
1553 2 1657 1661
1554 1 1657 1662
1555 1 1662 1663
1556 2 1662 1664
1557 2 1662 1665
1558 2 1663 1666
1559 2 1663 1667
1560 1 1663 1668
1561 1 1668 1669
1562 2 1668 1670
1563 2 1668 1671
1564 2 1669 1672
1565 2 1669 1673
1566 1 1669 1674
1567 1 1674 1675
1568 2 1674 1676
1569 2 1674 1677
1570 2 1675 1678
1571 2 1675 1679
1572 1 1675 1680
1573 1 1680 1681
1574 2 1680 1682
1575 2 1680 1683
1576 2 1681 1684
1577 2 1681 1685
1578 1 1687 1688
1579 2 1687 1689
1580 2 1687 1690
1581 2 1688 1691
1582 2 1688 1692
1583 1 1688 1693
1584 1 1693 1694
1585 2 1693 1695
1586 2 1693 1696
1587 2 1694 1697
1588 2 1694 1698
1589 1 1694 1699
1590 1 1699 1700
1591 2 1699 1701
1592 2 1699 1702
1593 2 1700 1703
1594 2 1700 1704
1595 1 1700 1705
1596 1 1705 1706
1597 2 1705 1707
1598 2 1705 1708
1599 2 1706 1709
1600 2 1706 1710
1601 1 1706 1711
1602 1 1711 1712
1603 2 1711 1713
1604 2 1711 1714
1605 2 1712 1715
1606 2 1712 1716
1607 1 1718 1719
1608 2 1718 1720
1609 2 1718 1721
1610 2 1719 1722
1611 2 1719 1723
1612 1 1719 1724
1613 1 1724 1725
1614 2 1724 1726
1615 2 1724 1727
1616 2 1725 1728
1617 2 1725 1729
1618 1 1725 1730
1619 1 1730 1731
1620 2 1730 1732
1621 2 1730 1733
1622 2 1731 1734
1623 2 1731 1735
1624 1 1731 1736
1625 1 1736 1737
1626 2 1736 1738
1627 2 1736 1739
1628 2 1737 1740
1629 2 1737 1741
1630 1 1737 1742
1631 1 1742 1743
1632 2 1742 1744
1633 2 1742 1745
1634 2 1743 1746
1635 2 1743 1747
1636 1 1749 1750
1637 2 1749 1751
1638 2 1749 1752
1639 2 1750 1753
1640 2 1750 1754
1641 1 1750 1755
1642 1 1755 1756
1643 2 1755 1757
1644 2 1755 1758
1645 2 1756 1759
1646 2 1756 1760
1647 1 1756 1761
1648 1 1761 1762
1649 2 1761 1763
1650 2 1761 1764
1651 2 1762 1765
1652 2 1762 1766
1653 1 1762 1767
1654 1 1767 1768
1655 2 1767 1769
1656 2 1767 1770
1657 2 1768 1771
1658 2 1768 1772
1659 1 1768 1773
1660 1 1773 1774
1661 2 1773 1775
1662 2 1773 1776
1663 2 1774 1777
1664 2 1774 1778
1665 1 1780 1781
1666 2 1780 1782
1667 2 1780 1783
1668 2 1781 1784
1669 2 1781 1785
1670 1 1781 1786
1671 1 1786 1787
1672 2 1786 1788
1673 2 1786 1789
1674 2 1787 1790
1675 2 1787 1791
1676 1 1787 1792
1677 1 1792 1793
1678 2 1792 1794
1679 2 1792 1795
1680 2 1793 1796
1681 2 1793 1797
1682 1 1793 1798
1683 1 1798 1799
1684 2 1798 1800
1685 2 1798 1801
1686 2 1799 1802
1687 2 1799 1803
1688 1 1799 1804
1689 1 1804 1805
1690 2 1804 1806
1691 2 1804 1807
1692 2 1805 1808
1693 2 1805 1809
1694 1 1811 1812
1695 2 1811 1813
1696 2 1811 1814
1697 2 1812 1815
1698 2 1812 1816
1699 1 1812 1817
1700 1 1817 1818
1701 2 1817 1819
1702 2 1817 1820
1703 2 1818 1821
1704 2 1818 1822
1705 1 1818 1823
1706 1 1823 1824
1707 2 1823 1825
1708 2 1823 1826
1709 2 1824 1827
1710 2 1824 1828
1711 1 1824 1829
1712 1 1829 1830
1713 2 1829 1831
1714 2 1829 1832
1715 2 1830 1833
1716 2 1830 1834
1717 1 1830 1835
1718 1 1835 1836
1719 2 1835 1837
1720 2 1835 1838
1721 2 1836 1839
1722 2 1836 1840
1723 1 1842 1843
1724 2 1842 1844
1725 2 1842 1845
1726 2 1843 1846
1727 2 1843 1847
1728 2 1843 1848
1729 1 1849 1850
1730 2 1849 1851
1731 2 1849 1852
1732 1 1850 1842
1733 2 1850 1853
1734 2 1850 1854
1735 1 1855 1856
1736 2 1855 1857
1737 2 1855 1858
1738 1 1856 1849
1739 2 1856 1859
1740 2 1856 1860
1741 1 1861 1862
1742 2 1861 1863
1743 2 1861 1864
1744 1 1862 1855
1745 2 1862 1865
1746 2 1862 1866
1747 1 1867 1868
1748 2 1867 1869
1749 2 1867 1870
1750 1 1868 1861
1751 2 1868 1871
1752 2 1868 1872
1753 1 1874 1875
1754 2 1874 1876
1755 2 1874 1877
1756 1 1874 1881
1757 2 1875 1878
1758 2 1875 1879
1759 2 1875 1880
1760 1 1881 1882
1761 2 1881 1883
1762 2 1881 1884
1763 2 1882 1885
1764 2 1882 1886
1765 1 1882 1887
1766 1 1887 1888
1767 2 1887 1889
1768 2 1887 1890
1769 2 1888 1891
1770 2 1888 1892
1771 1 1888 1893
1772 1 1893 1894
1773 2 1893 1895
1774 2 1893 1896
1775 2 1894 1897
1776 2 1894 1898
1777 1 1894 1899
1778 1 1899 1900
1779 2 1899 1901
1780 2 1899 1902
1781 2 1900 1903
1782 2 1900 1904
1783 1 1906 1907
1784 2 1906 1908
1785 2 1906 1909
1786 2 1907 1910
1787 2 1907 1911
1788 1 1907 1912
1789 1 1912 1913
1790 2 1912 1914
1791 2 1912 1915
1792 2 1913 1916
1793 2 1913 1917
1794 1 1913 1918
1795 1 1918 1919
1796 2 1918 1920
1797 2 1918 1921
1798 2 1919 1922
1799 2 1919 1923
1800 1 1919 1924
1801 1 1924 1925
1802 2 1924 1926
1803 2 1924 1927
1804 2 1925 1928
1805 2 1925 1929
1806 1 1925 1930
1807 1 1930 1931
1808 2 1930 1932
1809 2 1930 1933
1810 2 1931 1934
1811 2 1931 1935
1812 1 1937 1938
1813 2 1937 1939
1814 2 1937 1940
1815 2 1938 1941
1816 2 1938 1942
1817 1 1938 1943
1818 1 1943 1944
1819 2 1943 1945
1820 2 1943 1946
1821 2 1944 1947
1822 2 1944 1948
1823 1 1944 1949
1824 1 1949 1950
1825 2 1949 1951
1826 2 1949 1952
1827 2 1950 1953
1828 2 1950 1954
1829 1 1950 1955
1830 1 1955 1956
1831 2 1955 1957
1832 2 1955 1958
1833 2 1956 1959
1834 2 1956 1960
1835 1 1956 1961
1836 1 1961 1962
1837 2 1961 1963
1838 2 1961 1964
1839 2 1962 1965
1840 2 1962 1966
1841 1 1968 1969
1842 2 1968 1970
1843 2 1968 1971
1844 2 1969 1972
1845 2 1969 1973
1846 1 1969 1974
1847 1 1974 1975
1848 2 1974 1976
1849 2 1974 1977
1850 2 1975 1978
1851 2 1975 1979
1852 1 1975 1980
1853 1 1980 1981
1854 2 1980 1982
1855 2 1980 1983
1856 2 1981 1984
1857 2 1981 1985
1858 1 1981 1986
1859 1 1986 1987
1860 2 1986 1988
1861 2 1986 1989
1862 2 1987 1990
1863 2 1987 1991
1864 1 1987 1992
1865 1 1992 1993
1866 2 1992 1994
1867 2 1992 1995
1868 2 1993 1996
1869 2 1993 1997
1870 1 1999 2000
1871 2 1999 2001
1872 2 1999 2002
1873 2 2000 2003
1874 2 2000 2004
1875 1 2000 2005
1876 1 2005 2006
1877 2 2005 2007
1878 2 2005 2008
1879 2 2006 2009
1880 2 2006 2010
1881 1 2006 2011
1882 1 2011 2012
1883 2 2011 2013
1884 2 2011 2014
1885 2 2012 2015
1886 2 2012 2016
1887 1 2012 2017
1888 1 2017 2018
1889 2 2017 2019
1890 2 2017 2020
1891 2 2018 2021
1892 2 2018 2022
1893 1 2018 2023
1894 1 2023 2024
1895 2 2023 2025
1896 2 2023 2026
1897 2 2024 2027
1898 2 2024 2028
1899 1 2030 2031
1900 2 2030 2032
1901 2 2030 2033
1902 2 2031 2034
1903 2 2031 2035
1904 1 2031 2036
1905 1 2036 2037
1906 2 2036 2038
1907 2 2036 2039
1908 2 2037 2040
1909 2 2037 2041
1910 1 2037 2042
1911 1 2042 2043
1912 2 2042 2044
1913 2 2042 2045
1914 2 2043 2046
1915 2 2043 2047
1916 1 2043 2048
1917 1 2048 2049
1918 2 2048 2050
1919 2 2048 2051
1920 2 2049 2052
1921 2 2049 2053
1922 1 2049 2054
1923 1 2054 2055
1924 2 2054 2056
1925 2 2054 2057
1926 2 2055 2058
1927 2 2055 2059
1928 1 2061 2062
1929 2 2061 2063
1930 2 2061 2064
1931 2 2062 2065
1932 2 2062 2066
1933 1 2062 2067
1934 1 2067 2068
1935 2 2067 2069
1936 2 2067 2070
1937 2 2068 2071
1938 2 2068 2072
1939 1 2068 2073
1940 1 2073 2074
1941 2 2073 2075
1942 2 2073 2076
1943 2 2074 2077
1944 2 2074 2078
1945 1 2074 2079
1946 1 2079 2080
1947 2 2079 2081
1948 2 2079 2082
1949 2 2080 2083
1950 2 2080 2084
1951 1 2080 2085
1952 1 2085 2086
1953 2 2085 2087
1954 2 2085 2088
1955 2 2086 2089
1956 2 2086 2090
1957 1 2092 2093
1958 2 2092 2094
1959 2 2092 2095
1960 2 2093 2096
1961 2 2093 2097
1962 1 2093 2098
1963 1 2098 2099
1964 2 2098 2100
1965 2 2098 2101
1966 2 2099 2102
1967 2 2099 2103
1968 1 2099 2104
1969 1 2104 2105
1970 2 2104 2106
1971 2 2104 2107
1972 2 2105 2108
1973 2 2105 2109
1974 1 2105 2110
1975 1 2110 2111
1976 2 2110 2112
1977 2 2110 2113
1978 2 2111 2114
1979 2 2111 2115
1980 1 2111 2116
1981 1 2116 2117
1982 2 2116 2118
1983 2 2116 2119
1984 2 2117 2120
1985 2 2117 2121
1986 1 2123 2124
1987 2 2123 2125
1988 2 2123 2126
1989 2 2124 2127
1990 2 2124 2128
1991 1 2124 2129
1992 1 2129 2130
1993 2 2129 2131
1994 2 2129 2132
1995 2 2130 2133
1996 2 2130 2134
1997 1 2130 2135
1998 1 2135 2136
1999 2 2135 2137
2000 2 2135 2138
2001 2 2136 2139
2002 2 2136 2140
2003 1 2136 2141
2004 1 2141 2142
2005 2 2141 2143
2006 2 2141 2144
2007 2 2142 2145
2008 2 2142 2146
2009 1 2142 2147
2010 1 2147 2148
2011 2 2147 2149
2012 2 2147 2150
2013 2 2148 2151
2014 2 2148 2152
2015 1 2154 2155
2016 2 2154 2156
2017 2 2154 2157
2018 2 2155 2158
2019 2 2155 2159
2020 2 2155 2160
2021 1 2161 2162
2022 2 2161 2163
2023 2 2161 2164
2024 1 2162 2154
2025 2 2162 2165
2026 2 2162 2166
2027 1 2167 2168
2028 2 2167 2169
2029 2 2167 2170
2030 1 2168 2161
2031 2 2168 2171
2032 2 2168 2172
2033 1 2173 2174
2034 2 2173 2175
2035 2 2173 2176
2036 1 2174 2167
2037 2 2174 2177
2038 2 2174 2178
2039 1 2179 2180
2040 2 2179 2181
2041 2 2179 2182
2042 1 2180 2173
2043 2 2180 2183
2044 2 2180 2184
2045 1 2186 2187
2046 2 2186 2188
2047 2 2186 2189
2048 1 2186 2193
2049 2 2187 2190
2050 2 2187 2191
2051 2 2187 2192
2052 1 2193 2194
2053 2 2193 2195
2054 2 2193 2196
2055 2 2194 2197
2056 2 2194 2198
2057 1 2194 2199
2058 1 2199 2200
2059 2 2199 2201
2060 2 2199 2202
2061 2 2200 2203
2062 2 2200 2204
2063 1 2200 2205
2064 1 2205 2206
2065 2 2205 2207
2066 2 2205 2208
2067 2 2206 2209
2068 2 2206 2210
2069 1 2206 2211
2070 1 2211 2212
2071 2 2211 2213
2072 2 2211 2214
2073 2 2212 2215
2074 2 2212 2216
2075 1 2218 2219
2076 2 2218 2220
2077 2 2218 2221
2078 2 2219 2222
2079 2 2219 2223
2080 1 2219 2224
2081 1 2224 2225
2082 2 2224 2226
2083 2 2224 2227
2084 2 2225 2228
2085 2 2225 2229
2086 1 2225 2230
2087 1 2230 2231
2088 2 2230 2232
2089 2 2230 2233
2090 2 2231 2234
2091 2 2231 2235
2092 1 2231 2236
2093 1 2236 2237
2094 2 2236 2238
2095 2 2236 2239
2096 2 2237 2240
2097 2 2237 2241
2098 1 2237 2242
2099 1 2242 2243
2100 2 2242 2244
2101 2 2242 2245
2102 2 2243 2246
2103 2 2243 2247
2104 1 2249 2250
2105 2 2249 2251
2106 2 2249 2252
2107 2 2250 2253
2108 2 2250 2254
2109 1 2250 2255
2110 1 2255 2256
2111 2 2255 2257
2112 2 2255 2258
2113 2 2256 2259
2114 2 2256 2260
2115 1 2256 2261
2116 1 2261 2262
2117 2 2261 2263
2118 2 2261 2264
2119 2 2262 2265
2120 2 2262 2266
2121 1 2262 2267
2122 1 2267 2268
2123 2 2267 2269
2124 2 2267 2270
2125 2 2268 2271
2126 2 2268 2272
2127 1 2268 2273
2128 1 2273 2274
2129 2 2273 2275
2130 2 2273 2276
2131 2 2274 2277
2132 2 2274 2278
2133 1 2280 2281
2134 2 2280 2282
2135 2 2280 2283
2136 2 2281 2284
2137 2 2281 2285
2138 1 2281 2286
2139 1 2286 2287
2140 2 2286 2288
2141 2 2286 2289
2142 2 2287 2290
2143 2 2287 2291
2144 1 2287 2292
2145 1 2292 2293
2146 2 2292 2294
2147 2 2292 2295
2148 2 2293 2296
2149 2 2293 2297
2150 1 2293 2298
2151 1 2298 2299
2152 2 2298 2300
2153 2 2298 2301
2154 2 2299 2302
2155 2 2299 2303
2156 1 2299 2304
2157 1 2304 2305
2158 2 2304 2306
2159 2 2304 2307
2160 2 2305 2308
2161 2 2305 2309
2162 1 2311 2312
2163 2 2311 2313
2164 2 2311 2314
2165 2 2312 2315
2166 2 2312 2316
2167 1 2312 2317
2168 1 2317 2318
2169 2 2317 2319
2170 2 2317 2320
2171 2 2318 2321
2172 2 2318 2322
2173 1 2318 2323
2174 1 2323 2324
2175 2 2323 2325
2176 2 2323 2326
2177 2 2324 2327
2178 2 2324 2328
2179 1 2324 2329
2180 1 2329 2330
2181 2 2329 2331
2182 2 2329 2332
2183 2 2330 2333
2184 2 2330 2334
2185 1 2330 2335
2186 1 2335 2336
2187 2 2335 2337
2188 2 2335 2338
2189 2 2336 2339
2190 2 2336 2340
2191 1 2342 2343
2192 2 2342 2344
2193 2 2342 2345
2194 2 2343 2346
2195 2 2343 2347
2196 1 2343 2348
2197 1 2348 2349
2198 2 2348 2350
2199 2 2348 2351
2200 2 2349 2352
2201 2 2349 2353
2202 1 2349 2354
2203 1 2354 2355
2204 2 2354 2356
2205 2 2354 2357
2206 2 2355 2358
2207 2 2355 2359
2208 1 2355 2360
2209 1 2360 2361
2210 2 2360 2362
2211 2 2360 2363
2212 2 2361 2364
2213 2 2361 2365
2214 1 2361 2366
2215 1 2366 2367
2216 2 2366 2368
2217 2 2366 2369
2218 2 2367 2370
2219 2 2367 2371
2220 1 2373 2374
2221 2 2373 2375
2222 2 2373 2376
2223 2 2374 2377
2224 2 2374 2378
2225 1 2374 2379
2226 1 2379 2380
2227 2 2379 2381
2228 2 2379 2382
2229 2 2380 2383
2230 2 2380 2384
2231 1 2380 2385
2232 1 2385 2386
2233 2 2385 2387
2234 2 2385 2388
2235 2 2386 2389
2236 2 2386 2390
2237 1 2386 2391
2238 1 2391 2392
2239 2 2391 2393
2240 2 2391 2394
2241 2 2392 2395
2242 2 2392 2396
2243 1 2392 2397
2244 1 2397 2398
2245 2 2397 2399
2246 2 2397 2400
2247 2 2398 2401
2248 2 2398 2402
2249 1 2404 2405
2250 2 2404 2406
2251 2 2404 2407
2252 2 2405 2408
2253 2 2405 2409
2254 1 2405 2410
2255 1 2410 2411
2256 2 2410 2412
2257 2 2410 2413
2258 2 2411 2414
2259 2 2411 2415
2260 1 2411 2416
2261 1 2416 2417
2262 2 2416 2418
2263 2 2416 2419
2264 2 2417 2420
2265 2 2417 2421
2266 1 2417 2422
2267 1 2422 2423
2268 2 2422 2424
2269 2 2422 2425
2270 2 2423 2426
2271 2 2423 2427
2272 1 2423 2428
2273 1 2428 2429
2274 2 2428 2430
2275 2 2428 2431
2276 2 2429 2432
2277 2 2429 2433
2278 1 2435 2436
2279 2 2435 2437
2280 2 2435 2438
2281 2 2436 2439
2282 2 2436 2440
2283 1 2436 2441
2284 1 2441 2442
2285 2 2441 2443
2286 2 2441 2444
2287 2 2442 2445
2288 2 2442 2446
2289 1 2442 2447
2290 1 2447 2448
2291 2 2447 2449
2292 2 2447 2450
2293 2 2448 2451
2294 2 2448 2452
2295 1 2448 2453
2296 1 2453 2454
2297 2 2453 2455
2298 2 2453 2456
2299 2 2454 2457
2300 2 2454 2458
2301 1 2454 2459
2302 1 2459 2460
2303 2 2459 2461
2304 2 2459 2462
2305 2 2460 2463
2306 2 2460 2464
2307 1 2466 2467
2308 2 2466 2468
2309 2 2466 2469
2310 2 2467 2470
2311 2 2467 2471
2312 2 2467 2472
2313 1 2473 2474
2314 2 2473 2475
2315 2 2473 2476
2316 1 2474 2466
2317 2 2474 2477
2318 2 2474 2478
2319 1 2479 2480
2320 2 2479 2481
2321 2 2479 2482
2322 1 2480 2473
2323 2 2480 2483
2324 2 2480 2484
2325 1 2485 2486
2326 2 2485 2487
2327 2 2485 2488
2328 1 2486 2479
2329 2 2486 2489
2330 2 2486 2490
2331 1 2491 2492
2332 2 2491 2493
2333 2 2491 2494
2334 1 2492 2485
2335 2 2492 2495
2336 2 2492 2496
2337 1 2498 2499
2338 2 2498 2500
2339 2 2498 2501
2340 1 2498 2505
2341 2 2499 2502
2342 2 2499 2503
2343 2 2499 2504
2344 1 2505 2506
2345 2 2505 2507
2346 2 2505 2508
2347 2 2506 2509
2348 2 2506 2510
2349 1 2506 2511
2350 1 2511 2512
2351 2 2511 2513
2352 2 2511 2514
2353 2 2512 2515
2354 2 2512 2516
2355 1 2512 2517
2356 1 2517 2518
2357 2 2517 2519
2358 2 2517 2520
2359 2 2518 2521
2360 2 2518 2522
2361 1 2518 2523
2362 1 2523 2524
2363 2 2523 2525
2364 2 2523 2526
2365 2 2524 2527
2366 2 2524 2528
2367 1 2530 2531
2368 2 2530 2532
2369 2 2530 2533
2370 2 2531 2534
2371 2 2531 2535
2372 1 2531 2536
2373 1 2536 2537
2374 2 2536 2538
2375 2 2536 2539
2376 2 2537 2540
2377 2 2537 2541
2378 1 2537 2542
2379 1 2542 2543
2380 2 2542 2544
2381 2 2542 2545
2382 2 2543 2546
2383 2 2543 2547
2384 1 2543 2548
2385 1 2548 2549
2386 2 2548 2550
2387 2 2548 2551
2388 2 2549 2552
2389 2 2549 2553
2390 1 2549 2554
2391 1 2554 2555
2392 2 2554 2556
2393 2 2554 2557
2394 2 2555 2558
2395 2 2555 2559
2396 1 2561 2562
2397 2 2561 2563
2398 2 2561 2564
2399 2 2562 2565
2400 2 2562 2566
2401 1 2562 2567
2402 1 2567 2568
2403 2 2567 2569
2404 2 2567 2570
2405 2 2568 2571
2406 2 2568 2572
2407 1 2568 2573
2408 1 2573 2574
2409 2 2573 2575
2410 2 2573 2576
2411 2 2574 2577
2412 2 2574 2578
2413 1 2574 2579
2414 1 2579 2580
2415 2 2579 2581
2416 2 2579 2582
2417 2 2580 2583
2418 2 2580 2584
2419 1 2580 2585
2420 1 2585 2586
2421 2 2585 2587
2422 2 2585 2588
2423 2 2586 2589
2424 2 2586 2590
2425 1 2592 2593
2426 2 2592 2594
2427 2 2592 2595
2428 2 2593 2596
2429 2 2593 2597
2430 1 2593 2598
2431 1 2598 2599
2432 2 2598 2600
2433 2 2598 2601
2434 2 2599 2602
2435 2 2599 2603
2436 1 2599 2604
2437 1 2604 2605
2438 2 2604 2606
2439 2 2604 2607
2440 2 2605 2608
2441 2 2605 2609
2442 1 2605 2610
2443 1 2610 2611
2444 2 2610 2612
2445 2 2610 2613
2446 2 2611 2614
2447 2 2611 2615
2448 1 2611 2616
2449 1 2616 2617
2450 2 2616 2618
2451 2 2616 2619
2452 2 2617 2620
2453 2 2617 2621
2454 1 2623 2624
2455 2 2623 2625
2456 2 2623 2626
2457 2 2624 2627
2458 2 2624 2628
2459 1 2624 2629
2460 1 2629 2630
2461 2 2629 2631
2462 2 2629 2632
2463 2 2630 2633
2464 2 2630 2634
2465 1 2630 2635
2466 1 2635 2636
2467 2 2635 2637
2468 2 2635 2638
2469 2 2636 2639
2470 2 2636 2640
2471 1 2636 2641
2472 1 2641 2642
2473 2 2641 2643
2474 2 2641 2644
2475 2 2642 2645
2476 2 2642 2646
2477 1 2642 2647
2478 1 2647 2648
2479 2 2647 2649
2480 2 2647 2650
2481 2 2648 2651
2482 2 2648 2652
2483 1 2654 2655
2484 2 2654 2656
2485 2 2654 2657
2486 2 2655 2658
2487 2 2655 2659
2488 1 2655 2660
2489 1 2660 2661
2490 2 2660 2662
2491 2 2660 2663
2492 2 2661 2664
2493 2 2661 2665
2494 1 2661 2666
2495 1 2666 2667
2496 2 2666 2668
2497 2 2666 2669
2498 2 2667 2670
2499 2 2667 2671
2500 1 2667 2672
2501 1 2672 2673
2502 2 2672 2674
2503 2 2672 2675
2504 2 2673 2676
2505 2 2673 2677
2506 1 2673 2678
2507 1 2678 2679
2508 2 2678 2680
2509 2 2678 2681
2510 2 2679 2682
2511 2 2679 2683
2512 1 2685 2686
2513 2 2685 2687
2514 2 2685 2688
2515 2 2686 2689
2516 2 2686 2690
2517 1 2686 2691
2518 1 2691 2692
2519 2 2691 2693
2520 2 2691 2694
2521 2 2692 2695
2522 2 2692 2696
2523 1 2692 2697
2524 1 2697 2698
2525 2 2697 2699
2526 2 2697 2700
2527 2 2698 2701
2528 2 2698 2702
2529 1 2698 2703
2530 1 2703 2704
2531 2 2703 2705
2532 2 2703 2706
2533 2 2704 2707
2534 2 2704 2708
2535 1 2704 2709
2536 1 2709 2710
2537 2 2709 2711
2538 2 2709 2712
2539 2 2710 2713
2540 2 2710 2714
2541 1 2716 2717
2542 2 2716 2718
2543 2 2716 2719
2544 2 2717 2720
2545 2 2717 2721
2546 1 2717 2722
2547 1 2722 2723
2548 2 2722 2724
2549 2 2722 2725
2550 2 2723 2726
2551 2 2723 2727
2552 1 2723 2728
2553 1 2728 2729
2554 2 2728 2730
2555 2 2728 2731
2556 2 2729 2732
2557 2 2729 2733
2558 1 2729 2734
2559 1 2734 2735
2560 2 2734 2736
2561 2 2734 2737
2562 2 2735 2738
2563 2 2735 2739
2564 1 2735 2740
2565 1 2740 2741
2566 2 2740 2742
2567 2 2740 2743
2568 2 2741 2744
2569 2 2741 2745
2570 1 2747 2748
2571 2 2747 2749
2572 2 2747 2750
2573 2 2748 2751
2574 2 2748 2752
2575 1 2748 2753
2576 1 2753 2754
2577 2 2753 2755
2578 2 2753 2756
2579 2 2754 2757
2580 2 2754 2758
2581 1 2754 2759
2582 1 2759 2760
2583 2 2759 2761
2584 2 2759 2762
2585 2 2760 2763
2586 2 2760 2764
2587 1 2760 2765
2588 1 2765 2766
2589 2 2765 2767
2590 2 2765 2768
2591 2 2766 2769
2592 2 2766 2770
2593 1 2766 2771
2594 1 2771 2772
2595 2 2771 2773
2596 2 2771 2774
2597 2 2772 2775
2598 2 2772 2776
2599 1 2778 2779
2600 2 2778 2780
2601 2 2778 2781
2602 2 2779 2782
2603 2 2779 2783
2604 2 2779 2784
2605 1 2785 2786
2606 2 2785 2787
2607 2 2785 2788
2608 1 2786 2778
2609 2 2786 2789
2610 2 2786 2790
2611 1 2791 2792
2612 2 2791 2793
2613 2 2791 2794
2614 1 2792 2785
2615 2 2792 2795
2616 2 2792 2796
2617 1 2797 2798
2618 2 2797 2799
2619 2 2797 2800
2620 1 2798 2791
2621 2 2798 2801
2622 2 2798 2802
2623 1 2803 2804
2624 2 2803 2805
2625 2 2803 2806
2626 1 2804 2797
2627 2 2804 2807
2628 2 2804 2808
2629 1 2810 2811
2630 2 2810 2812
2631 2 2810 2813
2632 1 2810 2817
2633 2 2811 2814
2634 2 2811 2815
2635 2 2811 2816
2636 1 2817 2818
2637 2 2817 2819
2638 2 2817 2820
2639 2 2818 2821
2640 2 2818 2822
2641 1 2818 2823
2642 1 2823 2824
2643 2 2823 2825
2644 2 2823 2826
2645 2 2824 2827
2646 2 2824 2828
2647 1 2824 2829
2648 1 2829 2830
2649 2 2829 2831
2650 2 2829 2832
2651 2 2830 2833
2652 2 2830 2834
2653 1 2830 2835
2654 1 2835 2836
2655 2 2835 2837
2656 2 2835 2838
2657 2 2836 2839
2658 2 2836 2840
2659 1 2842 2843
2660 2 2842 2844
2661 2 2842 2845
2662 2 2843 2846
2663 2 2843 2847
2664 1 2843 2848
2665 1 2848 2849
2666 2 2848 2850
2667 2 2848 2851
2668 2 2849 2852
2669 2 2849 2853
2670 1 2849 2854
2671 1 2854 2855
2672 2 2854 2856
2673 2 2854 2857
2674 2 2855 2858
2675 2 2855 2859
2676 1 2855 2860
2677 1 2860 2861
2678 2 2860 2862
2679 2 2860 2863
2680 2 2861 2864
2681 2 2861 2865
2682 1 2861 2866
2683 1 2866 2867
2684 2 2866 2868
2685 2 2866 2869
2686 2 2867 2870
2687 2 2867 2871
2688 1 2873 2874
2689 2 2873 2875
2690 2 2873 2876
2691 2 2874 2877
2692 2 2874 2878
2693 1 2874 2879
2694 1 2879 2880
2695 2 2879 2881
2696 2 2879 2882
2697 2 2880 2883
2698 2 2880 2884
2699 1 2880 2885
2700 1 2885 2886
2701 2 2885 2887
2702 2 2885 2888
2703 2 2886 2889
2704 2 2886 2890
2705 1 2886 2891
2706 1 2891 2892
2707 2 2891 2893
2708 2 2891 2894
2709 2 2892 2895
2710 2 2892 2896
2711 1 2892 2897
2712 1 2897 2898
2713 2 2897 2899
2714 2 2897 2900
2715 2 2898 2901
2716 2 2898 2902
2717 1 2904 2905
2718 2 2904 2906
2719 2 2904 2907
2720 2 2905 2908
2721 2 2905 2909
2722 1 2905 2910
2723 1 2910 2911
2724 2 2910 2912
2725 2 2910 2913
2726 2 2911 2914
2727 2 2911 2915
2728 1 2911 2916
2729 1 2916 2917
2730 2 2916 2918
2731 2 2916 2919
2732 2 2917 2920
2733 2 2917 2921
2734 1 2917 2922
2735 1 2922 2923
2736 2 2922 2924
2737 2 2922 2925
2738 2 2923 2926
2739 2 2923 2927
2740 1 2923 2928
2741 1 2928 2929
2742 2 2928 2930
2743 2 2928 2931
2744 2 2929 2932
2745 2 2929 2933
2746 1 2935 2936
2747 2 2935 2937
2748 2 2935 2938
2749 2 2936 2939
2750 2 2936 2940
2751 1 2936 2941
2752 1 2941 2942
2753 2 2941 2943
2754 2 2941 2944
2755 2 2942 2945
2756 2 2942 2946
2757 1 2942 2947
2758 1 2947 2948
2759 2 2947 2949
2760 2 2947 2950
2761 2 2948 2951
2762 2 2948 2952
2763 1 2948 2953
2764 1 2953 2954
2765 2 2953 2955
2766 2 2953 2956
2767 2 2954 2957
2768 2 2954 2958
2769 1 2954 2959
2770 1 2959 2960
2771 2 2959 2961
2772 2 2959 2962
2773 2 2960 2963
2774 2 2960 2964
2775 1 2966 2967
2776 2 2966 2968
2777 2 2966 2969
2778 2 2967 2970
2779 2 2967 2971
2780 1 2967 2972
2781 1 2972 2973
2782 2 2972 2974
2783 2 2972 2975
2784 2 2973 2976
2785 2 2973 2977
2786 1 2973 2978
2787 1 2978 2979
2788 2 2978 2980
2789 2 2978 2981
2790 2 2979 2982
2791 2 2979 2983
2792 1 2979 2984
2793 1 2984 2985
2794 2 2984 2986
2795 2 2984 2987
2796 2 2985 2988
2797 2 2985 2989
2798 1 2985 2990
2799 1 2990 2991
2800 2 2990 2992
2801 2 2990 2993
2802 2 2991 2994
2803 2 2991 2995
2804 1 2997 2998
2805 2 2997 2999
2806 2 2997 3000
2807 2 2998 3001
2808 2 2998 3002
2809 1 2998 3003
2810 1 3003 3004
2811 2 3003 3005
2812 2 3003 3006
2813 2 3004 3007
2814 2 3004 3008
2815 1 3004 3009
2816 1 3009 3010
2817 2 3009 3011
2818 2 3009 3012
2819 2 3010 3013
2820 2 3010 3014
2821 1 3010 3015
2822 1 3015 3016
2823 2 3015 3017
2824 2 3015 3018
2825 2 3016 3019
2826 2 3016 3020
2827 1 3016 3021
2828 1 3021 3022
2829 2 3021 3023
2830 2 3021 3024
2831 2 3022 3025
2832 2 3022 3026
2833 1 3028 3029
2834 2 3028 3030
2835 2 3028 3031
2836 2 3029 3032
2837 2 3029 3033
2838 1 3029 3034
2839 1 3034 3035
2840 2 3034 3036
2841 2 3034 3037
2842 2 3035 3038
2843 2 3035 3039
2844 1 3035 3040
2845 1 3040 3041
2846 2 3040 3042
2847 2 3040 3043
2848 2 3041 3044
2849 2 3041 3045
2850 1 3041 3046
2851 1 3046 3047
2852 2 3046 3048
2853 2 3046 3049
2854 2 3047 3050
2855 2 3047 3051
2856 1 3047 3052
2857 1 3052 3053
2858 2 3052 3054
2859 2 3052 3055
2860 2 3053 3056
2861 2 3053 3057
2862 1 3059 3060
2863 2 3059 3061
2864 2 3059 3062
2865 2 3060 3063
2866 2 3060 3064
2867 1 3060 3065
2868 1 3065 3066
2869 2 3065 3067
2870 2 3065 3068
2871 2 3066 3069
2872 2 3066 3070
2873 1 3066 3071
2874 1 3071 3072
2875 2 3071 3073
2876 2 3071 3074
2877 2 3072 3075
2878 2 3072 3076
2879 1 3072 3077
2880 1 3077 3078
2881 2 3077 3079
2882 2 3077 3080
2883 2 3078 3081
2884 2 3078 3082
2885 1 3078 3083
2886 1 3083 3084
2887 2 3083 3085
2888 2 3083 3086
2889 2 3084 3087
2890 2 3084 3088
2891 1 3090 3091
2892 2 3090 3092
2893 2 3090 3093
2894 2 3091 3094
2895 2 3091 3095
2896 2 3091 3096
2897 1 3097 3098
2898 2 3097 3099
2899 2 3097 3100
2900 1 3098 3090
2901 2 3098 3101
2902 2 3098 3102
2903 1 3103 3104
2904 2 3103 3105
2905 2 3103 3106
2906 1 3104 3097
2907 2 3104 3107
2908 2 3104 3108
2909 1 3109 3110
2910 2 3109 3111
2911 2 3109 3112
2912 1 3110 3103
2913 2 3110 3113
2914 2 3110 3114
2915 1 3115 3116
2916 2 3115 3117
2917 2 3115 3118
2918 1 3116 3109
2919 2 3116 3119
2920 2 3116 3120
2921 3 1 33
2922 1 28 34
2923 4 33 64
2924 1 59 65
2925 4 64 95
2926 1 90 96
2927 4 95 126
2928 1 121 127
2929 4 126 157
2930 1 152 158
2931 4 157 188
2932 1 183 189
2933 4 188 219
2934 1 214 220
2935 4 219 250
2936 1 245 251
2937 3 250 281
2938 1 276 307
2939 3 313 345
2940 1 340 346
2941 4 345 376
2942 1 371 377
2943 4 376 407
2944 1 402 408
2945 4 407 438
2946 1 433 439
2947 4 438 469
2948 1 464 470
2949 4 469 500
2950 1 495 501
2951 4 500 531
2952 1 526 532
2953 4 531 562
2954 1 557 563
2955 3 562 593
2956 1 588 619
2957 3 625 657
2958 1 652 658
2959 4 657 688
2960 1 683 689
2961 4 688 719
2962 1 714 720
2963 4 719 750
2964 1 745 751
2965 4 750 781
2966 1 776 782
2967 4 781 812
2968 1 807 813
2969 4 812 843
2970 1 838 844
2971 4 843 874
2972 1 869 875
2973 3 874 905
2974 1 900 931
2975 3 937 969
2976 1 964 970
2977 4 969 1000
2978 1 995 1001
2979 4 1000 1031
2980 1 1026 1032
2981 4 1031 1062
2982 1 1057 1063
2983 4 1062 1093
2984 1 1088 1094
2985 4 1093 1124
2986 1 1119 1125
2987 4 1124 1155
2988 1 1150 1156
2989 4 1155 1186
2990 1 1181 1187
2991 3 1186 1217
2992 1 1212 1243
2993 3 1249 1281
2994 1 1276 1282
2995 4 1281 1312
2996 1 1307 1313
2997 4 1312 1343
2998 1 1338 1344
2999 4 1343 1374
3000 1 1369 1375
3001 4 1374 1405
3002 1 1400 1406
3003 4 1405 1436
3004 1 1431 1437
3005 4 1436 1467
3006 1 1462 1468
3007 4 1467 1498
3008 1 1493 1499
3009 3 1498 1529
3010 1 1524 1555
3011 3 1561 1593
3012 1 1588 1594
3013 4 1593 1624
3014 1 1619 1625
3015 4 1624 1655
3016 1 1650 1656
3017 4 1655 1686
3018 1 1681 1687
3019 4 1686 1717
3020 1 1712 1718
3021 4 1717 1748
3022 1 1743 1749
3023 4 1748 1779
3024 1 1774 1780
3025 4 1779 1810
3026 1 1805 1811
3027 3 1810 1841
3028 1 1836 1867
3029 3 1873 1905
3030 1 1900 1906
3031 4 1905 1936
3032 1 1931 1937
3033 4 1936 1967
3034 1 1962 1968
3035 4 1967 1998
3036 1 1993 1999
3037 4 1998 2029
3038 1 2024 2030
3039 4 2029 2060
3040 1 2055 2061
3041 4 2060 2091
3042 1 2086 2092
3043 4 2091 2122
3044 1 2117 2123
3045 3 2122 2153
3046 1 2148 2179
3047 3 2185 2217
3048 1 2212 2218
3049 4 2217 2248
3050 1 2243 2249
3051 4 2248 2279
3052 1 2274 2280
3053 4 2279 2310
3054 1 2305 2311
3055 4 2310 2341
3056 1 2336 2342
3057 4 2341 2372
3058 1 2367 2373
3059 4 2372 2403
3060 1 2398 2404
3061 4 2403 2434
3062 1 2429 2435
3063 3 2434 2465
3064 1 2460 2491
3065 3 2497 2529
3066 1 2524 2530
3067 4 2529 2560
3068 1 2555 2561
3069 4 2560 2591
3070 1 2586 2592
3071 4 2591 2622
3072 1 2617 2623
3073 4 2622 2653
3074 1 2648 2654
3075 4 2653 2684
3076 1 2679 2685
3077 4 2684 2715
3078 1 2710 2716
3079 4 2715 2746
3080 1 2741 2747
3081 3 2746 2777
3082 1 2772 2803
3083 3 2809 2841
3084 1 2836 2842
3085 4 2841 2872
3086 1 2867 2873
3087 4 2872 2903
3088 1 2898 2904
3089 4 2903 2934
3090 1 2929 2935
3091 4 2934 2965
3092 1 2960 2966
3093 4 2965 2996
3094 1 2991 2997
3095 4 2996 3027
3096 1 3022 3028
3097 4 3027 3058
3098 1 3053 3059
3099 3 3058 3089
3100 1 3084 3115

Angles

1 1 2 3 6
2 1 2 3 7
3 1 2 3 8
4 2 2 9 10
5 1 2 9 11
6 1 2 9 12
7 1 4 2 3
8 3 4 2 5
9 1 4 2 9
10 1 5 2 3
11 1 5 2 9
12 3 6 3 7
13 3 6 3 8
14 3 7 3 8
15 2 9 2 3
16 1 9 10 13
17 1 9 10 14
18 2 9 10 15
19 2 10 15 16
20 1 10 15 17
21 1 10 15 18
22 1 11 9 10
23 3 11 9 12
24 1 12 9 10
25 3 13 10 14
26 1 13 10 15
27 1 14 10 15
28 1 15 16 19
29 1 15 16 20
30 2 15 16 21
31 2 16 21 22
32 1 16 21 23
33 1 16 21 24
34 1 17 15 16
35 3 17 15 18
36 1 18 15 16
37 3 19 16 20
38 1 19 16 21
39 1 20 16 21
40 1 21 22 25
41 1 21 22 26
42 2 21 22 27
43 2 22 27 28
44 1 22 27 29
45 1 22 27 30
46 1 23 21 22
47 3 23 21 24
48 1 24 21 22
49 3 25 22 26
50 1 25 22 27
51 1 26 22 27
52 1 27 28 31
53 1 27 28 32
54 1 29 27 28
55 3 29 27 30
56 1 30 27 28
57 3 31 28 32
58 1 34 35 38
59 1 34 35 39
60 2 34 35 40
61 2 35 40 41
62 1 35 40 42
63 1 35 40 43
64 1 36 34 35
65 3 36 34 37
66 1 37 34 35
67 3 38 35 39
68 1 38 35 40
69 1 39 35 40
70 1 40 41 44
71 1 40 41 45
72 2 40 41 46
73 2 41 46 47
74 1 41 46 48
75 1 41 46 49
76 1 42 40 41
77 3 42 40 43
78 1 43 40 41
79 3 44 41 45
80 1 44 41 46
81 1 45 41 46
82 1 46 47 50
83 1 46 47 51
84 2 46 47 52
85 2 47 52 53
86 1 47 52 54
87 1 47 52 55
88 1 48 46 47
89 3 48 46 49
90 1 49 46 47
91 3 50 47 51
92 1 50 47 52
93 1 51 47 52
94 1 52 53 56
95 1 52 53 57
96 2 52 53 58
97 2 53 58 59
98 1 53 58 60
99 1 53 58 61
100 1 54 52 53
101 3 54 52 55
102 1 55 52 53
103 3 56 53 57
104 1 56 53 58
105 1 57 53 58
106 1 58 59 62
107 1 58 59 63
108 1 60 58 59
109 3 60 58 61
110 1 61 58 59
111 3 62 59 63
112 1 65 66 69
113 1 65 66 70
114 2 65 66 71
115 2 66 71 72
116 1 66 71 73
117 1 66 71 74
118 1 67 65 66
119 3 67 65 68
120 1 68 65 66
121 3 69 66 70
122 1 69 66 71
123 1 70 66 71
124 1 71 72 75
125 1 71 72 76
126 2 71 72 77
127 2 72 77 78
128 1 72 77 79
129 1 72 77 80
130 1 73 71 72
131 3 73 71 74
132 1 74 71 72
133 3 75 72 76
134 1 75 72 77
135 1 76 72 77
136 1 77 78 81
137 1 77 78 82
138 2 77 78 83
139 2 78 83 84
140 1 78 83 85
141 1 78 83 86
142 1 79 77 78
143 3 79 77 80
144 1 80 77 78
145 3 81 78 82
146 1 81 78 83
147 1 82 78 83
148 1 83 84 87
149 1 83 84 88
150 2 83 84 89
151 2 84 89 90
152 1 84 89 91
153 1 84 89 92
154 1 85 83 84
155 3 85 83 86
156 1 86 83 84
157 3 87 84 88
158 1 87 84 89
159 1 88 84 89
160 1 89 90 93
161 1 89 90 94
162 1 91 89 90
163 3 91 89 92
164 1 92 89 90
165 3 93 90 94
166 1 96 97 100
167 1 96 97 101
168 2 96 97 102
169 2 97 102 103
170 1 97 102 104
171 1 97 102 105
172 1 98 96 97
173 3 98 96 99
174 1 99 96 97
175 3 100 97 101
176 1 100 97 102
177 1 101 97 102
178 1 102 103 106
179 1 102 103 107
180 2 102 103 108
181 2 103 108 109
182 1 103 108 110
183 1 103 108 111
184 1 104 102 103
185 3 104 102 105
186 1 105 102 103
187 3 106 103 107
188 1 106 103 108
189 1 107 103 108
190 1 108 109 112
191 1 108 109 113
192 2 108 109 114
193 2 109 114 115
194 1 109 114 116
195 1 109 114 117
196 1 110 108 109
197 3 110 108 111
198 1 111 108 109
199 3 112 109 113
200 1 112 109 114
201 1 113 109 114
202 1 114 115 118
203 1 114 115 119
204 2 114 115 120
205 2 115 120 121
206 1 115 120 122
207 1 115 120 123
208 1 116 114 115
209 3 116 114 117
210 1 117 114 115
211 3 118 115 119
212 1 118 115 120
213 1 119 115 120
214 1 120 121 124
215 1 120 121 125
216 1 122 120 121
217 3 122 120 123
218 1 123 120 121
219 3 124 121 125
220 1 127 128 131
221 1 127 128 132
222 2 127 128 133
223 2 128 133 134
224 1 128 133 135
225 1 128 133 136
226 1 129 127 128
227 3 129 127 130
228 1 130 127 128
229 3 131 128 132
230 1 131 128 133
231 1 132 128 133
232 1 133 134 137
233 1 133 134 138
234 2 133 134 139
235 2 134 139 140
236 1 134 139 141
237 1 134 139 142
238 1 135 133 134
239 3 135 133 136
240 1 136 133 134
241 3 137 134 138
242 1 137 134 139
243 1 138 134 139
244 1 139 140 143
245 1 139 140 144
246 2 139 140 145
247 2 140 145 146
248 1 140 145 147
249 1 140 145 148
250 1 141 139 140
251 3 141 139 142
252 1 142 139 140
253 3 143 140 144
254 1 143 140 145
255 1 144 140 145
256 1 145 146 149
257 1 145 146 150
258 2 145 146 151
259 2 146 151 152
260 1 146 151 153
261 1 146 151 154
262 1 147 145 146
263 3 147 145 148
264 1 148 145 146
265 3 149 146 150
266 1 149 146 151
267 1 150 146 151
268 1 151 152 155
269 1 151 152 156
270 1 153 151 152
271 3 153 151 154
272 1 154 151 152
273 3 155 152 156
274 1 158 159 162
275 1 158 159 163
276 2 158 159 164
277 2 159 164 165
278 1 159 164 166
279 1 159 164 167
280 1 160 158 159
281 3 160 158 161
282 1 161 158 159
283 3 162 159 163
284 1 162 159 164
285 1 163 159 164
286 1 164 165 168
287 1 164 165 169
288 2 164 165 170
289 2 165 170 171
290 1 165 170 172
291 1 165 170 173
292 1 166 164 165
293 3 166 164 167
294 1 167 164 165
295 3 168 165 169
296 1 168 165 170
297 1 169 165 170
298 1 170 171 174
299 1 170 171 175
300 2 170 171 176
301 2 171 176 177
302 1 171 176 178
303 1 171 176 179
304 1 172 170 171
305 3 172 170 173
306 1 173 170 171
307 3 174 171 175
308 1 174 171 176
309 1 175 171 176
310 1 176 177 180
311 1 176 177 181
312 2 176 177 182
313 2 177 182 183
314 1 177 182 184
315 1 177 182 185
316 1 178 176 177
317 3 178 176 179
318 1 179 176 177
319 3 180 177 181
320 1 180 177 182
321 1 181 177 182
322 1 182 183 186
323 1 182 183 187
324 1 184 182 183
325 3 184 182 185
326 1 185 182 183
327 3 186 183 187
328 1 189 190 193
329 1 189 190 194
330 2 189 190 195
331 2 190 195 196
332 1 190 195 197
333 1 190 195 198
334 1 191 189 190
335 3 191 189 192
336 1 192 189 190
337 3 193 190 194
338 1 193 190 195
339 1 194 190 195
340 1 195 196 199
341 1 195 196 200
342 2 195 196 201
343 2 196 201 202
344 1 196 201 203
345 1 196 201 204
346 1 197 195 196
347 3 197 195 198
348 1 198 195 196
349 3 199 196 200
350 1 199 196 201
351 1 200 196 201
352 1 201 202 205
353 1 201 202 206
354 2 201 202 207
355 2 202 207 208
356 1 202 207 209
357 1 202 207 210
358 1 203 201 202
359 3 203 201 204
360 1 204 201 202
361 3 205 202 206
362 1 205 202 207
363 1 206 202 207
364 1 207 208 211
365 1 207 208 212
366 2 207 208 213
367 2 208 213 214
368 1 208 213 215
369 1 208 213 216
370 1 209 207 208
371 3 209 207 210
372 1 210 207 208
373 3 211 208 212
374 1 211 208 213
375 1 212 208 213
376 1 213 214 217
377 1 213 214 218
378 1 215 213 214
379 3 215 213 216
380 1 216 213 214
381 3 217 214 218
382 1 220 221 224
383 1 220 221 225
384 2 220 221 226
385 2 221 226 227
386 1 221 226 228
387 1 221 226 229
388 1 222 220 221
389 3 222 220 223
390 1 223 220 221
391 3 224 221 225
392 1 224 221 226
393 1 225 221 226
394 1 226 227 230
395 1 226 227 231
396 2 226 227 232
397 2 227 232 233
398 1 227 232 234
399 1 227 232 235
400 1 228 226 227
401 3 228 226 229
402 1 229 226 227
403 3 230 227 231
404 1 230 227 232
405 1 231 227 232
406 1 232 233 236
407 1 232 233 237
408 2 232 233 238
409 2 233 238 239
410 1 233 238 240
411 1 233 238 241
412 1 234 232 233
413 3 234 232 235
414 1 235 232 233
415 3 236 233 237
416 1 236 233 238
417 1 237 233 238
418 1 238 239 242
419 1 238 239 243
420 2 238 239 244
421 2 239 244 245
422 1 239 244 246
423 1 239 244 247
424 1 240 238 239
425 3 240 238 241
426 1 241 238 239
427 3 242 239 243
428 1 242 239 244
429 1 243 239 244
430 1 244 245 248
431 1 244 245 249
432 1 246 244 245
433 3 246 244 247
434 1 247 244 245
435 3 248 245 249
436 1 251 252 255
437 1 251 252 256
438 2 251 252 257
439 2 252 257 258
440 1 252 257 259
441 1 252 257 260
442 1 253 251 252
443 3 253 251 254
444 1 254 251 252
445 3 255 252 256
446 1 255 252 257
447 1 256 252 257
448 1 257 258 261
449 1 257 258 262
450 2 257 258 263
451 2 258 263 264
452 1 258 263 265
453 1 258 263 266
454 1 259 257 258
455 3 259 257 260
456 1 260 257 258
457 3 261 258 262
458 1 261 258 263
459 1 262 258 263
460 1 263 264 267
461 1 263 264 268
462 2 263 264 269
463 2 264 269 270
464 1 264 269 271
465 1 264 269 272
466 1 265 263 264
467 3 265 263 266
468 1 266 263 264
469 3 267 264 268
470 1 267 264 269
471 1 268 264 269
472 1 269 270 273
473 1 269 270 274
474 2 269 270 275
475 2 270 275 276
476 1 270 275 277
477 1 270 275 278
478 1 271 269 270
479 3 271 269 272
480 1 272 269 270
481 3 273 270 274
482 1 273 270 275
483 1 274 270 275
484 1 275 276 279
485 1 275 276 280
486 1 277 275 276
487 3 277 275 278
488 1 278 275 276
489 3 279 276 280
490 1 282 283 286
491 1 282 283 287
492 1 282 283 288
493 1 284 282 283
494 3 284 282 285
495 1 285 282 283
496 3 286 283 287
497 3 286 283 288
498 3 287 283 288
499 2 289 290 282
500 1 289 290 293
501 1 289 290 294
502 2 290 282 283
503 1 290 282 284
504 1 290 282 285
505 1 291 289 290
506 3 291 289 292
507 1 292 289 290
508 1 293 290 282
509 3 293 290 294
510 1 294 290 282
511 2 295 296 289
512 1 295 296 299
513 1 295 296 300
514 2 296 289 290
515 1 296 289 291
516 1 296 289 292
517 1 297 295 296
518 3 297 295 298
519 1 298 295 296
520 1 299 296 289
521 3 299 296 300
522 1 300 296 289
523 2 301 302 295
524 1 301 302 305
525 1 301 302 306
526 2 302 295 296
527 1 302 295 297
528 1 302 295 298
529 1 303 301 302
530 3 303 301 304
531 1 304 301 302
532 1 305 302 295
533 3 305 302 306
534 1 306 302 295
535 2 307 308 301
536 1 307 308 311
537 1 307 308 312
538 2 308 301 302
539 1 308 301 303
540 1 308 301 304
541 1 309 307 308
542 3 309 307 310
543 1 310 307 308
544 1 311 308 301
545 3 311 308 312
546 1 312 308 301
547 1 314 315 318
548 1 314 315 319
549 1 314 315 320
550 2 314 321 322
551 1 314 321 323
552 1 314 321 324
553 1 316 314 315
554 3 316 314 317
555 1 316 314 321
556 1 317 314 315
557 1 317 314 321
558 3 318 315 319
559 3 318 315 320
560 3 319 315 320
561 2 321 314 315
562 1 321 322 325
563 1 321 322 326
564 2 321 322 327
565 2 322 327 328
566 1 322 327 329
567 1 322 327 330
568 1 323 321 322
569 3 323 321 324
570 1 324 321 322
571 3 325 322 326
572 1 325 322 327
573 1 326 322 327
574 1 327 328 331
575 1 327 328 332
576 2 327 328 333
577 2 328 333 334
578 1 328 333 335
579 1 328 333 336
580 1 329 327 328
581 3 329 327 330
582 1 330 327 328
583 3 331 328 332
584 1 331 328 333
585 1 332 328 333
586 1 333 334 337
587 1 333 334 338
588 2 333 334 339
589 2 334 339 340
590 1 334 339 341
591 1 334 339 342
592 1 335 333 334
593 3 335 333 336
594 1 336 333 334
595 3 337 334 338
596 1 337 334 339
597 1 338 334 339
598 1 339 340 343
599 1 339 340 344
600 1 341 339 340
601 3 341 339 342
602 1 342 339 340
603 3 343 340 344
604 1 346 347 350
605 1 346 347 351
606 2 346 347 352
607 2 347 352 353
608 1 347 352 354
609 1 347 352 355
610 1 348 346 347
611 3 348 346 349
612 1 349 346 347
613 3 350 347 351
614 1 350 347 352
615 1 351 347 352
616 1 352 353 356
617 1 352 353 357
618 2 352 353 358
619 2 353 358 359
620 1 353 358 360
621 1 353 358 361
622 1 354 352 353
623 3 354 352 355
624 1 355 352 353
625 3 356 353 357
626 1 356 353 358
627 1 357 353 358
628 1 358 359 362
629 1 358 359 363
630 2 358 359 364
631 2 359 364 365
632 1 359 364 366
633 1 359 364 367
634 1 360 358 359
635 3 360 358 361
636 1 361 358 359
637 3 362 359 363
638 1 362 359 364
639 1 363 359 364
640 1 364 365 368
641 1 364 365 369
642 2 364 365 370
643 2 365 370 371
644 1 365 370 372
645 1 365 370 373
646 1 366 364 365
647 3 366 364 367
648 1 367 364 365
649 3 368 365 369
650 1 368 365 370
651 1 369 365 370
652 1 370 371 374
653 1 370 371 375
654 1 372 370 371
655 3 372 370 373
656 1 373 370 371
657 3 374 371 375
658 1 377 378 381
659 1 377 378 382
660 2 377 378 383
661 2 378 383 384
662 1 378 383 385
663 1 378 383 386
664 1 379 377 378
665 3 379 377 380
666 1 380 377 378
667 3 381 378 382
668 1 381 378 383
669 1 382 378 383
670 1 383 384 387
671 1 383 384 388
672 2 383 384 389
673 2 384 389 390
674 1 384 389 391
675 1 384 389 392
676 1 385 383 384
677 3 385 383 386
678 1 386 383 384
679 3 387 384 388
680 1 387 384 389
681 1 388 384 389
682 1 389 390 393
683 1 389 390 394
684 2 389 390 395
685 2 390 395 396
686 1 390 395 397
687 1 390 395 398
688 1 391 389 390
689 3 391 389 392
690 1 392 389 390
691 3 393 390 394
692 1 393 390 395
693 1 394 390 395
694 1 395 396 399
695 1 395 396 400
696 2 395 396 401
697 2 396 401 402
698 1 396 401 403
699 1 396 401 404
700 1 397 395 396
701 3 397 395 398
702 1 398 395 396
703 3 399 396 400
704 1 399 396 401
705 1 400 396 401
706 1 401 402 405
707 1 401 402 406
708 1 403 401 402
709 3 403 401 404
710 1 404 401 402
711 3 405 402 406
712 1 408 409 412
713 1 408 409 413
714 2 408 409 414
715 2 409 414 415
716 1 409 414 416
717 1 409 414 417
718 1 410 408 409
719 3 410 408 411
720 1 411 408 409
721 3 412 409 413
722 1 412 409 414
723 1 413 409 414
724 1 414 415 418
725 1 414 415 419
726 2 414 415 420
727 2 415 420 421
728 1 415 420 422
729 1 415 420 423
730 1 416 414 415
731 3 416 414 417
732 1 417 414 415
733 3 418 415 419
734 1 418 415 420
735 1 419 415 420
736 1 420 421 424
737 1 420 421 425
738 2 420 421 426
739 2 421 426 427
740 1 421 426 428
741 1 421 426 429
742 1 422 420 421
743 3 422 420 423
744 1 423 420 421
745 3 424 421 425
746 1 424 421 426
747 1 425 421 426
748 1 426 427 430
749 1 426 427 431
750 2 426 427 432
751 2 427 432 433
752 1 427 432 434
753 1 427 432 435
754 1 428 426 427
755 3 428 426 429
756 1 429 426 427
757 3 430 427 431
758 1 430 427 432
759 1 431 427 432
760 1 432 433 436
761 1 432 433 437
762 1 434 432 433
763 3 434 432 435
764 1 435 432 433
765 3 436 433 437
766 1 439 440 443
767 1 439 440 444
768 2 439 440 445
769 2 440 445 446
770 1 440 445 447
771 1 440 445 448
772 1 441 439 440
773 3 441 439 442
774 1 442 439 440
775 3 443 440 444
776 1 443 440 445
777 1 444 440 445
778 1 445 446 449
779 1 445 446 450
780 2 445 446 451
781 2 446 451 452
782 1 446 451 453
783 1 446 451 454
784 1 447 445 446
785 3 447 445 448
786 1 448 445 446
787 3 449 446 450
788 1 449 446 451
789 1 450 446 451
790 1 451 452 455
791 1 451 452 456
792 2 451 452 457
793 2 452 457 458
794 1 452 457 459
795 1 452 457 460
796 1 453 451 452
797 3 453 451 454
798 1 454 451 452
799 3 455 452 456
800 1 455 452 457
801 1 456 452 457
802 1 457 458 461
803 1 457 458 462
804 2 457 458 463
805 2 458 463 464
806 1 458 463 465
807 1 458 463 466
808 1 459 457 458
809 3 459 457 460
810 1 460 457 458
811 3 461 458 462
812 1 461 458 463
813 1 462 458 463
814 1 463 464 467
815 1 463 464 468
816 1 465 463 464
817 3 465 463 466
818 1 466 463 464
819 3 467 464 468
820 1 470 471 474
821 1 470 471 475
822 2 470 471 476
823 2 471 476 477
824 1 471 476 478
825 1 471 476 479
826 1 472 470 471
827 3 472 470 473
828 1 473 470 471
829 3 474 471 475
830 1 474 471 476
831 1 475 471 476
832 1 476 477 480
833 1 476 477 481
834 2 476 477 482
835 2 477 482 483
836 1 477 482 484
837 1 477 482 485
838 1 478 476 477
839 3 478 476 479
840 1 479 476 477
841 3 480 477 481
842 1 480 477 482
843 1 481 477 482
844 1 482 483 486
845 1 482 483 487
846 2 482 483 488
847 2 483 488 489
848 1 483 488 490
849 1 483 488 491
850 1 484 482 483
851 3 484 482 485
852 1 485 482 483
853 3 486 483 487
854 1 486 483 488
855 1 487 483 488
856 1 488 489 492
857 1 488 489 493
858 2 488 489 494
859 2 489 494 495
860 1 489 494 496
861 1 489 494 497
862 1 490 488 489
863 3 490 488 491
864 1 491 488 489
865 3 492 489 493
866 1 492 489 494
867 1 493 489 494
868 1 494 495 498
869 1 494 495 499
870 1 496 494 495
871 3 496 494 497
872 1 497 494 495
873 3 498 495 499
874 1 501 502 505
875 1 501 502 506
876 2 501 502 507
877 2 502 507 508
878 1 502 507 509
879 1 502 507 510
880 1 503 501 502
881 3 503 501 504
882 1 504 501 502
883 3 505 502 506
884 1 505 502 507
885 1 506 502 507
886 1 507 508 511
887 1 507 508 512
888 2 507 508 513
889 2 508 513 514
890 1 508 513 515
891 1 508 513 516
892 1 509 507 508
893 3 509 507 510
894 1 510 507 508
895 3 511 508 512
896 1 511 508 513
897 1 512 508 513
898 1 513 514 517
899 1 513 514 518
900 2 513 514 519
901 2 514 519 520
902 1 514 519 521
903 1 514 519 522
904 1 515 513 514
905 3 515 513 516
906 1 516 513 514
907 3 517 514 518
908 1 517 514 519
909 1 518 514 519
910 1 519 520 523
911 1 519 520 524
912 2 519 520 525
913 2 520 525 526
914 1 520 525 527
915 1 520 525 528
916 1 521 519 520
917 3 521 519 522
918 1 522 519 520
919 3 523 520 524
920 1 523 520 525
921 1 524 520 525
922 1 525 526 529
923 1 525 526 530
924 1 527 525 526
925 3 527 525 528
926 1 528 525 526
927 3 529 526 530
928 1 532 533 536
929 1 532 533 537
930 2 532 533 538
931 2 533 538 539
932 1 533 538 540
933 1 533 538 541
934 1 534 532 533
935 3 534 532 535
936 1 535 532 533
937 3 536 533 537
938 1 536 533 538
939 1 537 533 538
940 1 538 539 542
941 1 538 539 543
942 2 538 539 544
943 2 539 544 545
944 1 539 544 546
945 1 539 544 547
946 1 540 538 539
947 3 540 538 541
948 1 541 538 539
949 3 542 539 543
950 1 542 539 544
951 1 543 539 544
952 1 544 545 548
953 1 544 545 549
954 2 544 545 550
955 2 545 550 551
956 1 545 550 552
957 1 545 550 553
958 1 546 544 545
959 3 546 544 547
960 1 547 544 545
961 3 548 545 549
962 1 548 545 550
963 1 549 545 550
964 1 550 551 554
965 1 550 551 555
966 2 550 551 556
967 2 551 556 557
968 1 551 556 558
969 1 551 556 559
970 1 552 550 551
971 3 552 550 553
972 1 553 550 551
973 3 554 551 555
974 1 554 551 556
975 1 555 551 556
976 1 556 557 560
977 1 556 557 561
978 1 558 556 557
979 3 558 556 559
980 1 559 556 557
981 3 560 557 561
982 1 563 564 567
983 1 563 564 568
984 2 563 564 569
985 2 564 569 570
986 1 564 569 571
987 1 564 569 572
988 1 565 563 564
989 3 565 563 566
990 1 566 563 564
991 3 567 564 568
992 1 567 564 569
993 1 568 564 569
994 1 569 570 573
995 1 569 570 574
996 2 569 570 575
997 2 570 575 576
998 1 570 575 577
999 1 570 575 578
1000 1 571 569 570
1001 3 571 569 572
1002 1 572 569 570
1003 3 573 570 574
1004 1 573 570 575
1005 1 574 570 575
1006 1 575 576 579
1007 1 575 576 580
1008 2 575 576 581
1009 2 576 581 582
1010 1 576 581 583
1011 1 576 581 584
1012 1 577 575 576
1013 3 577 575 578
1014 1 578 575 576
1015 3 579 576 580
1016 1 579 576 581
1017 1 580 576 581
1018 1 581 582 585
1019 1 581 582 586
1020 2 581 582 587
1021 2 582 587 588
1022 1 582 587 589
1023 1 582 587 590
1024 1 583 581 582
1025 3 583 581 584
1026 1 584 581 582
1027 3 585 582 586
1028 1 585 582 587
1029 1 586 582 587
1030 1 587 588 591
1031 1 587 588 592
1032 1 589 587 588
1033 3 589 587 590
1034 1 590 587 588
1035 3 591 588 592
1036 1 594 595 598
1037 1 594 595 599
1038 1 594 595 600
1039 1 596 594 595
1040 3 596 594 597
1041 1 597 594 595
1042 3 598 595 599
1043 3 598 595 600
1044 3 599 595 600
1045 2 601 602 594
1046 1 601 602 605
1047 1 601 602 606
1048 2 602 594 595
1049 1 602 594 596
1050 1 602 594 597
1051 1 603 601 602
1052 3 603 601 604
1053 1 604 601 602
1054 1 605 602 594
1055 3 605 602 606
1056 1 606 602 594
1057 2 607 608 601
1058 1 607 608 611
1059 1 607 608 612
1060 2 608 601 602
1061 1 608 601 603
1062 1 608 601 604
1063 1 609 607 608
1064 3 609 607 610
1065 1 610 607 608
1066 1 611 608 601
1067 3 611 608 612
1068 1 612 608 601
1069 2 613 614 607
1070 1 613 614 617
1071 1 613 614 618
1072 2 614 607 608
1073 1 614 607 609
1074 1 614 607 610
1075 1 615 613 614
1076 3 615 613 616
1077 1 616 613 614
1078 1 617 614 607
1079 3 617 614 618
1080 1 618 614 607
1081 2 619 620 613
1082 1 619 620 623
1083 1 619 620 624
1084 2 620 613 614
1085 1 620 613 615
1086 1 620 613 616
1087 1 621 619 620
1088 3 621 619 622
1089 1 622 619 620
1090 1 623 620 613
1091 3 623 620 624
1092 1 624 620 613
1093 1 626 627 630
1094 1 626 627 631
1095 1 626 627 632
1096 2 626 633 634
1097 1 626 633 635
1098 1 626 633 636
1099 1 628 626 627
1100 3 628 626 629
1101 1 628 626 633
1102 1 629 626 627
1103 1 629 626 633
1104 3 630 627 631
1105 3 630 627 632
1106 3 631 627 632
1107 2 633 626 627
1108 1 633 634 637
1109 1 633 634 638
1110 2 633 634 639
1111 2 634 639 640
1112 1 634 639 641
1113 1 634 639 642
1114 1 635 633 634
1115 3 635 633 636
1116 1 636 633 634
1117 3 637 634 638
1118 1 637 634 639
1119 1 638 634 639
1120 1 639 640 643
1121 1 639 640 644
1122 2 639 640 645
1123 2 640 645 646
1124 1 640 645 647
1125 1 640 645 648
1126 1 641 639 640
1127 3 641 639 642
1128 1 642 639 640
1129 3 643 640 644
1130 1 643 640 645
1131 1 644 640 645
1132 1 645 646 649
1133 1 645 646 650
1134 2 645 646 651
1135 2 646 651 652
1136 1 646 651 653
1137 1 646 651 654
1138 1 647 645 646
1139 3 647 645 648
1140 1 648 645 646
1141 3 649 646 650
1142 1 649 646 651
1143 1 650 646 651
1144 1 651 652 655
1145 1 651 652 656
1146 1 653 651 652
1147 3 653 651 654
1148 1 654 651 652
1149 3 655 652 656
1150 1 658 659 662
1151 1 658 659 663
1152 2 658 659 664
1153 2 659 664 665
1154 1 659 664 666
1155 1 659 664 667
1156 1 660 658 659
1157 3 660 658 661
1158 1 661 658 659
1159 3 662 659 663
1160 1 662 659 664
1161 1 663 659 664
1162 1 664 665 668
1163 1 664 665 669
1164 2 664 665 670
1165 2 665 670 671
1166 1 665 670 672
1167 1 665 670 673
1168 1 666 664 665
1169 3 666 664 667
1170 1 667 664 665
1171 3 668 665 669
1172 1 668 665 670
1173 1 669 665 670
1174 1 670 671 674
1175 1 670 671 675
1176 2 670 671 676
1177 2 671 676 677
1178 1 671 676 678
1179 1 671 676 679
1180 1 672 670 671
1181 3 672 670 673
1182 1 673 670 671
1183 3 674 671 675
1184 1 674 671 676
1185 1 675 671 676
1186 1 676 677 680
1187 1 676 677 681
1188 2 676 677 682
1189 2 677 682 683
1190 1 677 682 684
1191 1 677 682 685
1192 1 678 676 677
1193 3 678 676 679
1194 1 679 676 677
1195 3 680 677 681
1196 1 680 677 682
1197 1 681 677 682
1198 1 682 683 686
1199 1 682 683 687
1200 1 684 682 683
1201 3 684 682 685
1202 1 685 682 683
1203 3 686 683 687
1204 1 689 690 693
1205 1 689 690 694
1206 2 689 690 695
1207 2 690 695 696
1208 1 690 695 697
1209 1 690 695 698
1210 1 691 689 690
1211 3 691 689 692
1212 1 692 689 690
1213 3 693 690 694
1214 1 693 690 695
1215 1 694 690 695
1216 1 695 696 699
1217 1 695 696 700
1218 2 695 696 701
1219 2 696 701 702
1220 1 696 701 703
1221 1 696 701 704
1222 1 697 695 696
1223 3 697 695 698
1224 1 698 695 696
1225 3 699 696 700
1226 1 699 696 701
1227 1 700 696 701
1228 1 701 702 705
1229 1 701 702 706
1230 2 701 702 707
1231 2 702 707 708
1232 1 702 707 709
1233 1 702 707 710
1234 1 703 701 702
1235 3 703 701 704
1236 1 704 701 702
1237 3 705 702 706
1238 1 705 702 707
1239 1 706 702 707
1240 1 707 708 711
1241 1 707 708 712
1242 2 707 708 713
1243 2 708 713 714
1244 1 708 713 715
1245 1 708 713 716
1246 1 709 707 708
1247 3 709 707 710
1248 1 710 707 708
1249 3 711 708 712
1250 1 711 708 713
1251 1 712 708 713
1252 1 713 714 717
1253 1 713 714 718
1254 1 715 713 714
1255 3 715 713 716
1256 1 716 713 714
1257 3 717 714 718
1258 1 720 721 724
1259 1 720 721 725
1260 2 720 721 726
1261 2 721 726 727
1262 1 721 726 728
1263 1 721 726 729
1264 1 722 720 721
1265 3 722 720 723
1266 1 723 720 721
1267 3 724 721 725
1268 1 724 721 726
1269 1 725 721 726
1270 1 726 727 730
1271 1 726 727 731
1272 2 726 727 732
1273 2 727 732 733
1274 1 727 732 734
1275 1 727 732 735
1276 1 728 726 727
1277 3 728 726 729
1278 1 729 726 727
1279 3 730 727 731
1280 1 730 727 732
1281 1 731 727 732
1282 1 732 733 736
1283 1 732 733 737
1284 2 732 733 738
1285 2 733 738 739
1286 1 733 738 740
1287 1 733 738 741
1288 1 734 732 733
1289 3 734 732 735
1290 1 735 732 733
1291 3 736 733 737
1292 1 736 733 738
1293 1 737 733 738
1294 1 738 739 742
1295 1 738 739 743
1296 2 738 739 744
1297 2 739 744 745
1298 1 739 744 746
1299 1 739 744 747
1300 1 740 738 739
1301 3 740 738 741
1302 1 741 738 739
1303 3 742 739 743
1304 1 742 739 744
1305 1 743 739 744
1306 1 744 745 748
1307 1 744 745 749
1308 1 746 744 745
1309 3 746 744 747
1310 1 747 744 745
1311 3 748 745 749
1312 1 751 752 755
1313 1 751 752 756
1314 2 751 752 757
1315 2 752 757 758
1316 1 752 757 759
1317 1 752 757 760
1318 1 753 751 752
1319 3 753 751 754
1320 1 754 751 752
1321 3 755 752 756
1322 1 755 752 757
1323 1 756 752 757
1324 1 757 758 761
1325 1 757 758 762
1326 2 757 758 763
1327 2 758 763 764
1328 1 758 763 765
1329 1 758 763 766
1330 1 759 757 758
1331 3 759 757 760
1332 1 760 757 758
1333 3 761 758 762
1334 1 761 758 763
1335 1 762 758 763
1336 1 763 764 767
1337 1 763 764 768
1338 2 763 764 769
1339 2 764 769 770
1340 1 764 769 771
1341 1 764 769 772
1342 1 765 763 764
1343 3 765 763 766
1344 1 766 763 764
1345 3 767 764 768
1346 1 767 764 769
1347 1 768 764 769
1348 1 769 770 773
1349 1 769 770 774
1350 2 769 770 775
1351 2 770 775 776
1352 1 770 775 777
1353 1 770 775 778
1354 1 771 769 770
1355 3 771 769 772
1356 1 772 769 770
1357 3 773 770 774
1358 1 773 770 775
1359 1 774 770 775
1360 1 775 776 779
1361 1 775 776 780
1362 1 777 775 776
1363 3 777 775 778
1364 1 778 775 776
1365 3 779 776 780
1366 1 782 783 786
1367 1 782 783 787
1368 2 782 783 788
1369 2 783 788 789
1370 1 783 788 790
1371 1 783 788 791
1372 1 784 782 783
1373 3 784 782 785
1374 1 785 782 783
1375 3 786 783 787
1376 1 786 783 788
1377 1 787 783 788
1378 1 788 789 792
1379 1 788 789 793
1380 2 788 789 794
1381 2 789 794 795
1382 1 789 794 796
1383 1 789 794 797
1384 1 790 788 789
1385 3 790 788 791
1386 1 791 788 789
1387 3 792 789 793
1388 1 792 789 794
1389 1 793 789 794
1390 1 794 795 798
1391 1 794 795 799
1392 2 794 795 800
1393 2 795 800 801
1394 1 795 800 802
1395 1 795 800 803
1396 1 796 794 795
1397 3 796 794 797
1398 1 797 794 795
1399 3 798 795 799
1400 1 798 795 800
1401 1 799 795 800
1402 1 800 801 804
1403 1 800 801 805
1404 2 800 801 806
1405 2 801 806 807
1406 1 801 806 808
1407 1 801 806 809
1408 1 802 800 801
1409 3 802 800 803
1410 1 803 800 801
1411 3 804 801 805
1412 1 804 801 806
1413 1 805 801 806
1414 1 806 807 810
1415 1 806 807 811
1416 1 808 806 807
1417 3 808 806 809
1418 1 809 806 807
1419 3 810 807 811
1420 1 813 814 817
1421 1 813 814 818
1422 2 813 814 819
1423 2 814 819 820
1424 1 814 819 821
1425 1 814 819 822
1426 1 815 813 814
1427 3 815 813 816
1428 1 816 813 814
1429 3 817 814 818
1430 1 817 814 819
1431 1 818 814 819
1432 1 819 820 823
1433 1 819 820 824
1434 2 819 820 825
1435 2 820 825 826
1436 1 820 825 827
1437 1 820 825 828
1438 1 821 819 820
1439 3 821 819 822
1440 1 822 819 820
1441 3 823 820 824
1442 1 823 820 825
1443 1 824 820 825
1444 1 825 826 829
1445 1 825 826 830
1446 2 825 826 831
1447 2 826 831 832
1448 1 826 831 833
1449 1 826 831 834
1450 1 827 825 826
1451 3 827 825 828
1452 1 828 825 826
1453 3 829 826 830
1454 1 829 826 831
1455 1 830 826 831
1456 1 831 832 835
1457 1 831 832 836
1458 2 831 832 837
1459 2 832 837 838
1460 1 832 837 839
1461 1 832 837 840
1462 1 833 831 832
1463 3 833 831 834
1464 1 834 831 832
1465 3 835 832 836
1466 1 835 832 837
1467 1 836 832 837
1468 1 837 838 841
1469 1 837 838 842
1470 1 839 837 838
1471 3 839 837 840
1472 1 840 837 838
1473 3 841 838 842
1474 1 844 845 848
1475 1 844 845 849
1476 2 844 845 850
1477 2 845 850 851
1478 1 845 850 852
1479 1 845 850 853
1480 1 846 844 845
1481 3 846 844 847
1482 1 847 844 845
1483 3 848 845 849
1484 1 848 845 850
1485 1 849 845 850
1486 1 850 851 854
1487 1 850 851 855
1488 2 850 851 856
1489 2 851 856 857
1490 1 851 856 858
1491 1 851 856 859
1492 1 852 850 851
1493 3 852 850 853
1494 1 853 850 851
1495 3 854 851 855
1496 1 854 851 856
1497 1 855 851 856
1498 1 856 857 860
1499 1 856 857 861
1500 2 856 857 862
1501 2 857 862 863
1502 1 857 862 864
1503 1 857 862 865
1504 1 858 856 857
1505 3 858 856 859
1506 1 859 856 857
1507 3 860 857 861
1508 1 860 857 862
1509 1 861 857 862
1510 1 862 863 866
1511 1 862 863 867
1512 2 862 863 868
1513 2 863 868 869
1514 1 863 868 870
1515 1 863 868 871
1516 1 864 862 863
1517 3 864 862 865
1518 1 865 862 863
1519 3 866 863 867
1520 1 866 863 868
1521 1 867 863 868
1522 1 868 869 872
1523 1 868 869 873
1524 1 870 868 869
1525 3 870 868 871
1526 1 871 868 869
1527 3 872 869 873
1528 1 875 876 879
1529 1 875 876 880
1530 2 875 876 881
1531 2 876 881 882
1532 1 876 881 883
1533 1 876 881 884
1534 1 877 875 876
1535 3 877 875 878
1536 1 878 875 876
1537 3 879 876 880
1538 1 879 876 881
1539 1 880 876 881
1540 1 881 882 885
1541 1 881 882 886
1542 2 881 882 887
1543 2 882 887 888
1544 1 882 887 889
1545 1 882 887 890
1546 1 883 881 882
1547 3 883 881 884
1548 1 884 881 882
1549 3 885 882 886
1550 1 885 882 887
1551 1 886 882 887
1552 1 887 888 891
1553 1 887 888 892
1554 2 887 888 893
1555 2 888 893 894
1556 1 888 893 895
1557 1 888 893 896
1558 1 889 887 888
1559 3 889 887 890
1560 1 890 887 888
1561 3 891 888 892
1562 1 891 888 893
1563 1 892 888 893
1564 1 893 894 897
1565 1 893 894 898
1566 2 893 894 899
1567 2 894 899 900
1568 1 894 899 901
1569 1 894 899 902
1570 1 895 893 894
1571 3 895 893 896
1572 1 896 893 894
1573 3 897 894 898
1574 1 897 894 899
1575 1 898 894 899
1576 1 899 900 903
1577 1 899 900 904
1578 1 901 899 900
1579 3 901 899 902
1580 1 902 899 900
1581 3 903 900 904
1582 1 906 907 910
1583 1 906 907 911
1584 1 906 907 912
1585 1 908 906 907
1586 3 908 906 909
1587 1 909 906 907
1588 3 910 907 911
1589 3 910 907 912
1590 3 911 907 912
1591 2 913 914 906
1592 1 913 914 917
1593 1 913 914 918
1594 2 914 906 907
1595 1 914 906 908
1596 1 914 906 909
1597 1 915 913 914
1598 3 915 913 916
1599 1 916 913 914
1600 1 917 914 906
1601 3 917 914 918
1602 1 918 914 906
1603 2 919 920 913
1604 1 919 920 923
1605 1 919 920 924
1606 2 920 913 914
1607 1 920 913 915
1608 1 920 913 916
1609 1 921 919 920
1610 3 921 919 922
1611 1 922 919 920
1612 1 923 920 913
1613 3 923 920 924
1614 1 924 920 913
1615 2 925 926 919
1616 1 925 926 929
1617 1 925 926 930
1618 2 926 919 920
1619 1 926 919 921
1620 1 926 919 922
1621 1 927 925 926
1622 3 927 925 928
1623 1 928 925 926
1624 1 929 926 919
1625 3 929 926 930
1626 1 930 926 919
1627 2 931 932 925
1628 1 931 932 935
1629 1 931 932 936
1630 2 932 925 926
1631 1 932 925 927
1632 1 932 925 928
1633 1 933 931 932
1634 3 933 931 934
1635 1 934 931 932
1636 1 935 932 925
1637 3 935 932 936
1638 1 936 932 925
1639 1 938 939 942
1640 1 938 939 943
1641 1 938 939 944
1642 2 938 945 946
1643 1 938 945 947
1644 1 938 945 948
1645 1 940 938 939
1646 3 940 938 941
1647 1 940 938 945
1648 1 941 938 939
1649 1 941 938 945
1650 3 942 939 943
1651 3 942 939 944
1652 3 943 939 944
1653 2 945 938 939
1654 1 945 946 949
1655 1 945 946 950
1656 2 945 946 951
1657 2 946 951 952
1658 1 946 951 953
1659 1 946 951 954
1660 1 947 945 946
1661 3 947 945 948
1662 1 948 945 946
1663 3 949 946 950
1664 1 949 946 951
1665 1 950 946 951
1666 1 951 952 955
1667 1 951 952 956
1668 2 951 952 957
1669 2 952 957 958
1670 1 952 957 959
1671 1 952 957 960
1672 1 953 951 952
1673 3 953 951 954
1674 1 954 951 952
1675 3 955 952 956
1676 1 955 952 957
1677 1 956 952 957
1678 1 957 958 961
1679 1 957 958 962
1680 2 957 958 963
1681 2 958 963 964
1682 1 958 963 965
1683 1 958 963 966
1684 1 959 957 958
1685 3 959 957 960
1686 1 960 957 958
1687 3 961 958 962
1688 1 961 958 963
1689 1 962 958 963
1690 1 963 964 967
1691 1 963 964 968
1692 1 965 963 964
1693 3 965 963 966
1694 1 966 963 964
1695 3 967 964 968
1696 1 970 971 974
1697 1 970 971 975
1698 2 970 971 976
1699 2 971 976 977
1700 1 971 976 978
1701 1 971 976 979
1702 1 972 970 971
1703 3 972 970 973
1704 1 973 970 971
1705 3 974 971 975
1706 1 974 971 976
1707 1 975 971 976
1708 1 976 977 980
1709 1 976 977 981
1710 2 976 977 982
1711 2 977 982 983
1712 1 977 982 984
1713 1 977 982 985
1714 1 978 976 977
1715 3 978 976 979
1716 1 979 976 977
1717 3 980 977 981
1718 1 980 977 982
1719 1 981 977 982
1720 1 982 983 986
1721 1 982 983 987
1722 2 982 983 988
1723 2 983 988 989
1724 1 983 988 990
1725 1 983 988 991
1726 1 984 982 983
1727 3 984 982 985
1728 1 985 982 983
1729 3 986 983 987
1730 1 986 983 988
1731 1 987 983 988
1732 1 988 989 992
1733 1 988 989 993
1734 2 988 989 994
1735 2 989 994 995
1736 1 989 994 996
1737 1 989 994 997
1738 1 990 988 989
1739 3 990 988 991
1740 1 991 988 989
1741 3 992 989 993
1742 1 992 989 994
1743 1 993 989 994
1744 1 994 995 998
1745 1 994 995 999
1746 1 996 994 995
1747 3 996 994 997
1748 1 997 994 995
1749 3 998 995 999
1750 1 1001 1002 1005
1751 1 1001 1002 1006
1752 2 1001 1002 1007
1753 2 1002 1007 1008
1754 1 1002 1007 1009
1755 1 1002 1007 1010
1756 1 1003 1001 1002
1757 3 1003 1001 1004
1758 1 1004 1001 1002
1759 3 1005 1002 1006
1760 1 1005 1002 1007
1761 1 1006 1002 1007
1762 1 1007 1008 1011
1763 1 1007 1008 1012
1764 2 1007 1008 1013
1765 2 1008 1013 1014
1766 1 1008 1013 1015
1767 1 1008 1013 1016
1768 1 1009 1007 1008
1769 3 1009 1007 1010
1770 1 1010 1007 1008
1771 3 1011 1008 1012
1772 1 1011 1008 1013
1773 1 1012 1008 1013
1774 1 1013 1014 1017
1775 1 1013 1014 1018
1776 2 1013 1014 1019
1777 2 1014 1019 1020
1778 1 1014 1019 1021
1779 1 1014 1019 1022
1780 1 1015 1013 1014
1781 3 1015 1013 1016
1782 1 1016 1013 1014
1783 3 1017 1014 1018
1784 1 1017 1014 1019
1785 1 1018 1014 1019
1786 1 1019 1020 1023
1787 1 1019 1020 1024
1788 2 1019 1020 1025
1789 2 1020 1025 1026
1790 1 1020 1025 1027
1791 1 1020 1025 1028
1792 1 1021 1019 1020
1793 3 1021 1019 1022
1794 1 1022 1019 1020
1795 3 1023 1020 1024
1796 1 1023 1020 1025
1797 1 1024 1020 1025
1798 1 1025 1026 1029
1799 1 1025 1026 1030
1800 1 1027 1025 1026
1801 3 1027 1025 1028
1802 1 1028 1025 1026
1803 3 1029 1026 1030
1804 1 1032 1033 1036
1805 1 1032 1033 1037
1806 2 1032 1033 1038
1807 2 1033 1038 1039
1808 1 1033 1038 1040
1809 1 1033 1038 1041
1810 1 1034 1032 1033
1811 3 1034 1032 1035
1812 1 1035 1032 1033
1813 3 1036 1033 1037
1814 1 1036 1033 1038
1815 1 1037 1033 1038
1816 1 1038 1039 1042
1817 1 1038 1039 1043
1818 2 1038 1039 1044
1819 2 1039 1044 1045
1820 1 1039 1044 1046
1821 1 1039 1044 1047
1822 1 1040 1038 1039
1823 3 1040 1038 1041
1824 1 1041 1038 1039
1825 3 1042 1039 1043
1826 1 1042 1039 1044
1827 1 1043 1039 1044
1828 1 1044 1045 1048
1829 1 1044 1045 1049
1830 2 1044 1045 1050
1831 2 1045 1050 1051
1832 1 1045 1050 1052
1833 1 1045 1050 1053
1834 1 1046 1044 1045
1835 3 1046 1044 1047
1836 1 1047 1044 1045
1837 3 1048 1045 1049
1838 1 1048 1045 1050
1839 1 1049 1045 1050
1840 1 1050 1051 1054
1841 1 1050 1051 1055
1842 2 1050 1051 1056
1843 2 1051 1056 1057
1844 1 1051 1056 1058
1845 1 1051 1056 1059
1846 1 1052 1050 1051
1847 3 1052 1050 1053
1848 1 1053 1050 1051
1849 3 1054 1051 1055
1850 1 1054 1051 1056
1851 1 1055 1051 1056
1852 1 1056 1057 1060
1853 1 1056 1057 1061
1854 1 1058 1056 1057
1855 3 1058 1056 1059
1856 1 1059 1056 1057
1857 3 1060 1057 1061
1858 1 1063 1064 1067
1859 1 1063 1064 1068
1860 2 1063 1064 1069
1861 2 1064 1069 1070
1862 1 1064 1069 1071
1863 1 1064 1069 1072
1864 1 1065 1063 1064
1865 3 1065 1063 1066
1866 1 1066 1063 1064
1867 3 1067 1064 1068
1868 1 1067 1064 1069
1869 1 1068 1064 1069
1870 1 1069 1070 1073
1871 1 1069 1070 1074
1872 2 1069 1070 1075
1873 2 1070 1075 1076
1874 1 1070 1075 1077
1875 1 1070 1075 1078
1876 1 1071 1069 1070
1877 3 1071 1069 1072
1878 1 1072 1069 1070
1879 3 1073 1070 1074
1880 1 1073 1070 1075
1881 1 1074 1070 1075
1882 1 1075 1076 1079
1883 1 1075 1076 1080
1884 2 1075 1076 1081
1885 2 1076 1081 1082
1886 1 1076 1081 1083
1887 1 1076 1081 1084
1888 1 1077 1075 1076
1889 3 1077 1075 1078
1890 1 1078 1075 1076
1891 3 1079 1076 1080
1892 1 1079 1076 1081
1893 1 1080 1076 1081
1894 1 1081 1082 1085
1895 1 1081 1082 1086
1896 2 1081 1082 1087
1897 2 1082 1087 1088
1898 1 1082 1087 1089
1899 1 1082 1087 1090
1900 1 1083 1081 1082
1901 3 1083 1081 1084
1902 1 1084 1081 1082
1903 3 1085 1082 1086
1904 1 1085 1082 1087
1905 1 1086 1082 1087
1906 1 1087 1088 1091
1907 1 1087 1088 1092
1908 1 1089 1087 1088
1909 3 1089 1087 1090
1910 1 1090 1087 1088
1911 3 1091 1088 1092
1912 1 1094 1095 1098
1913 1 1094 1095 1099
1914 2 1094 1095 1100
1915 2 1095 1100 1101
1916 1 1095 1100 1102
1917 1 1095 1100 1103
1918 1 1096 1094 1095
1919 3 1096 1094 1097
1920 1 1097 1094 1095
1921 3 1098 1095 1099
1922 1 1098 1095 1100
1923 1 1099 1095 1100
1924 1 1100 1101 1104
1925 1 1100 1101 1105
1926 2 1100 1101 1106
1927 2 1101 1106 1107
1928 1 1101 1106 1108
1929 1 1101 1106 1109
1930 1 1102 1100 1101
1931 3 1102 1100 1103
1932 1 1103 1100 1101
1933 3 1104 1101 1105
1934 1 1104 1101 1106
1935 1 1105 1101 1106
1936 1 1106 1107 1110
1937 1 1106 1107 1111
1938 2 1106 1107 1112
1939 2 1107 1112 1113
1940 1 1107 1112 1114
1941 1 1107 1112 1115
1942 1 1108 1106 1107
1943 3 1108 1106 1109
1944 1 1109 1106 1107
1945 3 1110 1107 1111
1946 1 1110 1107 1112
1947 1 1111 1107 1112
1948 1 1112 1113 1116
1949 1 1112 1113 1117
1950 2 1112 1113 1118
1951 2 1113 1118 1119
1952 1 1113 1118 1120
1953 1 1113 1118 1121
1954 1 1114 1112 1113
1955 3 1114 1112 1115
1956 1 1115 1112 1113
1957 3 1116 1113 1117
1958 1 1116 1113 1118
1959 1 1117 1113 1118
1960 1 1118 1119 1122
1961 1 1118 1119 1123
1962 1 1120 1118 1119
1963 3 1120 1118 1121
1964 1 1121 1118 1119
1965 3 1122 1119 1123
1966 1 1125 1126 1129
1967 1 1125 1126 1130
1968 2 1125 1126 1131
1969 2 1126 1131 1132
1970 1 1126 1131 1133
1971 1 1126 1131 1134
1972 1 1127 1125 1126
1973 3 1127 1125 1128
1974 1 1128 1125 1126
1975 3 1129 1126 1130
1976 1 1129 1126 1131
1977 1 1130 1126 1131
1978 1 1131 1132 1135
1979 1 1131 1132 1136
1980 2 1131 1132 1137
1981 2 1132 1137 1138
1982 1 1132 1137 1139
1983 1 1132 1137 1140
1984 1 1133 1131 1132
1985 3 1133 1131 1134
1986 1 1134 1131 1132
1987 3 1135 1132 1136
1988 1 1135 1132 1137
1989 1 1136 1132 1137
1990 1 1137 1138 1141
1991 1 1137 1138 1142
1992 2 1137 1138 1143
1993 2 1138 1143 1144
1994 1 1138 1143 1145
1995 1 1138 1143 1146
1996 1 1139 1137 1138
1997 3 1139 1137 1140
1998 1 1140 1137 1138
1999 3 1141 1138 1142
2000 1 1141 1138 1143
2001 1 1142 1138 1143
2002 1 1143 1144 1147
2003 1 1143 1144 1148
2004 2 1143 1144 1149
2005 2 1144 1149 1150
2006 1 1144 1149 1151
2007 1 1144 1149 1152
2008 1 1145 1143 1144
2009 3 1145 1143 1146
2010 1 1146 1143 1144
2011 3 1147 1144 1148
2012 1 1147 1144 1149
2013 1 1148 1144 1149
2014 1 1149 1150 1153
2015 1 1149 1150 1154
2016 1 1151 1149 1150
2017 3 1151 1149 1152
2018 1 1152 1149 1150
2019 3 1153 1150 1154
2020 1 1156 1157 1160
2021 1 1156 1157 1161
2022 2 1156 1157 1162
2023 2 1157 1162 1163
2024 1 1157 1162 1164
2025 1 1157 1162 1165
2026 1 1158 1156 1157
2027 3 1158 1156 1159
2028 1 1159 1156 1157
2029 3 1160 1157 1161
2030 1 1160 1157 1162
2031 1 1161 1157 1162
2032 1 1162 1163 1166
2033 1 1162 1163 1167
2034 2 1162 1163 1168
2035 2 1163 1168 1169
2036 1 1163 1168 1170
2037 1 1163 1168 1171
2038 1 1164 1162 1163
2039 3 1164 1162 1165
2040 1 1165 1162 1163
2041 3 1166 1163 1167
2042 1 1166 1163 1168
2043 1 1167 1163 1168
2044 1 1168 1169 1172
2045 1 1168 1169 1173
2046 2 1168 1169 1174
2047 2 1169 1174 1175
2048 1 1169 1174 1176
2049 1 1169 1174 1177
2050 1 1170 1168 1169
2051 3 1170 1168 1171
2052 1 1171 1168 1169
2053 3 1172 1169 1173
2054 1 1172 1169 1174
2055 1 1173 1169 1174
2056 1 1174 1175 1178
2057 1 1174 1175 1179
2058 2 1174 1175 1180
2059 2 1175 1180 1181
2060 1 1175 1180 1182
2061 1 1175 1180 1183
2062 1 1176 1174 1175
2063 3 1176 1174 1177
2064 1 1177 1174 1175
2065 3 1178 1175 1179
2066 1 1178 1175 1180
2067 1 1179 1175 1180
2068 1 1180 1181 1184
2069 1 1180 1181 1185
2070 1 1182 1180 1181
2071 3 1182 1180 1183
2072 1 1183 1180 1181
2073 3 1184 1181 1185
2074 1 1187 1188 1191
2075 1 1187 1188 1192
2076 2 1187 1188 1193
2077 2 1188 1193 1194
2078 1 1188 1193 1195
2079 1 1188 1193 1196
2080 1 1189 1187 1188
2081 3 1189 1187 1190
2082 1 1190 1187 1188
2083 3 1191 1188 1192
2084 1 1191 1188 1193
2085 1 1192 1188 1193
2086 1 1193 1194 1197
2087 1 1193 1194 1198
2088 2 1193 1194 1199
2089 2 1194 1199 1200
2090 1 1194 1199 1201
2091 1 1194 1199 1202
2092 1 1195 1193 1194
2093 3 1195 1193 1196
2094 1 1196 1193 1194
2095 3 1197 1194 1198
2096 1 1197 1194 1199
2097 1 1198 1194 1199
2098 1 1199 1200 1203
2099 1 1199 1200 1204
2100 2 1199 1200 1205
2101 2 1200 1205 1206
2102 1 1200 1205 1207
2103 1 1200 1205 1208
2104 1 1201 1199 1200
2105 3 1201 1199 1202
2106 1 1202 1199 1200
2107 3 1203 1200 1204
2108 1 1203 1200 1205
2109 1 1204 1200 1205
2110 1 1205 1206 1209
2111 1 1205 1206 1210
2112 2 1205 1206 1211
2113 2 1206 1211 1212
2114 1 1206 1211 1213
2115 1 1206 1211 1214
2116 1 1207 1205 1206
2117 3 1207 1205 1208
2118 1 1208 1205 1206
2119 3 1209 1206 1210
2120 1 1209 1206 1211
2121 1 1210 1206 1211
2122 1 1211 1212 1215
2123 1 1211 1212 1216
2124 1 1213 1211 1212
2125 3 1213 1211 1214
2126 1 1214 1211 1212
2127 3 1215 1212 1216
2128 1 1218 1219 1222
2129 1 1218 1219 1223
2130 1 1218 1219 1224
2131 1 1220 1218 1219
2132 3 1220 1218 1221
2133 1 1221 1218 1219
2134 3 1222 1219 1223
2135 3 1222 1219 1224
2136 3 1223 1219 1224
2137 2 1225 1226 1218
2138 1 1225 1226 1229
2139 1 1225 1226 1230
2140 2 1226 1218 1219
2141 1 1226 1218 1220
2142 1 1226 1218 1221
2143 1 1227 1225 1226
2144 3 1227 1225 1228
2145 1 1228 1225 1226
2146 1 1229 1226 1218
2147 3 1229 1226 1230
2148 1 1230 1226 1218
2149 2 1231 1232 1225
2150 1 1231 1232 1235
2151 1 1231 1232 1236
2152 2 1232 1225 1226
2153 1 1232 1225 1227
2154 1 1232 1225 1228
2155 1 1233 1231 1232
2156 3 1233 1231 1234
2157 1 1234 1231 1232
2158 1 1235 1232 1225
2159 3 1235 1232 1236
2160 1 1236 1232 1225
2161 2 1237 1238 1231
2162 1 1237 1238 1241
2163 1 1237 1238 1242
2164 2 1238 1231 1232
2165 1 1238 1231 1233
2166 1 1238 1231 1234
2167 1 1239 1237 1238
2168 3 1239 1237 1240
2169 1 1240 1237 1238
2170 1 1241 1238 1231
2171 3 1241 1238 1242
2172 1 1242 1238 1231
2173 2 1243 1244 1237
2174 1 1243 1244 1247
2175 1 1243 1244 1248
2176 2 1244 1237 1238
2177 1 1244 1237 1239
2178 1 1244 1237 1240
2179 1 1245 1243 1244
2180 3 1245 1243 1246
2181 1 1246 1243 1244
2182 1 1247 1244 1237
2183 3 1247 1244 1248
2184 1 1248 1244 1237
2185 1 1250 1251 1254
2186 1 1250 1251 1255
2187 1 1250 1251 1256
2188 2 1250 1257 1258
2189 1 1250 1257 1259
2190 1 1250 1257 1260
2191 1 1252 1250 1251
2192 3 1252 1250 1253
2193 1 1252 1250 1257
2194 1 1253 1250 1251
2195 1 1253 1250 1257
2196 3 1254 1251 1255
2197 3 1254 1251 1256
2198 3 1255 1251 1256
2199 2 1257 1250 1251
2200 1 1257 1258 1261
2201 1 1257 1258 1262
2202 2 1257 1258 1263
2203 2 1258 1263 1264
2204 1 1258 1263 1265
2205 1 1258 1263 1266
2206 1 1259 1257 1258
2207 3 1259 1257 1260
2208 1 1260 1257 1258
2209 3 1261 1258 1262
2210 1 1261 1258 1263
2211 1 1262 1258 1263
2212 1 1263 1264 1267
2213 1 1263 1264 1268
2214 2 1263 1264 1269
2215 2 1264 1269 1270
2216 1 1264 1269 1271
2217 1 1264 1269 1272
2218 1 1265 1263 1264
2219 3 1265 1263 1266
2220 1 1266 1263 1264
2221 3 1267 1264 1268
2222 1 1267 1264 1269
2223 1 1268 1264 1269
2224 1 1269 1270 1273
2225 1 1269 1270 1274
2226 2 1269 1270 1275
2227 2 1270 1275 1276
2228 1 1270 1275 1277
2229 1 1270 1275 1278
2230 1 1271 1269 1270
2231 3 1271 1269 1272
2232 1 1272 1269 1270
2233 3 1273 1270 1274
2234 1 1273 1270 1275
2235 1 1274 1270 1275
2236 1 1275 1276 1279
2237 1 1275 1276 1280
2238 1 1277 1275 1276
2239 3 1277 1275 1278
2240 1 1278 1275 1276
2241 3 1279 1276 1280
2242 1 1282 1283 1286
2243 1 1282 1283 1287
2244 2 1282 1283 1288
2245 2 1283 1288 1289
2246 1 1283 1288 1290
2247 1 1283 1288 1291
2248 1 1284 1282 1283
2249 3 1284 1282 1285
2250 1 1285 1282 1283
2251 3 1286 1283 1287
2252 1 1286 1283 1288
2253 1 1287 1283 1288
2254 1 1288 1289 1292
2255 1 1288 1289 1293
2256 2 1288 1289 1294
2257 2 1289 1294 1295
2258 1 1289 1294 1296
2259 1 1289 1294 1297
2260 1 1290 1288 1289
2261 3 1290 1288 1291
2262 1 1291 1288 1289
2263 3 1292 1289 1293
2264 1 1292 1289 1294
2265 1 1293 1289 1294
2266 1 1294 1295 1298
2267 1 1294 1295 1299
2268 2 1294 1295 1300
2269 2 1295 1300 1301
2270 1 1295 1300 1302
2271 1 1295 1300 1303
2272 1 1296 1294 1295
2273 3 1296 1294 1297
2274 1 1297 1294 1295
2275 3 1298 1295 1299
2276 1 1298 1295 1300
2277 1 1299 1295 1300
2278 1 1300 1301 1304
2279 1 1300 1301 1305
2280 2 1300 1301 1306
2281 2 1301 1306 1307
2282 1 1301 1306 1308
2283 1 1301 1306 1309
2284 1 1302 1300 1301
2285 3 1302 1300 1303
2286 1 1303 1300 1301
2287 3 1304 1301 1305
2288 1 1304 1301 1306
2289 1 1305 1301 1306
2290 1 1306 1307 1310
2291 1 1306 1307 1311
2292 1 1308 1306 1307
2293 3 1308 1306 1309
2294 1 1309 1306 1307
2295 3 1310 1307 1311
2296 1 1313 1314 1317
2297 1 1313 1314 1318
2298 2 1313 1314 1319
2299 2 1314 1319 1320
2300 1 1314 1319 1321
2301 1 1314 1319 1322
2302 1 1315 1313 1314
2303 3 1315 1313 1316
2304 1 1316 1313 1314
2305 3 1317 1314 1318
2306 1 1317 1314 1319
2307 1 1318 1314 1319
2308 1 1319 1320 1323
2309 1 1319 1320 1324
2310 2 1319 1320 1325
2311 2 1320 1325 1326
2312 1 1320 1325 1327
2313 1 1320 1325 1328
2314 1 1321 1319 1320
2315 3 1321 1319 1322
2316 1 1322 1319 1320
2317 3 1323 1320 1324
2318 1 1323 1320 1325
2319 1 1324 1320 1325
2320 1 1325 1326 1329
2321 1 1325 1326 1330
2322 2 1325 1326 1331
2323 2 1326 1331 1332
2324 1 1326 1331 1333
2325 1 1326 1331 1334
2326 1 1327 1325 1326
2327 3 1327 1325 1328
2328 1 1328 1325 1326
2329 3 1329 1326 1330
2330 1 1329 1326 1331
2331 1 1330 1326 1331
2332 1 1331 1332 1335
2333 1 1331 1332 1336
2334 2 1331 1332 1337
2335 2 1332 1337 1338
2336 1 1332 1337 1339
2337 1 1332 1337 1340
2338 1 1333 1331 1332
2339 3 1333 1331 1334
2340 1 1334 1331 1332
2341 3 1335 1332 1336
2342 1 1335 1332 1337
2343 1 1336 1332 1337
2344 1 1337 1338 1341
2345 1 1337 1338 1342
2346 1 1339 1337 1338
2347 3 1339 1337 1340
2348 1 1340 1337 1338
2349 3 1341 1338 1342
2350 1 1344 1345 1348
2351 1 1344 1345 1349
2352 2 1344 1345 1350
2353 2 1345 1350 1351
2354 1 1345 1350 1352
2355 1 1345 1350 1353
2356 1 1346 1344 1345
2357 3 1346 1344 1347
2358 1 1347 1344 1345
2359 3 1348 1345 1349
2360 1 1348 1345 1350
2361 1 1349 1345 1350
2362 1 1350 1351 1354
2363 1 1350 1351 1355
2364 2 1350 1351 1356
2365 2 1351 1356 1357
2366 1 1351 1356 1358
2367 1 1351 1356 1359
2368 1 1352 1350 1351
2369 3 1352 1350 1353
2370 1 1353 1350 1351
2371 3 1354 1351 1355
2372 1 1354 1351 1356
2373 1 1355 1351 1356
2374 1 1356 1357 1360
2375 1 1356 1357 1361
2376 2 1356 1357 1362
2377 2 1357 1362 1363
2378 1 1357 1362 1364
2379 1 1357 1362 1365
2380 1 1358 1356 1357
2381 3 1358 1356 1359
2382 1 1359 1356 1357
2383 3 1360 1357 1361
2384 1 1360 1357 1362
2385 1 1361 1357 1362
2386 1 1362 1363 1366
2387 1 1362 1363 1367
2388 2 1362 1363 1368
2389 2 1363 1368 1369
2390 1 1363 1368 1370
2391 1 1363 1368 1371
2392 1 1364 1362 1363
2393 3 1364 1362 1365
2394 1 1365 1362 1363
2395 3 1366 1363 1367
2396 1 1366 1363 1368
2397 1 1367 1363 1368
2398 1 1368 1369 1372
2399 1 1368 1369 1373
2400 1 1370 1368 1369
2401 3 1370 1368 1371
2402 1 1371 1368 1369
2403 3 1372 1369 1373
2404 1 1375 1376 1379
2405 1 1375 1376 1380
2406 2 1375 1376 1381
2407 2 1376 1381 1382
2408 1 1376 1381 1383
2409 1 1376 1381 1384
2410 1 1377 1375 1376
2411 3 1377 1375 1378
2412 1 1378 1375 1376
2413 3 1379 1376 1380
2414 1 1379 1376 1381
2415 1 1380 1376 1381
2416 1 1381 1382 1385
2417 1 1381 1382 1386
2418 2 1381 1382 1387
2419 2 1382 1387 1388
2420 1 1382 1387 1389
2421 1 1382 1387 1390
2422 1 1383 1381 1382
2423 3 1383 1381 1384
2424 1 1384 1381 1382
2425 3 1385 1382 1386
2426 1 1385 1382 1387
2427 1 1386 1382 1387
2428 1 1387 1388 1391
2429 1 1387 1388 1392
2430 2 1387 1388 1393
2431 2 1388 1393 1394
2432 1 1388 1393 1395
2433 1 1388 1393 1396
2434 1 1389 1387 1388
2435 3 1389 1387 1390
2436 1 1390 1387 1388
2437 3 1391 1388 1392
2438 1 1391 1388 1393
2439 1 1392 1388 1393
2440 1 1393 1394 1397
2441 1 1393 1394 1398
2442 2 1393 1394 1399
2443 2 1394 1399 1400
2444 1 1394 1399 1401
2445 1 1394 1399 1402
2446 1 1395 1393 1394
2447 3 1395 1393 1396
2448 1 1396 1393 1394
2449 3 1397 1394 1398
2450 1 1397 1394 1399
2451 1 1398 1394 1399
2452 1 1399 1400 1403
2453 1 1399 1400 1404
2454 1 1401 1399 1400
2455 3 1401 1399 1402
2456 1 1402 1399 1400
2457 3 1403 1400 1404
2458 1 1406 1407 1410
2459 1 1406 1407 1411
2460 2 1406 1407 1412
2461 2 1407 1412 1413
2462 1 1407 1412 1414
2463 1 1407 1412 1415
2464 1 1408 1406 1407
2465 3 1408 1406 1409
2466 1 1409 1406 1407
2467 3 1410 1407 1411
2468 1 1410 1407 1412
2469 1 1411 1407 1412
2470 1 1412 1413 1416
2471 1 1412 1413 1417
2472 2 1412 1413 1418
2473 2 1413 1418 1419
2474 1 1413 1418 1420
2475 1 1413 1418 1421
2476 1 1414 1412 1413
2477 3 1414 1412 1415
2478 1 1415 1412 1413
2479 3 1416 1413 1417
2480 1 1416 1413 1418
2481 1 1417 1413 1418
2482 1 1418 1419 1422
2483 1 1418 1419 1423
2484 2 1418 1419 1424
2485 2 1419 1424 1425
2486 1 1419 1424 1426
2487 1 1419 1424 1427
2488 1 1420 1418 1419
2489 3 1420 1418 1421
2490 1 1421 1418 1419
2491 3 1422 1419 1423
2492 1 1422 1419 1424
2493 1 1423 1419 1424
2494 1 1424 1425 1428
2495 1 1424 1425 1429
2496 2 1424 1425 1430
2497 2 1425 1430 1431
2498 1 1425 1430 1432
2499 1 1425 1430 1433
2500 1 1426 1424 1425
2501 3 1426 1424 1427
2502 1 1427 1424 1425
2503 3 1428 1425 1429
2504 1 1428 1425 1430
2505 1 1429 1425 1430
2506 1 1430 1431 1434
2507 1 1430 1431 1435
2508 1 1432 1430 1431
2509 3 1432 1430 1433
2510 1 1433 1430 1431
2511 3 1434 1431 1435
2512 1 1437 1438 1441
2513 1 1437 1438 1442
2514 2 1437 1438 1443
2515 2 1438 1443 1444
2516 1 1438 1443 1445
2517 1 1438 1443 1446
2518 1 1439 1437 1438
2519 3 1439 1437 1440
2520 1 1440 1437 1438
2521 3 1441 1438 1442
2522 1 1441 1438 1443
2523 1 1442 1438 1443
2524 1 1443 1444 1447
2525 1 1443 1444 1448
2526 2 1443 1444 1449
2527 2 1444 1449 1450
2528 1 1444 1449 1451
2529 1 1444 1449 1452
2530 1 1445 1443 1444
2531 3 1445 1443 1446
2532 1 1446 1443 1444
2533 3 1447 1444 1448
2534 1 1447 1444 1449
2535 1 1448 1444 1449
2536 1 1449 1450 1453
2537 1 1449 1450 1454
2538 2 1449 1450 1455
2539 2 1450 1455 1456
2540 1 1450 1455 1457
2541 1 1450 1455 1458
2542 1 1451 1449 1450
2543 3 1451 1449 1452
2544 1 1452 1449 1450
2545 3 1453 1450 1454
2546 1 1453 1450 1455
2547 1 1454 1450 1455
2548 1 1455 1456 1459
2549 1 1455 1456 1460
2550 2 1455 1456 1461
2551 2 1456 1461 1462
2552 1 1456 1461 1463
2553 1 1456 1461 1464
2554 1 1457 1455 1456
2555 3 1457 1455 1458
2556 1 1458 1455 1456
2557 3 1459 1456 1460
2558 1 1459 1456 1461
2559 1 1460 1456 1461
2560 1 1461 1462 1465
2561 1 1461 1462 1466
2562 1 1463 1461 1462
2563 3 1463 1461 1464
2564 1 1464 1461 1462
2565 3 1465 1462 1466
2566 1 1468 1469 1472
2567 1 1468 1469 1473
2568 2 1468 1469 1474
2569 2 1469 1474 1475
2570 1 1469 1474 1476
2571 1 1469 1474 1477
2572 1 1470 1468 1469
2573 3 1470 1468 1471
2574 1 1471 1468 1469
2575 3 1472 1469 1473
2576 1 1472 1469 1474
2577 1 1473 1469 1474
2578 1 1474 1475 1478
2579 1 1474 1475 1479
2580 2 1474 1475 1480
2581 2 1475 1480 1481
2582 1 1475 1480 1482
2583 1 1475 1480 1483
2584 1 1476 1474 1475
2585 3 1476 1474 1477
2586 1 1477 1474 1475
2587 3 1478 1475 1479
2588 1 1478 1475 1480
2589 1 1479 1475 1480
2590 1 1480 1481 1484
2591 1 1480 1481 1485
2592 2 1480 1481 1486
2593 2 1481 1486 1487
2594 1 1481 1486 1488
2595 1 1481 1486 1489
2596 1 1482 1480 1481
2597 3 1482 1480 1483
2598 1 1483 1480 1481
2599 3 1484 1481 1485
2600 1 1484 1481 1486
2601 1 1485 1481 1486
2602 1 1486 1487 1490
2603 1 1486 1487 1491
2604 2 1486 1487 1492
2605 2 1487 1492 1493
2606 1 1487 1492 1494
2607 1 1487 1492 1495
2608 1 1488 1486 1487
2609 3 1488 1486 1489
2610 1 1489 1486 1487
2611 3 1490 1487 1491
2612 1 1490 1487 1492
2613 1 1491 1487 1492
2614 1 1492 1493 1496
2615 1 1492 1493 1497
2616 1 1494 1492 1493
2617 3 1494 1492 1495
2618 1 1495 1492 1493
2619 3 1496 1493 1497
2620 1 1499 1500 1503
2621 1 1499 1500 1504
2622 2 1499 1500 1505
2623 2 1500 1505 1506
2624 1 1500 1505 1507
2625 1 1500 1505 1508
2626 1 1501 1499 1500
2627 3 1501 1499 1502
2628 1 1502 1499 1500
2629 3 1503 1500 1504
2630 1 1503 1500 1505
2631 1 1504 1500 1505
2632 1 1505 1506 1509
2633 1 1505 1506 1510
2634 2 1505 1506 1511
2635 2 1506 1511 1512
2636 1 1506 1511 1513
2637 1 1506 1511 1514
2638 1 1507 1505 1506
2639 3 1507 1505 1508
2640 1 1508 1505 1506
2641 3 1509 1506 1510
2642 1 1509 1506 1511
2643 1 1510 1506 1511
2644 1 1511 1512 1515
2645 1 1511 1512 1516
2646 2 1511 1512 1517
2647 2 1512 1517 1518
2648 1 1512 1517 1519
2649 1 1512 1517 1520
2650 1 1513 1511 1512
2651 3 1513 1511 1514
2652 1 1514 1511 1512
2653 3 1515 1512 1516
2654 1 1515 1512 1517
2655 1 1516 1512 1517
2656 1 1517 1518 1521
2657 1 1517 1518 1522
2658 2 1517 1518 1523
2659 2 1518 1523 1524
2660 1 1518 1523 1525
2661 1 1518 1523 1526
2662 1 1519 1517 1518
2663 3 1519 1517 1520
2664 1 1520 1517 1518
2665 3 1521 1518 1522
2666 1 1521 1518 1523
2667 1 1522 1518 1523
2668 1 1523 1524 1527
2669 1 1523 1524 1528
2670 1 1525 1523 1524
2671 3 1525 1523 1526
2672 1 1526 1523 1524
2673 3 1527 1524 1528
2674 1 1530 1531 1534
2675 1 1530 1531 1535
2676 1 1530 1531 1536
2677 1 1532 1530 1531
2678 3 1532 1530 1533
2679 1 1533 1530 1531
2680 3 1534 1531 1535
2681 3 1534 1531 1536
2682 3 1535 1531 1536
2683 2 1537 1538 1530
2684 1 1537 1538 1541
2685 1 1537 1538 1542
2686 2 1538 1530 1531
2687 1 1538 1530 1532
2688 1 1538 1530 1533
2689 1 1539 1537 1538
2690 3 1539 1537 1540
2691 1 1540 1537 1538
2692 1 1541 1538 1530
2693 3 1541 1538 1542
2694 1 1542 1538 1530
2695 2 1543 1544 1537
2696 1 1543 1544 1547
2697 1 1543 1544 1548
2698 2 1544 1537 1538
2699 1 1544 1537 1539
2700 1 1544 1537 1540
2701 1 1545 1543 1544
2702 3 1545 1543 1546
2703 1 1546 1543 1544
2704 1 1547 1544 1537
2705 3 1547 1544 1548
2706 1 1548 1544 1537
2707 2 1549 1550 1543
2708 1 1549 1550 1553
2709 1 1549 1550 1554
2710 2 1550 1543 1544
2711 1 1550 1543 1545
2712 1 1550 1543 1546
2713 1 1551 1549 1550
2714 3 1551 1549 1552
2715 1 1552 1549 1550
2716 1 1553 1550 1543
2717 3 1553 1550 1554
2718 1 1554 1550 1543
2719 2 1555 1556 1549
2720 1 1555 1556 1559
2721 1 1555 1556 1560
2722 2 1556 1549 1550
2723 1 1556 1549 1551
2724 1 1556 1549 1552
2725 1 1557 1555 1556
2726 3 1557 1555 1558
2727 1 1558 1555 1556
2728 1 1559 1556 1549
2729 3 1559 1556 1560
2730 1 1560 1556 1549
2731 1 1562 1563 1566
2732 1 1562 1563 1567
2733 1 1562 1563 1568
2734 2 1562 1569 1570
2735 1 1562 1569 1571
2736 1 1562 1569 1572
2737 1 1564 1562 1563
2738 3 1564 1562 1565
2739 1 1564 1562 1569
2740 1 1565 1562 1563
2741 1 1565 1562 1569
2742 3 1566 1563 1567
2743 3 1566 1563 1568
2744 3 1567 1563 1568
2745 2 1569 1562 1563
2746 1 1569 1570 1573
2747 1 1569 1570 1574
2748 2 1569 1570 1575
2749 2 1570 1575 1576
2750 1 1570 1575 1577
2751 1 1570 1575 1578
2752 1 1571 1569 1570
2753 3 1571 1569 1572
2754 1 1572 1569 1570
2755 3 1573 1570 1574
2756 1 1573 1570 1575
2757 1 1574 1570 1575
2758 1 1575 1576 1579
2759 1 1575 1576 1580
2760 2 1575 1576 1581
2761 2 1576 1581 1582
2762 1 1576 1581 1583
2763 1 1576 1581 1584
2764 1 1577 1575 1576
2765 3 1577 1575 1578
2766 1 1578 1575 1576
2767 3 1579 1576 1580
2768 1 1579 1576 1581
2769 1 1580 1576 1581
2770 1 1581 1582 1585
2771 1 1581 1582 1586
2772 2 1581 1582 1587
2773 2 1582 1587 1588
2774 1 1582 1587 1589
2775 1 1582 1587 1590
2776 1 1583 1581 1582
2777 3 1583 1581 1584
2778 1 1584 1581 1582
2779 3 1585 1582 1586
2780 1 1585 1582 1587
2781 1 1586 1582 1587
2782 1 1587 1588 1591
2783 1 1587 1588 1592
2784 1 1589 1587 1588
2785 3 1589 1587 1590
2786 1 1590 1587 1588
2787 3 1591 1588 1592
2788 1 1594 1595 1598
2789 1 1594 1595 1599
2790 2 1594 1595 1600
2791 2 1595 1600 1601
2792 1 1595 1600 1602
2793 1 1595 1600 1603
2794 1 1596 1594 1595
2795 3 1596 1594 1597
2796 1 1597 1594 1595
2797 3 1598 1595 1599
2798 1 1598 1595 1600
2799 1 1599 1595 1600
2800 1 1600 1601 1604
2801 1 1600 1601 1605
2802 2 1600 1601 1606
2803 2 1601 1606 1607
2804 1 1601 1606 1608
2805 1 1601 1606 1609
2806 1 1602 1600 1601
2807 3 1602 1600 1603
2808 1 1603 1600 1601
2809 3 1604 1601 1605
2810 1 1604 1601 1606
2811 1 1605 1601 1606
2812 1 1606 1607 1610
2813 1 1606 1607 1611
2814 2 1606 1607 1612
2815 2 1607 1612 1613
2816 1 1607 1612 1614
2817 1 1607 1612 1615
2818 1 1608 1606 1607
2819 3 1608 1606 1609
2820 1 1609 1606 1607
2821 3 1610 1607 1611
2822 1 1610 1607 1612
2823 1 1611 1607 1612
2824 1 1612 1613 1616
2825 1 1612 1613 1617
2826 2 1612 1613 1618
2827 2 1613 1618 1619
2828 1 1613 1618 1620
2829 1 1613 1618 1621
2830 1 1614 1612 1613
2831 3 1614 1612 1615
2832 1 1615 1612 1613
2833 3 1616 1613 1617
2834 1 1616 1613 1618
2835 1 1617 1613 1618
2836 1 1618 1619 1622
2837 1 1618 1619 1623
2838 1 1620 1618 1619
2839 3 1620 1618 1621
2840 1 1621 1618 1619
2841 3 1622 1619 1623
2842 1 1625 1626 1629
2843 1 1625 1626 1630
2844 2 1625 1626 1631
2845 2 1626 1631 1632
2846 1 1626 1631 1633
2847 1 1626 1631 1634
2848 1 1627 1625 1626
2849 3 1627 1625 1628
2850 1 1628 1625 1626
2851 3 1629 1626 1630
2852 1 1629 1626 1631
2853 1 1630 1626 1631
2854 1 1631 1632 1635
2855 1 1631 1632 1636
2856 2 1631 1632 1637
2857 2 1632 1637 1638
2858 1 1632 1637 1639
2859 1 1632 1637 1640
2860 1 1633 1631 1632
2861 3 1633 1631 1634
2862 1 1634 1631 1632
2863 3 1635 1632 1636
2864 1 1635 1632 1637
2865 1 1636 1632 1637
2866 1 1637 1638 1641
2867 1 1637 1638 1642
2868 2 1637 1638 1643
2869 2 1638 1643 1644
2870 1 1638 1643 1645
2871 1 1638 1643 1646
2872 1 1639 1637 1638
2873 3 1639 1637 1640
2874 1 1640 1637 1638
2875 3 1641 1638 1642
2876 1 1641 1638 1643
2877 1 1642 1638 1643
2878 1 1643 1644 1647
2879 1 1643 1644 1648
2880 2 1643 1644 1649
2881 2 1644 1649 1650
2882 1 1644 1649 1651
2883 1 1644 1649 1652
2884 1 1645 1643 1644
2885 3 1645 1643 1646
2886 1 1646 1643 1644
2887 3 1647 1644 1648
2888 1 1647 1644 1649
2889 1 1648 1644 1649
2890 1 1649 1650 1653
2891 1 1649 1650 1654
2892 1 1651 1649 1650
2893 3 1651 1649 1652
2894 1 1652 1649 1650
2895 3 1653 1650 1654
2896 1 1656 1657 1660
2897 1 1656 1657 1661
2898 2 1656 1657 1662
2899 2 1657 1662 1663
2900 1 1657 1662 1664
2901 1 1657 1662 1665
2902 1 1658 1656 1657
2903 3 1658 1656 1659
2904 1 1659 1656 1657
2905 3 1660 1657 1661
2906 1 1660 1657 1662
2907 1 1661 1657 1662
2908 1 1662 1663 1666
2909 1 1662 1663 1667
2910 2 1662 1663 1668
2911 2 1663 1668 1669
2912 1 1663 1668 1670
2913 1 1663 1668 1671
2914 1 1664 1662 1663
2915 3 1664 1662 1665
2916 1 1665 1662 1663
2917 3 1666 1663 1667
2918 1 1666 1663 1668
2919 1 1667 1663 1668
2920 1 1668 1669 1672
2921 1 1668 1669 1673
2922 2 1668 1669 1674
2923 2 1669 1674 1675
2924 1 1669 1674 1676
2925 1 1669 1674 1677
2926 1 1670 1668 1669
2927 3 1670 1668 1671
2928 1 1671 1668 1669
2929 3 1672 1669 1673
2930 1 1672 1669 1674
2931 1 1673 1669 1674
2932 1 1674 1675 1678
2933 1 1674 1675 1679
2934 2 1674 1675 1680
2935 2 1675 1680 1681
2936 1 1675 1680 1682
2937 1 1675 1680 1683
2938 1 1676 1674 1675
2939 3 1676 1674 1677
2940 1 1677 1674 1675
2941 3 1678 1675 1679
2942 1 1678 1675 1680
2943 1 1679 1675 1680
2944 1 1680 1681 1684
2945 1 1680 1681 1685
2946 1 1682 1680 1681
2947 3 1682 1680 1683
2948 1 1683 1680 1681
2949 3 1684 1681 1685
2950 1 1687 1688 1691
2951 1 1687 1688 1692
2952 2 1687 1688 1693
2953 2 1688 1693 1694
2954 1 1688 1693 1695
2955 1 1688 1693 1696
2956 1 1689 1687 1688
2957 3 1689 1687 1690
2958 1 1690 1687 1688
2959 3 1691 1688 1692
2960 1 1691 1688 1693
2961 1 1692 1688 1693
2962 1 1693 1694 1697
2963 1 1693 1694 1698
2964 2 1693 1694 1699
2965 2 1694 1699 1700
2966 1 1694 1699 1701
2967 1 1694 1699 1702
2968 1 1695 1693 1694
2969 3 1695 1693 1696
2970 1 1696 1693 1694
2971 3 1697 1694 1698
2972 1 1697 1694 1699
2973 1 1698 1694 1699
2974 1 1699 1700 1703
2975 1 1699 1700 1704
2976 2 1699 1700 1705
2977 2 1700 1705 1706
2978 1 1700 1705 1707
2979 1 1700 1705 1708
2980 1 1701 1699 1700
2981 3 1701 1699 1702
2982 1 1702 1699 1700
2983 3 1703 1700 1704
2984 1 1703 1700 1705
2985 1 1704 1700 1705
2986 1 1705 1706 1709
2987 1 1705 1706 1710
2988 2 1705 1706 1711
2989 2 1706 1711 1712
2990 1 1706 1711 1713
2991 1 1706 1711 1714
2992 1 1707 1705 1706
2993 3 1707 1705 1708
2994 1 1708 1705 1706
2995 3 1709 1706 1710
2996 1 1709 1706 1711
2997 1 1710 1706 1711
2998 1 1711 1712 1715
2999 1 1711 1712 1716
3000 1 1713 1711 1712
3001 3 1713 1711 1714
3002 1 1714 1711 1712
3003 3 1715 1712 1716
3004 1 1718 1719 1722
3005 1 1718 1719 1723
3006 2 1718 1719 1724
3007 2 1719 1724 1725
3008 1 1719 1724 1726
3009 1 1719 1724 1727
3010 1 1720 1718 1719
3011 3 1720 1718 1721
3012 1 1721 1718 1719
3013 3 1722 1719 1723
3014 1 1722 1719 1724
3015 1 1723 1719 1724
3016 1 1724 1725 1728
3017 1 1724 1725 1729
3018 2 1724 1725 1730
3019 2 1725 1730 1731
3020 1 1725 1730 1732
3021 1 1725 1730 1733
3022 1 1726 1724 1725
3023 3 1726 1724 1727
3024 1 1727 1724 1725
3025 3 1728 1725 1729
3026 1 1728 1725 1730
3027 1 1729 1725 1730
3028 1 1730 1731 1734
3029 1 1730 1731 1735
3030 2 1730 1731 1736
3031 2 1731 1736 1737
3032 1 1731 1736 1738
3033 1 1731 1736 1739
3034 1 1732 1730 1731
3035 3 1732 1730 1733
3036 1 1733 1730 1731
3037 3 1734 1731 1735
3038 1 1734 1731 1736
3039 1 1735 1731 1736
3040 1 1736 1737 1740
3041 1 1736 1737 1741
3042 2 1736 1737 1742
3043 2 1737 1742 1743
3044 1 1737 1742 1744
3045 1 1737 1742 1745
3046 1 1738 1736 1737
3047 3 1738 1736 1739
3048 1 1739 1736 1737
3049 3 1740 1737 1741
3050 1 1740 1737 1742
3051 1 1741 1737 1742
3052 1 1742 1743 1746
3053 1 1742 1743 1747
3054 1 1744 1742 1743
3055 3 1744 1742 1745
3056 1 1745 1742 1743
3057 3 1746 1743 1747
3058 1 1749 1750 1753
3059 1 1749 1750 1754
3060 2 1749 1750 1755
3061 2 1750 1755 1756
3062 1 1750 1755 1757
3063 1 1750 1755 1758
3064 1 1751 1749 1750
3065 3 1751 1749 1752
3066 1 1752 1749 1750
3067 3 1753 1750 1754
3068 1 1753 1750 1755
3069 1 1754 1750 1755
3070 1 1755 1756 1759
3071 1 1755 1756 1760
3072 2 1755 1756 1761
3073 2 1756 1761 1762
3074 1 1756 1761 1763
3075 1 1756 1761 1764
3076 1 1757 1755 1756
3077 3 1757 1755 1758
3078 1 1758 1755 1756
3079 3 1759 1756 1760
3080 1 1759 1756 1761
3081 1 1760 1756 1761
3082 1 1761 1762 1765
3083 1 1761 1762 1766
3084 2 1761 1762 1767
3085 2 1762 1767 1768
3086 1 1762 1767 1769
3087 1 1762 1767 1770
3088 1 1763 1761 1762
3089 3 1763 1761 1764
3090 1 1764 1761 1762
3091 3 1765 1762 1766
3092 1 1765 1762 1767
3093 1 1766 1762 1767
3094 1 1767 1768 1771
3095 1 1767 1768 1772
3096 2 1767 1768 1773
3097 2 1768 1773 1774
3098 1 1768 1773 1775
3099 1 1768 1773 1776
3100 1 1769 1767 1768
3101 3 1769 1767 1770
3102 1 1770 1767 1768
3103 3 1771 1768 1772
3104 1 1771 1768 1773
3105 1 1772 1768 1773
3106 1 1773 1774 1777
3107 1 1773 1774 1778
3108 1 1775 1773 1774
3109 3 1775 1773 1776
3110 1 1776 1773 1774
3111 3 1777 1774 1778
3112 1 1780 1781 1784
3113 1 1780 1781 1785
3114 2 1780 1781 1786
3115 2 1781 1786 1787
3116 1 1781 1786 1788
3117 1 1781 1786 1789
3118 1 1782 1780 1781
3119 3 1782 1780 1783
3120 1 1783 1780 1781
3121 3 1784 1781 1785
3122 1 1784 1781 1786
3123 1 1785 1781 1786
3124 1 1786 1787 1790
3125 1 1786 1787 1791
3126 2 1786 1787 1792
3127 2 1787 1792 1793
3128 1 1787 1792 1794
3129 1 1787 1792 1795
3130 1 1788 1786 1787
3131 3 1788 1786 1789
3132 1 1789 1786 1787
3133 3 1790 1787 1791
3134 1 1790 1787 1792
3135 1 1791 1787 1792
3136 1 1792 1793 1796
3137 1 1792 1793 1797
3138 2 1792 1793 1798
3139 2 1793 1798 1799
3140 1 1793 1798 1800
3141 1 1793 1798 1801
3142 1 1794 1792 1793
3143 3 1794 1792 1795
3144 1 1795 1792 1793
3145 3 1796 1793 1797
3146 1 1796 1793 1798
3147 1 1797 1793 1798
3148 1 1798 1799 1802
3149 1 1798 1799 1803
3150 2 1798 1799 1804
3151 2 1799 1804 1805
3152 1 1799 1804 1806
3153 1 1799 1804 1807
3154 1 1800 1798 1799
3155 3 1800 1798 1801
3156 1 1801 1798 1799
3157 3 1802 1799 1803
3158 1 1802 1799 1804
3159 1 1803 1799 1804
3160 1 1804 1805 1808
3161 1 1804 1805 1809
3162 1 1806 1804 1805
3163 3 1806 1804 1807
3164 1 1807 1804 1805
3165 3 1808 1805 1809
3166 1 1811 1812 1815
3167 1 1811 1812 1816
3168 2 1811 1812 1817
3169 2 1812 1817 1818
3170 1 1812 1817 1819
3171 1 1812 1817 1820
3172 1 1813 1811 1812
3173 3 1813 1811 1814
3174 1 1814 1811 1812
3175 3 1815 1812 1816
3176 1 1815 1812 1817
3177 1 1816 1812 1817
3178 1 1817 1818 1821
3179 1 1817 1818 1822
3180 2 1817 1818 1823
3181 2 1818 1823 1824
3182 1 1818 1823 1825
3183 1 1818 1823 1826
3184 1 1819 1817 1818
3185 3 1819 1817 1820
3186 1 1820 1817 1818
3187 3 1821 1818 1822
3188 1 1821 1818 1823
3189 1 1822 1818 1823
3190 1 1823 1824 1827
3191 1 1823 1824 1828
3192 2 1823 1824 1829
3193 2 1824 1829 1830
3194 1 1824 1829 1831
3195 1 1824 1829 1832
3196 1 1825 1823 1824
3197 3 1825 1823 1826
3198 1 1826 1823 1824
3199 3 1827 1824 1828
3200 1 1827 1824 1829
3201 1 1828 1824 1829
3202 1 1829 1830 1833
3203 1 1829 1830 1834
3204 2 1829 1830 1835
3205 2 1830 1835 1836
3206 1 1830 1835 1837
3207 1 1830 1835 1838
3208 1 1831 1829 1830
3209 3 1831 1829 1832
3210 1 1832 1829 1830
3211 3 1833 1830 1834
3212 1 1833 1830 1835
3213 1 1834 1830 1835
3214 1 1835 1836 1839
3215 1 1835 1836 1840
3216 1 1837 1835 1836
3217 3 1837 1835 1838
3218 1 1838 1835 1836
3219 3 1839 1836 1840
3220 1 1842 1843 1846
3221 1 1842 1843 1847
3222 1 1842 1843 1848
3223 1 1844 1842 1843
3224 3 1844 1842 1845
3225 1 1845 1842 1843
3226 3 1846 1843 1847
3227 3 1846 1843 1848
3228 3 1847 1843 1848
3229 2 1849 1850 1842
3230 1 1849 1850 1853
3231 1 1849 1850 1854
3232 2 1850 1842 1843
3233 1 1850 1842 1844
3234 1 1850 1842 1845
3235 1 1851 1849 1850
3236 3 1851 1849 1852
3237 1 1852 1849 1850
3238 1 1853 1850 1842
3239 3 1853 1850 1854
3240 1 1854 1850 1842
3241 2 1855 1856 1849
3242 1 1855 1856 1859
3243 1 1855 1856 1860
3244 2 1856 1849 1850
3245 1 1856 1849 1851
3246 1 1856 1849 1852
3247 1 1857 1855 1856
3248 3 1857 1855 1858
3249 1 1858 1855 1856
3250 1 1859 1856 1849
3251 3 1859 1856 1860
3252 1 1860 1856 1849
3253 2 1861 1862 1855
3254 1 1861 1862 1865
3255 1 1861 1862 1866
3256 2 1862 1855 1856
3257 1 1862 1855 1857
3258 1 1862 1855 1858
3259 1 1863 1861 1862
3260 3 1863 1861 1864
3261 1 1864 1861 1862
3262 1 1865 1862 1855
3263 3 1865 1862 1866
3264 1 1866 1862 1855
3265 2 1867 1868 1861
3266 1 1867 1868 1871
3267 1 1867 1868 1872
3268 2 1868 1861 1862
3269 1 1868 1861 1863
3270 1 1868 1861 1864
3271 1 1869 1867 1868
3272 3 1869 1867 1870
3273 1 1870 1867 1868
3274 1 1871 1868 1861
3275 3 1871 1868 1872
3276 1 1872 1868 1861
3277 1 1874 1875 1878
3278 1 1874 1875 1879
3279 1 1874 1875 1880
3280 2 1874 1881 1882
3281 1 1874 1881 1883
3282 1 1874 1881 1884
3283 1 1876 1874 1875
3284 3 1876 1874 1877
3285 1 1876 1874 1881
3286 1 1877 1874 1875
3287 1 1877 1874 1881
3288 3 1878 1875 1879
3289 3 1878 1875 1880
3290 3 1879 1875 1880
3291 2 1881 1874 1875
3292 1 1881 1882 1885
3293 1 1881 1882 1886
3294 2 1881 1882 1887
3295 2 1882 1887 1888
3296 1 1882 1887 1889
3297 1 1882 1887 1890
3298 1 1883 1881 1882
3299 3 1883 1881 1884
3300 1 1884 1881 1882
3301 3 1885 1882 1886
3302 1 1885 1882 1887
3303 1 1886 1882 1887
3304 1 1887 1888 1891
3305 1 1887 1888 1892
3306 2 1887 1888 1893
3307 2 1888 1893 1894
3308 1 1888 1893 1895
3309 1 1888 1893 1896
3310 1 1889 1887 1888
3311 3 1889 1887 1890
3312 1 1890 1887 1888
3313 3 1891 1888 1892
3314 1 1891 1888 1893
3315 1 1892 1888 1893
3316 1 1893 1894 1897
3317 1 1893 1894 1898
3318 2 1893 1894 1899
3319 2 1894 1899 1900
3320 1 1894 1899 1901
3321 1 1894 1899 1902
3322 1 1895 1893 1894
3323 3 1895 1893 1896
3324 1 1896 1893 1894
3325 3 1897 1894 1898
3326 1 1897 1894 1899
3327 1 1898 1894 1899
3328 1 1899 1900 1903
3329 1 1899 1900 1904
3330 1 1901 1899 1900
3331 3 1901 1899 1902
3332 1 1902 1899 1900
3333 3 1903 1900 1904
3334 1 1906 1907 1910
3335 1 1906 1907 1911
3336 2 1906 1907 1912
3337 2 1907 1912 1913
3338 1 1907 1912 1914
3339 1 1907 1912 1915
3340 1 1908 1906 1907
3341 3 1908 1906 1909
3342 1 1909 1906 1907
3343 3 1910 1907 1911
3344 1 1910 1907 1912
3345 1 1911 1907 1912
3346 1 1912 1913 1916
3347 1 1912 1913 1917
3348 2 1912 1913 1918
3349 2 1913 1918 1919
3350 1 1913 1918 1920
3351 1 1913 1918 1921
3352 1 1914 1912 1913
3353 3 1914 1912 1915
3354 1 1915 1912 1913
3355 3 1916 1913 1917
3356 1 1916 1913 1918
3357 1 1917 1913 1918
3358 1 1918 1919 1922
3359 1 1918 1919 1923
3360 2 1918 1919 1924
3361 2 1919 1924 1925
3362 1 1919 1924 1926
3363 1 1919 1924 1927
3364 1 1920 1918 1919
3365 3 1920 1918 1921
3366 1 1921 1918 1919
3367 3 1922 1919 1923
3368 1 1922 1919 1924
3369 1 1923 1919 1924
3370 1 1924 1925 1928
3371 1 1924 1925 1929
3372 2 1924 1925 1930
3373 2 1925 1930 1931
3374 1 1925 1930 1932
3375 1 1925 1930 1933
3376 1 1926 1924 1925
3377 3 1926 1924 1927
3378 1 1927 1924 1925
3379 3 1928 1925 1929
3380 1 1928 1925 1930
3381 1 1929 1925 1930
3382 1 1930 1931 1934
3383 1 1930 1931 1935
3384 1 1932 1930 1931
3385 3 1932 1930 1933
3386 1 1933 1930 1931
3387 3 1934 1931 1935
3388 1 1937 1938 1941
3389 1 1937 1938 1942
3390 2 1937 1938 1943
3391 2 1938 1943 1944
3392 1 1938 1943 1945
3393 1 1938 1943 1946
3394 1 1939 1937 1938
3395 3 1939 1937 1940
3396 1 1940 1937 1938
3397 3 1941 1938 1942
3398 1 1941 1938 1943
3399 1 1942 1938 1943
3400 1 1943 1944 1947
3401 1 1943 1944 1948
3402 2 1943 1944 1949
3403 2 1944 1949 1950
3404 1 1944 1949 1951
3405 1 1944 1949 1952
3406 1 1945 1943 1944
3407 3 1945 1943 1946
3408 1 1946 1943 1944
3409 3 1947 1944 1948
3410 1 1947 1944 1949
3411 1 1948 1944 1949
3412 1 1949 1950 1953
3413 1 1949 1950 1954
3414 2 1949 1950 1955
3415 2 1950 1955 1956
3416 1 1950 1955 1957
3417 1 1950 1955 1958
3418 1 1951 1949 1950
3419 3 1951 1949 1952
3420 1 1952 1949 1950
3421 3 1953 1950 1954
3422 1 1953 1950 1955
3423 1 1954 1950 1955
3424 1 1955 1956 1959
3425 1 1955 1956 1960
3426 2 1955 1956 1961
3427 2 1956 1961 1962
3428 1 1956 1961 1963
3429 1 1956 1961 1964
3430 1 1957 1955 1956
3431 3 1957 1955 1958
3432 1 1958 1955 1956
3433 3 1959 1956 1960
3434 1 1959 1956 1961
3435 1 1960 1956 1961
3436 1 1961 1962 1965
3437 1 1961 1962 1966
3438 1 1963 1961 1962
3439 3 1963 1961 1964
3440 1 1964 1961 1962
3441 3 1965 1962 1966
3442 1 1968 1969 1972
3443 1 1968 1969 1973
3444 2 1968 1969 1974
3445 2 1969 1974 1975
3446 1 1969 1974 1976
3447 1 1969 1974 1977
3448 1 1970 1968 1969
3449 3 1970 1968 1971
3450 1 1971 1968 1969
3451 3 1972 1969 1973
3452 1 1972 1969 1974
3453 1 1973 1969 1974
3454 1 1974 1975 1978
3455 1 1974 1975 1979
3456 2 1974 1975 1980
3457 2 1975 1980 1981
3458 1 1975 1980 1982
3459 1 1975 1980 1983
3460 1 1976 1974 1975
3461 3 1976 1974 1977
3462 1 1977 1974 1975
3463 3 1978 1975 1979
3464 1 1978 1975 1980
3465 1 1979 1975 1980
3466 1 1980 1981 1984
3467 1 1980 1981 1985
3468 2 1980 1981 1986
3469 2 1981 1986 1987
3470 1 1981 1986 1988
3471 1 1981 1986 1989
3472 1 1982 1980 1981
3473 3 1982 1980 1983
3474 1 1983 1980 1981
3475 3 1984 1981 1985
3476 1 1984 1981 1986
3477 1 1985 1981 1986
3478 1 1986 1987 1990
3479 1 1986 1987 1991
3480 2 1986 1987 1992
3481 2 1987 1992 1993
3482 1 1987 1992 1994
3483 1 1987 1992 1995
3484 1 1988 1986 1987
3485 3 1988 1986 1989
3486 1 1989 1986 1987
3487 3 1990 1987 1991
3488 1 1990 1987 1992
3489 1 1991 1987 1992
3490 1 1992 1993 1996
3491 1 1992 1993 1997
3492 1 1994 1992 1993
3493 3 1994 1992 1995
3494 1 1995 1992 1993
3495 3 1996 1993 1997
3496 1 1999 2000 2003
3497 1 1999 2000 2004
3498 2 1999 2000 2005
3499 2 2000 2005 2006
3500 1 2000 2005 2007
3501 1 2000 2005 2008
3502 1 2001 1999 2000
3503 3 2001 1999 2002
3504 1 2002 1999 2000
3505 3 2003 2000 2004
3506 1 2003 2000 2005
3507 1 2004 2000 2005
3508 1 2005 2006 2009
3509 1 2005 2006 2010
3510 2 2005 2006 2011
3511 2 2006 2011 2012
3512 1 2006 2011 2013
3513 1 2006 2011 2014
3514 1 2007 2005 2006
3515 3 2007 2005 2008
3516 1 2008 2005 2006
3517 3 2009 2006 2010
3518 1 2009 2006 2011
3519 1 2010 2006 2011
3520 1 2011 2012 2015
3521 1 2011 2012 2016
3522 2 2011 2012 2017
3523 2 2012 2017 2018
3524 1 2012 2017 2019
3525 1 2012 2017 2020
3526 1 2013 2011 2012
3527 3 2013 2011 2014
3528 1 2014 2011 2012
3529 3 2015 2012 2016
3530 1 2015 2012 2017
3531 1 2016 2012 2017
3532 1 2017 2018 2021
3533 1 2017 2018 2022
3534 2 2017 2018 2023
3535 2 2018 2023 2024
3536 1 2018 2023 2025
3537 1 2018 2023 2026
3538 1 2019 2017 2018
3539 3 2019 2017 2020
3540 1 2020 2017 2018
3541 3 2021 2018 2022
3542 1 2021 2018 2023
3543 1 2022 2018 2023
3544 1 2023 2024 2027
3545 1 2023 2024 2028
3546 1 2025 2023 2024
3547 3 2025 2023 2026
3548 1 2026 2023 2024
3549 3 2027 2024 2028
3550 1 2030 2031 2034
3551 1 2030 2031 2035
3552 2 2030 2031 2036
3553 2 2031 2036 2037
3554 1 2031 2036 2038
3555 1 2031 2036 2039
3556 1 2032 2030 2031
3557 3 2032 2030 2033
3558 1 2033 2030 2031
3559 3 2034 2031 2035
3560 1 2034 2031 2036
3561 1 2035 2031 2036
3562 1 2036 2037 2040
3563 1 2036 2037 2041
3564 2 2036 2037 2042
3565 2 2037 2042 2043
3566 1 2037 2042 2044
3567 1 2037 2042 2045
3568 1 2038 2036 2037
3569 3 2038 2036 2039
3570 1 2039 2036 2037
3571 3 2040 2037 2041
3572 1 2040 2037 2042
3573 1 2041 2037 2042
3574 1 2042 2043 2046
3575 1 2042 2043 2047
3576 2 2042 2043 2048
3577 2 2043 2048 2049
3578 1 2043 2048 2050
3579 1 2043 2048 2051
3580 1 2044 2042 2043
3581 3 2044 2042 2045
3582 1 2045 2042 2043
3583 3 2046 2043 2047
3584 1 2046 2043 2048
3585 1 2047 2043 2048
3586 1 2048 2049 2052
3587 1 2048 2049 2053
3588 2 2048 2049 2054
3589 2 2049 2054 2055
3590 1 2049 2054 2056
3591 1 2049 2054 2057
3592 1 2050 2048 2049
3593 3 2050 2048 2051
3594 1 2051 2048 2049
3595 3 2052 2049 2053
3596 1 2052 2049 2054
3597 1 2053 2049 2054
3598 1 2054 2055 2058
3599 1 2054 2055 2059
3600 1 2056 2054 2055
3601 3 2056 2054 2057
3602 1 2057 2054 2055
3603 3 2058 2055 2059
3604 1 2061 2062 2065
3605 1 2061 2062 2066
3606 2 2061 2062 2067
3607 2 2062 2067 2068
3608 1 2062 2067 2069
3609 1 2062 2067 2070
3610 1 2063 2061 2062
3611 3 2063 2061 2064
3612 1 2064 2061 2062
3613 3 2065 2062 2066
3614 1 2065 2062 2067
3615 1 2066 2062 2067
3616 1 2067 2068 2071
3617 1 2067 2068 2072
3618 2 2067 2068 2073
3619 2 2068 2073 2074
3620 1 2068 2073 2075
3621 1 2068 2073 2076
3622 1 2069 2067 2068
3623 3 2069 2067 2070
3624 1 2070 2067 2068
3625 3 2071 2068 2072
3626 1 2071 2068 2073
3627 1 2072 2068 2073
3628 1 2073 2074 2077
3629 1 2073 2074 2078
3630 2 2073 2074 2079
3631 2 2074 2079 2080
3632 1 2074 2079 2081
3633 1 2074 2079 2082
3634 1 2075 2073 2074
3635 3 2075 2073 2076
3636 1 2076 2073 2074
3637 3 2077 2074 2078
3638 1 2077 2074 2079
3639 1 2078 2074 2079
3640 1 2079 2080 2083
3641 1 2079 2080 2084
3642 2 2079 2080 2085
3643 2 2080 2085 2086
3644 1 2080 2085 2087
3645 1 2080 2085 2088
3646 1 2081 2079 2080
3647 3 2081 2079 2082
3648 1 2082 2079 2080
3649 3 2083 2080 2084
3650 1 2083 2080 2085
3651 1 2084 2080 2085
3652 1 2085 2086 2089
3653 1 2085 2086 2090
3654 1 2087 2085 2086
3655 3 2087 2085 2088
3656 1 2088 2085 2086
3657 3 2089 2086 2090
3658 1 2092 2093 2096
3659 1 2092 2093 2097
3660 2 2092 2093 2098
3661 2 2093 2098 2099
3662 1 2093 2098 2100
3663 1 2093 2098 2101
3664 1 2094 2092 2093
3665 3 2094 2092 2095
3666 1 2095 2092 2093
3667 3 2096 2093 2097
3668 1 2096 2093 2098
3669 1 2097 2093 2098
3670 1 2098 2099 2102
3671 1 2098 2099 2103
3672 2 2098 2099 2104
3673 2 2099 2104 2105
3674 1 2099 2104 2106
3675 1 2099 2104 2107
3676 1 2100 2098 2099
3677 3 2100 2098 2101
3678 1 2101 2098 2099
3679 3 2102 2099 2103
3680 1 2102 2099 2104
3681 1 2103 2099 2104
3682 1 2104 2105 2108
3683 1 2104 2105 2109
3684 2 2104 2105 2110
3685 2 2105 2110 2111
3686 1 2105 2110 2112
3687 1 2105 2110 2113
3688 1 2106 2104 2105
3689 3 2106 2104 2107
3690 1 2107 2104 2105
3691 3 2108 2105 2109
3692 1 2108 2105 2110
3693 1 2109 2105 2110
3694 1 2110 2111 2114
3695 1 2110 2111 2115
3696 2 2110 2111 2116
3697 2 2111 2116 2117
3698 1 2111 2116 2118
3699 1 2111 2116 2119
3700 1 2112 2110 2111
3701 3 2112 2110 2113
3702 1 2113 2110 2111
3703 3 2114 2111 2115
3704 1 2114 2111 2116
3705 1 2115 2111 2116
3706 1 2116 2117 2120
3707 1 2116 2117 2121
3708 1 2118 2116 2117
3709 3 2118 2116 2119
3710 1 2119 2116 2117
3711 3 2120 2117 2121
3712 1 2123 2124 2127
3713 1 2123 2124 2128
3714 2 2123 2124 2129
3715 2 2124 2129 2130
3716 1 2124 2129 2131
3717 1 2124 2129 2132
3718 1 2125 2123 2124
3719 3 2125 2123 2126
3720 1 2126 2123 2124
3721 3 2127 2124 2128
3722 1 2127 2124 2129
3723 1 2128 2124 2129
3724 1 2129 2130 2133
3725 1 2129 2130 2134
3726 2 2129 2130 2135
3727 2 2130 2135 2136
3728 1 2130 2135 2137
3729 1 2130 2135 2138
3730 1 2131 2129 2130
3731 3 2131 2129 2132
3732 1 2132 2129 2130
3733 3 2133 2130 2134
3734 1 2133 2130 2135
3735 1 2134 2130 2135
3736 1 2135 2136 2139
3737 1 2135 2136 2140
3738 2 2135 2136 2141
3739 2 2136 2141 2142
3740 1 2136 2141 2143
3741 1 2136 2141 2144
3742 1 2137 2135 2136
3743 3 2137 2135 2138
3744 1 2138 2135 2136
3745 3 2139 2136 2140
3746 1 2139 2136 2141
3747 1 2140 2136 2141
3748 1 2141 2142 2145
3749 1 2141 2142 2146
3750 2 2141 2142 2147
3751 2 2142 2147 2148
3752 1 2142 2147 2149
3753 1 2142 2147 2150
3754 1 2143 2141 2142
3755 3 2143 2141 2144
3756 1 2144 2141 2142
3757 3 2145 2142 2146
3758 1 2145 2142 2147
3759 1 2146 2142 2147
3760 1 2147 2148 2151
3761 1 2147 2148 2152
3762 1 2149 2147 2148
3763 3 2149 2147 2150
3764 1 2150 2147 2148
3765 3 2151 2148 2152
3766 1 2154 2155 2158
3767 1 2154 2155 2159
3768 1 2154 2155 2160
3769 1 2156 2154 2155
3770 3 2156 2154 2157
3771 1 2157 2154 2155
3772 3 2158 2155 2159
3773 3 2158 2155 2160
3774 3 2159 2155 2160
3775 2 2161 2162 2154
3776 1 2161 2162 2165
3777 1 2161 2162 2166
3778 2 2162 2154 2155
3779 1 2162 2154 2156
3780 1 2162 2154 2157
3781 1 2163 2161 2162
3782 3 2163 2161 2164
3783 1 2164 2161 2162
3784 1 2165 2162 2154
3785 3 2165 2162 2166
3786 1 2166 2162 2154
3787 2 2167 2168 2161
3788 1 2167 2168 2171
3789 1 2167 2168 2172
3790 2 2168 2161 2162
3791 1 2168 2161 2163
3792 1 2168 2161 2164
3793 1 2169 2167 2168
3794 3 2169 2167 2170
3795 1 2170 2167 2168
3796 1 2171 2168 2161
3797 3 2171 2168 2172
3798 1 2172 2168 2161
3799 2 2173 2174 2167
3800 1 2173 2174 2177
3801 1 2173 2174 2178
3802 2 2174 2167 2168
3803 1 2174 2167 2169
3804 1 2174 2167 2170
3805 1 2175 2173 2174
3806 3 2175 2173 2176
3807 1 2176 2173 2174
3808 1 2177 2174 2167
3809 3 2177 2174 2178
3810 1 2178 2174 2167
3811 2 2179 2180 2173
3812 1 2179 2180 2183
3813 1 2179 2180 2184
3814 2 2180 2173 2174
3815 1 2180 2173 2175
3816 1 2180 2173 2176
3817 1 2181 2179 2180
3818 3 2181 2179 2182
3819 1 2182 2179 2180
3820 1 2183 2180 2173
3821 3 2183 2180 2184
3822 1 2184 2180 2173
3823 1 2186 2187 2190
3824 1 2186 2187 2191
3825 1 2186 2187 2192
3826 2 2186 2193 2194
3827 1 2186 2193 2195
3828 1 2186 2193 2196
3829 1 2188 2186 2187
3830 3 2188 2186 2189
3831 1 2188 2186 2193
3832 1 2189 2186 2187
3833 1 2189 2186 2193
3834 3 2190 2187 2191
3835 3 2190 2187 2192
3836 3 2191 2187 2192
3837 2 2193 2186 2187
3838 1 2193 2194 2197
3839 1 2193 2194 2198
3840 2 2193 2194 2199
3841 2 2194 2199 2200
3842 1 2194 2199 2201
3843 1 2194 2199 2202
3844 1 2195 2193 2194
3845 3 2195 2193 2196
3846 1 2196 2193 2194
3847 3 2197 2194 2198
3848 1 2197 2194 2199
3849 1 2198 2194 2199
3850 1 2199 2200 2203
3851 1 2199 2200 2204
3852 2 2199 2200 2205
3853 2 2200 2205 2206
3854 1 2200 2205 2207
3855 1 2200 2205 2208
3856 1 2201 2199 2200
3857 3 2201 2199 2202
3858 1 2202 2199 2200
3859 3 2203 2200 2204
3860 1 2203 2200 2205
3861 1 2204 2200 2205
3862 1 2205 2206 2209
3863 1 2205 2206 2210
3864 2 2205 2206 2211
3865 2 2206 2211 2212
3866 1 2206 2211 2213
3867 1 2206 2211 2214
3868 1 2207 2205 2206
3869 3 2207 2205 2208
3870 1 2208 2205 2206
3871 3 2209 2206 2210
3872 1 2209 2206 2211
3873 1 2210 2206 2211
3874 1 2211 2212 2215
3875 1 2211 2212 2216
3876 1 2213 2211 2212
3877 3 2213 2211 2214
3878 1 2214 2211 2212
3879 3 2215 2212 2216
3880 1 2218 2219 2222
3881 1 2218 2219 2223
3882 2 2218 2219 2224
3883 2 2219 2224 2225
3884 1 2219 2224 2226
3885 1 2219 2224 2227
3886 1 2220 2218 2219
3887 3 2220 2218 2221
3888 1 2221 2218 2219
3889 3 2222 2219 2223
3890 1 2222 2219 2224
3891 1 2223 2219 2224
3892 1 2224 2225 2228
3893 1 2224 2225 2229
3894 2 2224 2225 2230
3895 2 2225 2230 2231
3896 1 2225 2230 2232
3897 1 2225 2230 2233
3898 1 2226 2224 2225
3899 3 2226 2224 2227
3900 1 2227 2224 2225
3901 3 2228 2225 2229
3902 1 2228 2225 2230
3903 1 2229 2225 2230
3904 1 2230 2231 2234
3905 1 2230 2231 2235
3906 2 2230 2231 2236
3907 2 2231 2236 2237
3908 1 2231 2236 2238
3909 1 2231 2236 2239
3910 1 2232 2230 2231
3911 3 2232 2230 2233
3912 1 2233 2230 2231
3913 3 2234 2231 2235
3914 1 2234 2231 2236
3915 1 2235 2231 2236
3916 1 2236 2237 2240
3917 1 2236 2237 2241
3918 2 2236 2237 2242
3919 2 2237 2242 2243
3920 1 2237 2242 2244
3921 1 2237 2242 2245
3922 1 2238 2236 2237
3923 3 2238 2236 2239
3924 1 2239 2236 2237
3925 3 2240 2237 2241
3926 1 2240 2237 2242
3927 1 2241 2237 2242
3928 1 2242 2243 2246
3929 1 2242 2243 2247
3930 1 2244 2242 2243
3931 3 2244 2242 2245
3932 1 2245 2242 2243
3933 3 2246 2243 2247
3934 1 2249 2250 2253
3935 1 2249 2250 2254
3936 2 2249 2250 2255
3937 2 2250 2255 2256
3938 1 2250 2255 2257
3939 1 2250 2255 2258
3940 1 2251 2249 2250
3941 3 2251 2249 2252
3942 1 2252 2249 2250
3943 3 2253 2250 2254
3944 1 2253 2250 2255
3945 1 2254 2250 2255
3946 1 2255 2256 2259
3947 1 2255 2256 2260
3948 2 2255 2256 2261
3949 2 2256 2261 2262
3950 1 2256 2261 2263
3951 1 2256 2261 2264
3952 1 2257 2255 2256
3953 3 2257 2255 2258
3954 1 2258 2255 2256
3955 3 2259 2256 2260
3956 1 2259 2256 2261
3957 1 2260 2256 2261
3958 1 2261 2262 2265
3959 1 2261 2262 2266
3960 2 2261 2262 2267
3961 2 2262 2267 2268
3962 1 2262 2267 2269
3963 1 2262 2267 2270
3964 1 2263 2261 2262
3965 3 2263 2261 2264
3966 1 2264 2261 2262
3967 3 2265 2262 2266
3968 1 2265 2262 2267
3969 1 2266 2262 2267
3970 1 2267 2268 2271
3971 1 2267 2268 2272
3972 2 2267 2268 2273
3973 2 2268 2273 2274
3974 1 2268 2273 2275
3975 1 2268 2273 2276
3976 1 2269 2267 2268
3977 3 2269 2267 2270
3978 1 2270 2267 2268
3979 3 2271 2268 2272
3980 1 2271 2268 2273
3981 1 2272 2268 2273
3982 1 2273 2274 2277
3983 1 2273 2274 2278
3984 1 2275 2273 2274
3985 3 2275 2273 2276
3986 1 2276 2273 2274
3987 3 2277 2274 2278
3988 1 2280 2281 2284
3989 1 2280 2281 2285
3990 2 2280 2281 2286
3991 2 2281 2286 2287
3992 1 2281 2286 2288
3993 1 2281 2286 2289
3994 1 2282 2280 2281
3995 3 2282 2280 2283
3996 1 2283 2280 2281
3997 3 2284 2281 2285
3998 1 2284 2281 2286
3999 1 2285 2281 2286
4000 1 2286 2287 2290
4001 1 2286 2287 2291
4002 2 2286 2287 2292
4003 2 2287 2292 2293
4004 1 2287 2292 2294
4005 1 2287 2292 2295
4006 1 2288 2286 2287
4007 3 2288 2286 2289
4008 1 2289 2286 2287
4009 3 2290 2287 2291
4010 1 2290 2287 2292
4011 1 2291 2287 2292
4012 1 2292 2293 2296
4013 1 2292 2293 2297
4014 2 2292 2293 2298
4015 2 2293 2298 2299
4016 1 2293 2298 2300
4017 1 2293 2298 2301
4018 1 2294 2292 2293
4019 3 2294 2292 2295
4020 1 2295 2292 2293
4021 3 2296 2293 2297
4022 1 2296 2293 2298
4023 1 2297 2293 2298
4024 1 2298 2299 2302
4025 1 2298 2299 2303
4026 2 2298 2299 2304
4027 2 2299 2304 2305
4028 1 2299 2304 2306
4029 1 2299 2304 2307
4030 1 2300 2298 2299
4031 3 2300 2298 2301
4032 1 2301 2298 2299
4033 3 2302 2299 2303
4034 1 2302 2299 2304
4035 1 2303 2299 2304
4036 1 2304 2305 2308
4037 1 2304 2305 2309
4038 1 2306 2304 2305
4039 3 2306 2304 2307
4040 1 2307 2304 2305
4041 3 2308 2305 2309
4042 1 2311 2312 2315
4043 1 2311 2312 2316
4044 2 2311 2312 2317
4045 2 2312 2317 2318
4046 1 2312 2317 2319
4047 1 2312 2317 2320
4048 1 2313 2311 2312
4049 3 2313 2311 2314
4050 1 2314 2311 2312
4051 3 2315 2312 2316
4052 1 2315 2312 2317
4053 1 2316 2312 2317
4054 1 2317 2318 2321
4055 1 2317 2318 2322
4056 2 2317 2318 2323
4057 2 2318 2323 2324
4058 1 2318 2323 2325
4059 1 2318 2323 2326
4060 1 2319 2317 2318
4061 3 2319 2317 2320
4062 1 2320 2317 2318
4063 3 2321 2318 2322
4064 1 2321 2318 2323
4065 1 2322 2318 2323
4066 1 2323 2324 2327
4067 1 2323 2324 2328
4068 2 2323 2324 2329
4069 2 2324 2329 2330
4070 1 2324 2329 2331
4071 1 2324 2329 2332
4072 1 2325 2323 2324
4073 3 2325 2323 2326
4074 1 2326 2323 2324
4075 3 2327 2324 2328
4076 1 2327 2324 2329
4077 1 2328 2324 2329
4078 1 2329 2330 2333
4079 1 2329 2330 2334
4080 2 2329 2330 2335
4081 2 2330 2335 2336
4082 1 2330 2335 2337
4083 1 2330 2335 2338
4084 1 2331 2329 2330
4085 3 2331 2329 2332
4086 1 2332 2329 2330
4087 3 2333 2330 2334
4088 1 2333 2330 2335
4089 1 2334 2330 2335
4090 1 2335 2336 2339
4091 1 2335 2336 2340
4092 1 2337 2335 2336
4093 3 2337 2335 2338
4094 1 2338 2335 2336
4095 3 2339 2336 2340
4096 1 2342 2343 2346
4097 1 2342 2343 2347
4098 2 2342 2343 2348
4099 2 2343 2348 2349
4100 1 2343 2348 2350
4101 1 2343 2348 2351
4102 1 2344 2342 2343
4103 3 2344 2342 2345
4104 1 2345 2342 2343
4105 3 2346 2343 2347
4106 1 2346 2343 2348
4107 1 2347 2343 2348
4108 1 2348 2349 2352
4109 1 2348 2349 2353
4110 2 2348 2349 2354
4111 2 2349 2354 2355
4112 1 2349 2354 2356
4113 1 2349 2354 2357
4114 1 2350 2348 2349
4115 3 2350 2348 2351
4116 1 2351 2348 2349
4117 3 2352 2349 2353
4118 1 2352 2349 2354
4119 1 2353 2349 2354
4120 1 2354 2355 2358
4121 1 2354 2355 2359
4122 2 2354 2355 2360
4123 2 2355 2360 2361
4124 1 2355 2360 2362
4125 1 2355 2360 2363
4126 1 2356 2354 2355
4127 3 2356 2354 2357
4128 1 2357 2354 2355
4129 3 2358 2355 2359
4130 1 2358 2355 2360
4131 1 2359 2355 2360
4132 1 2360 2361 2364
4133 1 2360 2361 2365
4134 2 2360 2361 2366
4135 2 2361 2366 2367
4136 1 2361 2366 2368
4137 1 2361 2366 2369
4138 1 2362 2360 2361
4139 3 2362 2360 2363
4140 1 2363 2360 2361
4141 3 2364 2361 2365
4142 1 2364 2361 2366
4143 1 2365 2361 2366
4144 1 2366 2367 2370
4145 1 2366 2367 2371
4146 1 2368 2366 2367
4147 3 2368 2366 2369
4148 1 2369 2366 2367
4149 3 2370 2367 2371
4150 1 2373 2374 2377
4151 1 2373 2374 2378
4152 2 2373 2374 2379
4153 2 2374 2379 2380
4154 1 2374 2379 2381
4155 1 2374 2379 2382
4156 1 2375 2373 2374
4157 3 2375 2373 2376
4158 1 2376 2373 2374
4159 3 2377 2374 2378
4160 1 2377 2374 2379
4161 1 2378 2374 2379
4162 1 2379 2380 2383
4163 1 2379 2380 2384
4164 2 2379 2380 2385
4165 2 2380 2385 2386
4166 1 2380 2385 2387
4167 1 2380 2385 2388
4168 1 2381 2379 2380
4169 3 2381 2379 2382
4170 1 2382 2379 2380
4171 3 2383 2380 2384
4172 1 2383 2380 2385
4173 1 2384 2380 2385
4174 1 2385 2386 2389
4175 1 2385 2386 2390
4176 2 2385 2386 2391
4177 2 2386 2391 2392
4178 1 2386 2391 2393
4179 1 2386 2391 2394
4180 1 2387 2385 2386
4181 3 2387 2385 2388
4182 1 2388 2385 2386
4183 3 2389 2386 2390
4184 1 2389 2386 2391
4185 1 2390 2386 2391
4186 1 2391 2392 2395
4187 1 2391 2392 2396
4188 2 2391 2392 2397
4189 2 2392 2397 2398
4190 1 2392 2397 2399
4191 1 2392 2397 2400
4192 1 2393 2391 2392
4193 3 2393 2391 2394
4194 1 2394 2391 2392
4195 3 2395 2392 2396
4196 1 2395 2392 2397
4197 1 2396 2392 2397
4198 1 2397 2398 2401
4199 1 2397 2398 2402
4200 1 2399 2397 2398
4201 3 2399 2397 2400
4202 1 2400 2397 2398
4203 3 2401 2398 2402
4204 1 2404 2405 2408
4205 1 2404 2405 2409
4206 2 2404 2405 2410
4207 2 2405 2410 2411
4208 1 2405 2410 2412
4209 1 2405 2410 2413
4210 1 2406 2404 2405
4211 3 2406 2404 2407
4212 1 2407 2404 2405
4213 3 2408 2405 2409
4214 1 2408 2405 2410
4215 1 2409 2405 2410
4216 1 2410 2411 2414
4217 1 2410 2411 2415
4218 2 2410 2411 2416
4219 2 2411 2416 2417
4220 1 2411 2416 2418
4221 1 2411 2416 2419
4222 1 2412 2410 2411
4223 3 2412 2410 2413
4224 1 2413 2410 2411
4225 3 2414 2411 2415
4226 1 2414 2411 2416
4227 1 2415 2411 2416
4228 1 2416 2417 2420
4229 1 2416 2417 2421
4230 2 2416 2417 2422
4231 2 2417 2422 2423
4232 1 2417 2422 2424
4233 1 2417 2422 2425
4234 1 2418 2416 2417
4235 3 2418 2416 2419
4236 1 2419 2416 2417
4237 3 2420 2417 2421
4238 1 2420 2417 2422
4239 1 2421 2417 2422
4240 1 2422 2423 2426
4241 1 2422 2423 2427
4242 2 2422 2423 2428
4243 2 2423 2428 2429
4244 1 2423 2428 2430
4245 1 2423 2428 2431
4246 1 2424 2422 2423
4247 3 2424 2422 2425
4248 1 2425 2422 2423
4249 3 2426 2423 2427
4250 1 2426 2423 2428
4251 1 2427 2423 2428
4252 1 2428 2429 2432
4253 1 2428 2429 2433
4254 1 2430 2428 2429
4255 3 2430 2428 2431
4256 1 2431 2428 2429
4257 3 2432 2429 2433
4258 1 2435 2436 2439
4259 1 2435 2436 2440
4260 2 2435 2436 2441
4261 2 2436 2441 2442
4262 1 2436 2441 2443
4263 1 2436 2441 2444
4264 1 2437 2435 2436
4265 3 2437 2435 2438
4266 1 2438 2435 2436
4267 3 2439 2436 2440
4268 1 2439 2436 2441
4269 1 2440 2436 2441
4270 1 2441 2442 2445
4271 1 2441 2442 2446
4272 2 2441 2442 2447
4273 2 2442 2447 2448
4274 1 2442 2447 2449
4275 1 2442 2447 2450
4276 1 2443 2441 2442
4277 3 2443 2441 2444
4278 1 2444 2441 2442
4279 3 2445 2442 2446
4280 1 2445 2442 2447
4281 1 2446 2442 2447
4282 1 2447 2448 2451
4283 1 2447 2448 2452
4284 2 2447 2448 2453
4285 2 2448 2453 2454
4286 1 2448 2453 2455
4287 1 2448 2453 2456
4288 1 2449 2447 2448
4289 3 2449 2447 2450
4290 1 2450 2447 2448
4291 3 2451 2448 2452
4292 1 2451 2448 2453
4293 1 2452 2448 2453
4294 1 2453 2454 2457
4295 1 2453 2454 2458
4296 2 2453 2454 2459
4297 2 2454 2459 2460
4298 1 2454 2459 2461
4299 1 2454 2459 2462
4300 1 2455 2453 2454
4301 3 2455 2453 2456
4302 1 2456 2453 2454
4303 3 2457 2454 2458
4304 1 2457 2454 2459
4305 1 2458 2454 2459
4306 1 2459 2460 2463
4307 1 2459 2460 2464
4308 1 2461 2459 2460
4309 3 2461 2459 2462
4310 1 2462 2459 2460
4311 3 2463 2460 2464
4312 1 2466 2467 2470
4313 1 2466 2467 2471
4314 1 2466 2467 2472
4315 1 2468 2466 2467
4316 3 2468 2466 2469
4317 1 2469 2466 2467
4318 3 2470 2467 2471
4319 3 2470 2467 2472
4320 3 2471 2467 2472
4321 2 2473 2474 2466
4322 1 2473 2474 2477
4323 1 2473 2474 2478
4324 2 2474 2466 2467
4325 1 2474 2466 2468
4326 1 2474 2466 2469
4327 1 2475 2473 2474
4328 3 2475 2473 2476
4329 1 2476 2473 2474
4330 1 2477 2474 2466
4331 3 2477 2474 2478
4332 1 2478 2474 2466
4333 2 2479 2480 2473
4334 1 2479 2480 2483
4335 1 2479 2480 2484
4336 2 2480 2473 2474
4337 1 2480 2473 2475
4338 1 2480 2473 2476
4339 1 2481 2479 2480
4340 3 2481 2479 2482
4341 1 2482 2479 2480
4342 1 2483 2480 2473
4343 3 2483 2480 2484
4344 1 2484 2480 2473
4345 2 2485 2486 2479
4346 1 2485 2486 2489
4347 1 2485 2486 2490
4348 2 2486 2479 2480
4349 1 2486 2479 2481
4350 1 2486 2479 2482
4351 1 2487 2485 2486
4352 3 2487 2485 2488
4353 1 2488 2485 2486
4354 1 2489 2486 2479
4355 3 2489 2486 2490
4356 1 2490 2486 2479
4357 2 2491 2492 2485
4358 1 2491 2492 2495
4359 1 2491 2492 2496
4360 2 2492 2485 2486
4361 1 2492 2485 2487
4362 1 2492 2485 2488
4363 1 2493 2491 2492
4364 3 2493 2491 2494
4365 1 2494 2491 2492
4366 1 2495 2492 2485
4367 3 2495 2492 2496
4368 1 2496 2492 2485
4369 1 2498 2499 2502
4370 1 2498 2499 2503
4371 1 2498 2499 2504
4372 2 2498 2505 2506
4373 1 2498 2505 2507
4374 1 2498 2505 2508
4375 1 2500 2498 2499
4376 3 2500 2498 2501
4377 1 2500 2498 2505
4378 1 2501 2498 2499
4379 1 2501 2498 2505
4380 3 2502 2499 2503
4381 3 2502 2499 2504
4382 3 2503 2499 2504
4383 2 2505 2498 2499
4384 1 2505 2506 2509
4385 1 2505 2506 2510
4386 2 2505 2506 2511
4387 2 2506 2511 2512
4388 1 2506 2511 2513
4389 1 2506 2511 2514
4390 1 2507 2505 2506
4391 3 2507 2505 2508
4392 1 2508 2505 2506
4393 3 2509 2506 2510
4394 1 2509 2506 2511
4395 1 2510 2506 2511
4396 1 2511 2512 2515
4397 1 2511 2512 2516
4398 2 2511 2512 2517
4399 2 2512 2517 2518
4400 1 2512 2517 2519
4401 1 2512 2517 2520
4402 1 2513 2511 2512
4403 3 2513 2511 2514
4404 1 2514 2511 2512
4405 3 2515 2512 2516
4406 1 2515 2512 2517
4407 1 2516 2512 2517
4408 1 2517 2518 2521
4409 1 2517 2518 2522
4410 2 2517 2518 2523
4411 2 2518 2523 2524
4412 1 2518 2523 2525
4413 1 2518 2523 2526
4414 1 2519 2517 2518
4415 3 2519 2517 2520
4416 1 2520 2517 2518
4417 3 2521 2518 2522
4418 1 2521 2518 2523
4419 1 2522 2518 2523
4420 1 2523 2524 2527
4421 1 2523 2524 2528
4422 1 2525 2523 2524
4423 3 2525 2523 2526
4424 1 2526 2523 2524
4425 3 2527 2524 2528
4426 1 2530 2531 2534
4427 1 2530 2531 2535
4428 2 2530 2531 2536
4429 2 2531 2536 2537
4430 1 2531 2536 2538
4431 1 2531 2536 2539
4432 1 2532 2530 2531
4433 3 2532 2530 2533
4434 1 2533 2530 2531
4435 3 2534 2531 2535
4436 1 2534 2531 2536
4437 1 2535 2531 2536
4438 1 2536 2537 2540
4439 1 2536 2537 2541
4440 2 2536 2537 2542
4441 2 2537 2542 2543
4442 1 2537 2542 2544
4443 1 2537 2542 2545
4444 1 2538 2536 2537
4445 3 2538 2536 2539
4446 1 2539 2536 2537
4447 3 2540 2537 2541
4448 1 2540 2537 2542
4449 1 2541 2537 2542
4450 1 2542 2543 2546
4451 1 2542 2543 2547
4452 2 2542 2543 2548
4453 2 2543 2548 2549
4454 1 2543 2548 2550
4455 1 2543 2548 2551
4456 1 2544 2542 2543
4457 3 2544 2542 2545
4458 1 2545 2542 2543
4459 3 2546 2543 2547
4460 1 2546 2543 2548
4461 1 2547 2543 2548
4462 1 2548 2549 2552
4463 1 2548 2549 2553
4464 2 2548 2549 2554
4465 2 2549 2554 2555
4466 1 2549 2554 2556
4467 1 2549 2554 2557
4468 1 2550 2548 2549
4469 3 2550 2548 2551
4470 1 2551 2548 2549
4471 3 2552 2549 2553
4472 1 2552 2549 2554
4473 1 2553 2549 2554
4474 1 2554 2555 2558
4475 1 2554 2555 2559
4476 1 2556 2554 2555
4477 3 2556 2554 2557
4478 1 2557 2554 2555
4479 3 2558 2555 2559
4480 1 2561 2562 2565
4481 1 2561 2562 2566
4482 2 2561 2562 2567
4483 2 2562 2567 2568
4484 1 2562 2567 2569
4485 1 2562 2567 2570
4486 1 2563 2561 2562
4487 3 2563 2561 2564
4488 1 2564 2561 2562
4489 3 2565 2562 2566
4490 1 2565 2562 2567
4491 1 2566 2562 2567
4492 1 2567 2568 2571
4493 1 2567 2568 2572
4494 2 2567 2568 2573
4495 2 2568 2573 2574
4496 1 2568 2573 2575
4497 1 2568 2573 2576
4498 1 2569 2567 2568
4499 3 2569 2567 2570
4500 1 2570 2567 2568
4501 3 2571 2568 2572
4502 1 2571 2568 2573
4503 1 2572 2568 2573
4504 1 2573 2574 2577
4505 1 2573 2574 2578
4506 2 2573 2574 2579
4507 2 2574 2579 2580
4508 1 2574 2579 2581
4509 1 2574 2579 2582
4510 1 2575 2573 2574
4511 3 2575 2573 2576
4512 1 2576 2573 2574
4513 3 2577 2574 2578
4514 1 2577 2574 2579
4515 1 2578 2574 2579
4516 1 2579 2580 2583
4517 1 2579 2580 2584
4518 2 2579 2580 2585
4519 2 2580 2585 2586
4520 1 2580 2585 2587
4521 1 2580 2585 2588
4522 1 2581 2579 2580
4523 3 2581 2579 2582
4524 1 2582 2579 2580
4525 3 2583 2580 2584
4526 1 2583 2580 2585
4527 1 2584 2580 2585
4528 1 2585 2586 2589
4529 1 2585 2586 2590
4530 1 2587 2585 2586
4531 3 2587 2585 2588
4532 1 2588 2585 2586
4533 3 2589 2586 2590
4534 1 2592 2593 2596
4535 1 2592 2593 2597
4536 2 2592 2593 2598
4537 2 2593 2598 2599
4538 1 2593 2598 2600
4539 1 2593 2598 2601
4540 1 2594 2592 2593
4541 3 2594 2592 2595
4542 1 2595 2592 2593
4543 3 2596 2593 2597
4544 1 2596 2593 2598
4545 1 2597 2593 2598
4546 1 2598 2599 2602
4547 1 2598 2599 2603
4548 2 2598 2599 2604
4549 2 2599 2604 2605
4550 1 2599 2604 2606
4551 1 2599 2604 2607
4552 1 2600 2598 2599
4553 3 2600 2598 2601
4554 1 2601 2598 2599
4555 3 2602 2599 2603
4556 1 2602 2599 2604
4557 1 2603 2599 2604
4558 1 2604 2605 2608
4559 1 2604 2605 2609
4560 2 2604 2605 2610
4561 2 2605 2610 2611
4562 1 2605 2610 2612
4563 1 2605 2610 2613
4564 1 2606 2604 2605
4565 3 2606 2604 2607
4566 1 2607 2604 2605
4567 3 2608 2605 2609
4568 1 2608 2605 2610
4569 1 2609 2605 2610
4570 1 2610 2611 2614
4571 1 2610 2611 2615
4572 2 2610 2611 2616
4573 2 2611 2616 2617
4574 1 2611 2616 2618
4575 1 2611 2616 2619
4576 1 2612 2610 2611
4577 3 2612 2610 2613
4578 1 2613 2610 2611
4579 3 2614 2611 2615
4580 1 2614 2611 2616
4581 1 2615 2611 2616
4582 1 2616 2617 2620
4583 1 2616 2617 2621
4584 1 2618 2616 2617
4585 3 2618 2616 2619
4586 1 2619 2616 2617
4587 3 2620 2617 2621
4588 1 2623 2624 2627
4589 1 2623 2624 2628
4590 2 2623 2624 2629
4591 2 2624 2629 2630
4592 1 2624 2629 2631
4593 1 2624 2629 2632
4594 1 2625 2623 2624
4595 3 2625 2623 2626
4596 1 2626 2623 2624
4597 3 2627 2624 2628
4598 1 2627 2624 2629
4599 1 2628 2624 2629
4600 1 2629 2630 2633
4601 1 2629 2630 2634
4602 2 2629 2630 2635
4603 2 2630 2635 2636
4604 1 2630 2635 2637
4605 1 2630 2635 2638
4606 1 2631 2629 2630
4607 3 2631 2629 2632
4608 1 2632 2629 2630
4609 3 2633 2630 2634
4610 1 2633 2630 2635
4611 1 2634 2630 2635
4612 1 2635 2636 2639
4613 1 2635 2636 2640
4614 2 2635 2636 2641
4615 2 2636 2641 2642
4616 1 2636 2641 2643
4617 1 2636 2641 2644
4618 1 2637 2635 2636
4619 3 2637 2635 2638
4620 1 2638 2635 2636
4621 3 2639 2636 2640
4622 1 2639 2636 2641
4623 1 2640 2636 2641
4624 1 2641 2642 2645
4625 1 2641 2642 2646
4626 2 2641 2642 2647
4627 2 2642 2647 2648
4628 1 2642 2647 2649
4629 1 2642 2647 2650
4630 1 2643 2641 2642
4631 3 2643 2641 2644
4632 1 2644 2641 2642
4633 3 2645 2642 2646
4634 1 2645 2642 2647
4635 1 2646 2642 2647
4636 1 2647 2648 2651
4637 1 2647 2648 2652
4638 1 2649 2647 2648
4639 3 2649 2647 2650
4640 1 2650 2647 2648
4641 3 2651 2648 2652
4642 1 2654 2655 2658
4643 1 2654 2655 2659
4644 2 2654 2655 2660
4645 2 2655 2660 2661
4646 1 2655 2660 2662
4647 1 2655 2660 2663
4648 1 2656 2654 2655
4649 3 2656 2654 2657
4650 1 2657 2654 2655
4651 3 2658 2655 2659
4652 1 2658 2655 2660
4653 1 2659 2655 2660
4654 1 2660 2661 2664
4655 1 2660 2661 2665
4656 2 2660 2661 2666
4657 2 2661 2666 2667
4658 1 2661 2666 2668
4659 1 2661 2666 2669
4660 1 2662 2660 2661
4661 3 2662 2660 2663
4662 1 2663 2660 2661
4663 3 2664 2661 2665
4664 1 2664 2661 2666
4665 1 2665 2661 2666
4666 1 2666 2667 2670
4667 1 2666 2667 2671
4668 2 2666 2667 2672
4669 2 2667 2672 2673
4670 1 2667 2672 2674
4671 1 2667 2672 2675
4672 1 2668 2666 2667
4673 3 2668 2666 2669
4674 1 2669 2666 2667
4675 3 2670 2667 2671
4676 1 2670 2667 2672
4677 1 2671 2667 2672
4678 1 2672 2673 2676
4679 1 2672 2673 2677
4680 2 2672 2673 2678
4681 2 2673 2678 2679
4682 1 2673 2678 2680
4683 1 2673 2678 2681
4684 1 2674 2672 2673
4685 3 2674 2672 2675
4686 1 2675 2672 2673
4687 3 2676 2673 2677
4688 1 2676 2673 2678
4689 1 2677 2673 2678
4690 1 2678 2679 2682
4691 1 2678 2679 2683
4692 1 2680 2678 2679
4693 3 2680 2678 2681
4694 1 2681 2678 2679
4695 3 2682 2679 2683
4696 1 2685 2686 2689
4697 1 2685 2686 2690
4698 2 2685 2686 2691
4699 2 2686 2691 2692
4700 1 2686 2691 2693
4701 1 2686 2691 2694
4702 1 2687 2685 2686
4703 3 2687 2685 2688
4704 1 2688 2685 2686
4705 3 2689 2686 2690
4706 1 2689 2686 2691
4707 1 2690 2686 2691
4708 1 2691 2692 2695
4709 1 2691 2692 2696
4710 2 2691 2692 2697
4711 2 2692 2697 2698
4712 1 2692 2697 2699
4713 1 2692 2697 2700
4714 1 2693 2691 2692
4715 3 2693 2691 2694
4716 1 2694 2691 2692
4717 3 2695 2692 2696
4718 1 2695 2692 2697
4719 1 2696 2692 2697
4720 1 2697 2698 2701
4721 1 2697 2698 2702
4722 2 2697 2698 2703
4723 2 2698 2703 2704
4724 1 2698 2703 2705
4725 1 2698 2703 2706
4726 1 2699 2697 2698
4727 3 2699 2697 2700
4728 1 2700 2697 2698
4729 3 2701 2698 2702
4730 1 2701 2698 2703
4731 1 2702 2698 2703
4732 1 2703 2704 2707
4733 1 2703 2704 2708
4734 2 2703 2704 2709
4735 2 2704 2709 2710
4736 1 2704 2709 2711
4737 1 2704 2709 2712
4738 1 2705 2703 2704
4739 3 2705 2703 2706
4740 1 2706 2703 2704
4741 3 2707 2704 2708
4742 1 2707 2704 2709
4743 1 2708 2704 2709
4744 1 2709 2710 2713
4745 1 2709 2710 2714
4746 1 2711 2709 2710
4747 3 2711 2709 2712
4748 1 2712 2709 2710
4749 3 2713 2710 2714
4750 1 2716 2717 2720
4751 1 2716 2717 2721
4752 2 2716 2717 2722
4753 2 2717 2722 2723
4754 1 2717 2722 2724
4755 1 2717 2722 2725
4756 1 2718 2716 2717
4757 3 2718 2716 2719
4758 1 2719 2716 2717
4759 3 2720 2717 2721
4760 1 2720 2717 2722
4761 1 2721 2717 2722
4762 1 2722 2723 2726
4763 1 2722 2723 2727
4764 2 2722 2723 2728
4765 2 2723 2728 2729
4766 1 2723 2728 2730
4767 1 2723 2728 2731
4768 1 2724 2722 2723
4769 3 2724 2722 2725
4770 1 2725 2722 2723
4771 3 2726 2723 2727
4772 1 2726 2723 2728
4773 1 2727 2723 2728
4774 1 2728 2729 2732
4775 1 2728 2729 2733
4776 2 2728 2729 2734
4777 2 2729 2734 2735
4778 1 2729 2734 2736
4779 1 2729 2734 2737
4780 1 2730 2728 2729
4781 3 2730 2728 2731
4782 1 2731 2728 2729
4783 3 2732 2729 2733
4784 1 2732 2729 2734
4785 1 2733 2729 2734
4786 1 2734 2735 2738
4787 1 2734 2735 2739
4788 2 2734 2735 2740
4789 2 2735 2740 2741
4790 1 2735 2740 2742
4791 1 2735 2740 2743
4792 1 2736 2734 2735
4793 3 2736 2734 2737
4794 1 2737 2734 2735
4795 3 2738 2735 2739
4796 1 2738 2735 2740
4797 1 2739 2735 2740
4798 1 2740 2741 2744
4799 1 2740 2741 2745
4800 1 2742 2740 2741
4801 3 2742 2740 2743
4802 1 2743 2740 2741
4803 3 2744 2741 2745
4804 1 2747 2748 2751
4805 1 2747 2748 2752
4806 2 2747 2748 2753
4807 2 2748 2753 2754
4808 1 2748 2753 2755
4809 1 2748 2753 2756
4810 1 2749 2747 2748
4811 3 2749 2747 2750
4812 1 2750 2747 2748
4813 3 2751 2748 2752
4814 1 2751 2748 2753
4815 1 2752 2748 2753
4816 1 2753 2754 2757
4817 1 2753 2754 2758
4818 2 2753 2754 2759
4819 2 2754 2759 2760
4820 1 2754 2759 2761
4821 1 2754 2759 2762
4822 1 2755 2753 2754
4823 3 2755 2753 2756
4824 1 2756 2753 2754
4825 3 2757 2754 2758
4826 1 2757 2754 2759
4827 1 2758 2754 2759
4828 1 2759 2760 2763
4829 1 2759 2760 2764
4830 2 2759 2760 2765
4831 2 2760 2765 2766
4832 1 2760 2765 2767
4833 1 2760 2765 2768
4834 1 2761 2759 2760
4835 3 2761 2759 2762
4836 1 2762 2759 2760
4837 3 2763 2760 2764
4838 1 2763 2760 2765
4839 1 2764 2760 2765
4840 1 2765 2766 2769
4841 1 2765 2766 2770
4842 2 2765 2766 2771
4843 2 2766 2771 2772
4844 1 2766 2771 2773
4845 1 2766 2771 2774
4846 1 2767 2765 2766
4847 3 2767 2765 2768
4848 1 2768 2765 2766
4849 3 2769 2766 2770
4850 1 2769 2766 2771
4851 1 2770 2766 2771
4852 1 2771 2772 2775
4853 1 2771 2772 2776
4854 1 2773 2771 2772
4855 3 2773 2771 2774
4856 1 2774 2771 2772
4857 3 2775 2772 2776
4858 1 2778 2779 2782
4859 1 2778 2779 2783
4860 1 2778 2779 2784
4861 1 2780 2778 2779
4862 3 2780 2778 2781
4863 1 2781 2778 2779
4864 3 2782 2779 2783
4865 3 2782 2779 2784
4866 3 2783 2779 2784
4867 2 2785 2786 2778
4868 1 2785 2786 2789
4869 1 2785 2786 2790
4870 2 2786 2778 2779
4871 1 2786 2778 2780
4872 1 2786 2778 2781
4873 1 2787 2785 2786
4874 3 2787 2785 2788
4875 1 2788 2785 2786
4876 1 2789 2786 2778
4877 3 2789 2786 2790
4878 1 2790 2786 2778
4879 2 2791 2792 2785
4880 1 2791 2792 2795
4881 1 2791 2792 2796
4882 2 2792 2785 2786
4883 1 2792 2785 2787
4884 1 2792 2785 2788
4885 1 2793 2791 2792
4886 3 2793 2791 2794
4887 1 2794 2791 2792
4888 1 2795 2792 2785
4889 3 2795 2792 2796
4890 1 2796 2792 2785
4891 2 2797 2798 2791
4892 1 2797 2798 2801
4893 1 2797 2798 2802
4894 2 2798 2791 2792
4895 1 2798 2791 2793
4896 1 2798 2791 2794
4897 1 2799 2797 2798
4898 3 2799 2797 2800
4899 1 2800 2797 2798
4900 1 2801 2798 2791
4901 3 2801 2798 2802
4902 1 2802 2798 2791
4903 2 2803 2804 2797
4904 1 2803 2804 2807
4905 1 2803 2804 2808
4906 2 2804 2797 2798
4907 1 2804 2797 2799
4908 1 2804 2797 2800
4909 1 2805 2803 2804
4910 3 2805 2803 2806
4911 1 2806 2803 2804
4912 1 2807 2804 2797
4913 3 2807 2804 2808
4914 1 2808 2804 2797
4915 1 2810 2811 2814
4916 1 2810 2811 2815
4917 1 2810 2811 2816
4918 2 2810 2817 2818
4919 1 2810 2817 2819
4920 1 2810 2817 2820
4921 1 2812 2810 2811
4922 3 2812 2810 2813
4923 1 2812 2810 2817
4924 1 2813 2810 2811
4925 1 2813 2810 2817
4926 3 2814 2811 2815
4927 3 2814 2811 2816
4928 3 2815 2811 2816
4929 2 2817 2810 2811
4930 1 2817 2818 2821
4931 1 2817 2818 2822
4932 2 2817 2818 2823
4933 2 2818 2823 2824
4934 1 2818 2823 2825
4935 1 2818 2823 2826
4936 1 2819 2817 2818
4937 3 2819 2817 2820
4938 1 2820 2817 2818
4939 3 2821 2818 2822
4940 1 2821 2818 2823
4941 1 2822 2818 2823
4942 1 2823 2824 2827
4943 1 2823 2824 2828
4944 2 2823 2824 2829
4945 2 2824 2829 2830
4946 1 2824 2829 2831
4947 1 2824 2829 2832
4948 1 2825 2823 2824
4949 3 2825 2823 2826
4950 1 2826 2823 2824
4951 3 2827 2824 2828
4952 1 2827 2824 2829
4953 1 2828 2824 2829
4954 1 2829 2830 2833
4955 1 2829 2830 2834
4956 2 2829 2830 2835
4957 2 2830 2835 2836
4958 1 2830 2835 2837
4959 1 2830 2835 2838
4960 1 2831 2829 2830
4961 3 2831 2829 2832
4962 1 2832 2829 2830
4963 3 2833 2830 2834
4964 1 2833 2830 2835
4965 1 2834 2830 2835
4966 1 2835 2836 2839
4967 1 2835 2836 2840
4968 1 2837 2835 2836
4969 3 2837 2835 2838
4970 1 2838 2835 2836
4971 3 2839 2836 2840
4972 1 2842 2843 2846
4973 1 2842 2843 2847
4974 2 2842 2843 2848
4975 2 2843 2848 2849
4976 1 2843 2848 2850
4977 1 2843 2848 2851
4978 1 2844 2842 2843
4979 3 2844 2842 2845
4980 1 2845 2842 2843
4981 3 2846 2843 2847
4982 1 2846 2843 2848
4983 1 2847 2843 2848
4984 1 2848 2849 2852
4985 1 2848 2849 2853
4986 2 2848 2849 2854
4987 2 2849 2854 2855
4988 1 2849 2854 2856
4989 1 2849 2854 2857
4990 1 2850 2848 2849
4991 3 2850 2848 2851
4992 1 2851 2848 2849
4993 3 2852 2849 2853
4994 1 2852 2849 2854
4995 1 2853 2849 2854
4996 1 2854 2855 2858
4997 1 2854 2855 2859
4998 2 2854 2855 2860
4999 2 2855 2860 2861
5000 1 2855 2860 2862
5001 1 2855 2860 2863
5002 1 2856 2854 2855
5003 3 2856 2854 2857
5004 1 2857 2854 2855
5005 3 2858 2855 2859
5006 1 2858 2855 2860
5007 1 2859 2855 2860
5008 1 2860 2861 2864
5009 1 2860 2861 2865
5010 2 2860 2861 2866
5011 2 2861 2866 2867
5012 1 2861 2866 2868
5013 1 2861 2866 2869
5014 1 2862 2860 2861
5015 3 2862 2860 2863
5016 1 2863 2860 2861
5017 3 2864 2861 2865
5018 1 2864 2861 2866
5019 1 2865 2861 2866
5020 1 2866 2867 2870
5021 1 2866 2867 2871
5022 1 2868 2866 2867
5023 3 2868 2866 2869
5024 1 2869 2866 2867
5025 3 2870 2867 2871
5026 1 2873 2874 2877
5027 1 2873 2874 2878
5028 2 2873 2874 2879
5029 2 2874 2879 2880
5030 1 2874 2879 2881
5031 1 2874 2879 2882
5032 1 2875 2873 2874
5033 3 2875 2873 2876
5034 1 2876 2873 2874
5035 3 2877 2874 2878
5036 1 2877 2874 2879
5037 1 2878 2874 2879
5038 1 2879 2880 2883
5039 1 2879 2880 2884
5040 2 2879 2880 2885
5041 2 2880 2885 2886
5042 1 2880 2885 2887
5043 1 2880 2885 2888
5044 1 2881 2879 2880
5045 3 2881 2879 2882
5046 1 2882 2879 2880
5047 3 2883 2880 2884
5048 1 2883 2880 2885
5049 1 2884 2880 2885
5050 1 2885 2886 2889
5051 1 2885 2886 2890
5052 2 2885 2886 2891
5053 2 2886 2891 2892
5054 1 2886 2891 2893
5055 1 2886 2891 2894
5056 1 2887 2885 2886
5057 3 2887 2885 2888
5058 1 2888 2885 2886
5059 3 2889 2886 2890
5060 1 2889 2886 2891
5061 1 2890 2886 2891
5062 1 2891 2892 2895
5063 1 2891 2892 2896
5064 2 2891 2892 2897
5065 2 2892 2897 2898
5066 1 2892 2897 2899
5067 1 2892 2897 2900
5068 1 2893 2891 2892
5069 3 2893 2891 2894
5070 1 2894 2891 2892
5071 3 2895 2892 2896
5072 1 2895 2892 2897
5073 1 2896 2892 2897
5074 1 2897 2898 2901
5075 1 2897 2898 2902
5076 1 2899 2897 2898
5077 3 2899 2897 2900
5078 1 2900 2897 2898
5079 3 2901 2898 2902
5080 1 2904 2905 2908
5081 1 2904 2905 2909
5082 2 2904 2905 2910
5083 2 2905 2910 2911
5084 1 2905 2910 2912
5085 1 2905 2910 2913
5086 1 2906 2904 2905
5087 3 2906 2904 2907
5088 1 2907 2904 2905
5089 3 2908 2905 2909
5090 1 2908 2905 2910
5091 1 2909 2905 2910
5092 1 2910 2911 2914
5093 1 2910 2911 2915
5094 2 2910 2911 2916
5095 2 2911 2916 2917
5096 1 2911 2916 2918
5097 1 2911 2916 2919
5098 1 2912 2910 2911
5099 3 2912 2910 2913
5100 1 2913 2910 2911
5101 3 2914 2911 2915
5102 1 2914 2911 2916
5103 1 2915 2911 2916
5104 1 2916 2917 2920
5105 1 2916 2917 2921
5106 2 2916 2917 2922
5107 2 2917 2922 2923
5108 1 2917 2922 2924
5109 1 2917 2922 2925
5110 1 2918 2916 2917
5111 3 2918 2916 2919
5112 1 2919 2916 2917
5113 3 2920 2917 2921
5114 1 2920 2917 2922
5115 1 2921 2917 2922
5116 1 2922 2923 2926
5117 1 2922 2923 2927
5118 2 2922 2923 2928
5119 2 2923 2928 2929
5120 1 2923 2928 2930
5121 1 2923 2928 2931
5122 1 2924 2922 2923
5123 3 2924 2922 2925
5124 1 2925 2922 2923
5125 3 2926 2923 2927
5126 1 2926 2923 2928
5127 1 2927 2923 2928
5128 1 2928 2929 2932
5129 1 2928 2929 2933
5130 1 2930 2928 2929
5131 3 2930 2928 2931
5132 1 2931 2928 2929
5133 3 2932 2929 2933
5134 1 2935 2936 2939
5135 1 2935 2936 2940
5136 2 2935 2936 2941
5137 2 2936 2941 2942
5138 1 2936 2941 2943
5139 1 2936 2941 2944
5140 1 2937 2935 2936
5141 3 2937 2935 2938
5142 1 2938 2935 2936
5143 3 2939 2936 2940
5144 1 2939 2936 2941
5145 1 2940 2936 2941
5146 1 2941 2942 2945
5147 1 2941 2942 2946
5148 2 2941 2942 2947
5149 2 2942 2947 2948
5150 1 2942 2947 2949
5151 1 2942 2947 2950
5152 1 2943 2941 2942
5153 3 2943 2941 2944
5154 1 2944 2941 2942
5155 3 2945 2942 2946
5156 1 2945 2942 2947
5157 1 2946 2942 2947
5158 1 2947 2948 2951
5159 1 2947 2948 2952
5160 2 2947 2948 2953
5161 2 2948 2953 2954
5162 1 2948 2953 2955
5163 1 2948 2953 2956
5164 1 2949 2947 2948
5165 3 2949 2947 2950
5166 1 2950 2947 2948
5167 3 2951 2948 2952
5168 1 2951 2948 2953
5169 1 2952 2948 2953
5170 1 2953 2954 2957
5171 1 2953 2954 2958
5172 2 2953 2954 2959
5173 2 2954 2959 2960
5174 1 2954 2959 2961
5175 1 2954 2959 2962
5176 1 2955 2953 2954
5177 3 2955 2953 2956
5178 1 2956 2953 2954
5179 3 2957 2954 2958
5180 1 2957 2954 2959
5181 1 2958 2954 2959
5182 1 2959 2960 2963
5183 1 2959 2960 2964
5184 1 2961 2959 2960
5185 3 2961 2959 2962
5186 1 2962 2959 2960
5187 3 2963 2960 2964
5188 1 2966 2967 2970
5189 1 2966 2967 2971
5190 2 2966 2967 2972
5191 2 2967 2972 2973
5192 1 2967 2972 2974
5193 1 2967 2972 2975
5194 1 2968 2966 2967
5195 3 2968 2966 2969
5196 1 2969 2966 2967
5197 3 2970 2967 2971
5198 1 2970 2967 2972
5199 1 2971 2967 2972
5200 1 2972 2973 2976
5201 1 2972 2973 2977
5202 2 2972 2973 2978
5203 2 2973 2978 2979
5204 1 2973 2978 2980
5205 1 2973 2978 2981
5206 1 2974 2972 2973
5207 3 2974 2972 2975
5208 1 2975 2972 2973
5209 3 2976 2973 2977
5210 1 2976 2973 2978
5211 1 2977 2973 2978
5212 1 2978 2979 2982
5213 1 2978 2979 2983
5214 2 2978 2979 2984
5215 2 2979 2984 2985
5216 1 2979 2984 2986
5217 1 2979 2984 2987
5218 1 2980 2978 2979
5219 3 2980 2978 2981
5220 1 2981 2978 2979
5221 3 2982 2979 2983
5222 1 2982 2979 2984
5223 1 2983 2979 2984
5224 1 2984 2985 2988
5225 1 2984 2985 2989
5226 2 2984 2985 2990
5227 2 2985 2990 2991
5228 1 2985 2990 2992
5229 1 2985 2990 2993
5230 1 2986 2984 2985
5231 3 2986 2984 2987
5232 1 2987 2984 2985
5233 3 2988 2985 2989
5234 1 2988 2985 2990
5235 1 2989 2985 2990
5236 1 2990 2991 2994
5237 1 2990 2991 2995
5238 1 2992 2990 2991
5239 3 2992 2990 2993
5240 1 2993 2990 2991
5241 3 2994 2991 2995
5242 1 2997 2998 3001
5243 1 2997 2998 3002
5244 2 2997 2998 3003
5245 2 2998 3003 3004
5246 1 2998 3003 3005
5247 1 2998 3003 3006
5248 1 2999 2997 2998
5249 3 2999 2997 3000
5250 1 3000 2997 2998
5251 3 3001 2998 3002
5252 1 3001 2998 3003
5253 1 3002 2998 3003
5254 1 3003 3004 3007
5255 1 3003 3004 3008
5256 2 3003 3004 3009
5257 2 3004 3009 3010
5258 1 3004 3009 3011
5259 1 3004 3009 3012
5260 1 3005 3003 3004
5261 3 3005 3003 3006
5262 1 3006 3003 3004
5263 3 3007 3004 3008
5264 1 3007 3004 3009
5265 1 3008 3004 3009
5266 1 3009 3010 3013
5267 1 3009 3010 3014
5268 2 3009 3010 3015
5269 2 3010 3015 3016
5270 1 3010 3015 3017
5271 1 3010 3015 3018
5272 1 3011 3009 3010
5273 3 3011 3009 3012
5274 1 3012 3009 3010
5275 3 3013 3010 3014
5276 1 3013 3010 3015
5277 1 3014 3010 3015
5278 1 3015 3016 3019
5279 1 3015 3016 3020
5280 2 3015 3016 3021
5281 2 3016 3021 3022
5282 1 3016 3021 3023
5283 1 3016 3021 3024
5284 1 3017 3015 3016
5285 3 3017 3015 3018
5286 1 3018 3015 3016
5287 3 3019 3016 3020
5288 1 3019 3016 3021
5289 1 3020 3016 3021
5290 1 3021 3022 3025
5291 1 3021 3022 3026
5292 1 3023 3021 3022
5293 3 3023 3021 3024
5294 1 3024 3021 3022
5295 3 3025 3022 3026
5296 1 3028 3029 3032
5297 1 3028 3029 3033
5298 2 3028 3029 3034
5299 2 3029 3034 3035
5300 1 3029 3034 3036
5301 1 3029 3034 3037
5302 1 3030 3028 3029
5303 3 3030 3028 3031
5304 1 3031 3028 3029
5305 3 3032 3029 3033
5306 1 3032 3029 3034
5307 1 3033 3029 3034
5308 1 3034 3035 3038
5309 1 3034 3035 3039
5310 2 3034 3035 3040
5311 2 3035 3040 3041
5312 1 3035 3040 3042
5313 1 3035 3040 3043
5314 1 3036 3034 3035
5315 3 3036 3034 3037
5316 1 3037 3034 3035
5317 3 3038 3035 3039
5318 1 3038 3035 3040
5319 1 3039 3035 3040
5320 1 3040 3041 3044
5321 1 3040 3041 3045
5322 2 3040 3041 3046
5323 2 3041 3046 3047
5324 1 3041 3046 3048
5325 1 3041 3046 3049
5326 1 3042 3040 3041
5327 3 3042 3040 3043
5328 1 3043 3040 3041
5329 3 3044 3041 3045
5330 1 3044 3041 3046
5331 1 3045 3041 3046
5332 1 3046 3047 3050
5333 1 3046 3047 3051
5334 2 3046 3047 3052
5335 2 3047 3052 3053
5336 1 3047 3052 3054
5337 1 3047 3052 3055
5338 1 3048 3046 3047
5339 3 3048 3046 3049
5340 1 3049 3046 3047
5341 3 3050 3047 3051
5342 1 3050 3047 3052
5343 1 3051 3047 3052
5344 1 3052 3053 3056
5345 1 3052 3053 3057
5346 1 3054 3052 3053
5347 3 3054 3052 3055
5348 1 3055 3052 3053
5349 3 3056 3053 3057
5350 1 3059 3060 3063
5351 1 3059 3060 3064
5352 2 3059 3060 3065
5353 2 3060 3065 3066
5354 1 3060 3065 3067
5355 1 3060 3065 3068
5356 1 3061 3059 3060
5357 3 3061 3059 3062
5358 1 3062 3059 3060
5359 3 3063 3060 3064
5360 1 3063 3060 3065
5361 1 3064 3060 3065
5362 1 3065 3066 3069
5363 1 3065 3066 3070
5364 2 3065 3066 3071
5365 2 3066 3071 3072
5366 1 3066 3071 3073
5367 1 3066 3071 3074
5368 1 3067 3065 3066
5369 3 3067 3065 3068
5370 1 3068 3065 3066
5371 3 3069 3066 3070
5372 1 3069 3066 3071
5373 1 3070 3066 3071
5374 1 3071 3072 3075
5375 1 3071 3072 3076
5376 2 3071 3072 3077
5377 2 3072 3077 3078
5378 1 3072 3077 3079
5379 1 3072 3077 3080
5380 1 3073 3071 3072
5381 3 3073 3071 3074
5382 1 3074 3071 3072
5383 3 3075 3072 3076
5384 1 3075 3072 3077
5385 1 3076 3072 3077
5386 1 3077 3078 3081
5387 1 3077 3078 3082
5388 2 3077 3078 3083
5389 2 3078 3083 3084
5390 1 3078 3083 3085
5391 1 3078 3083 3086
5392 1 3079 3077 3078
5393 3 3079 3077 3080
5394 1 3080 3077 3078
5395 3 3081 3078 3082
5396 1 3081 3078 3083
5397 1 3082 3078 3083
5398 1 3083 3084 3087
5399 1 3083 3084 3088
5400 1 3085 3083 3084
5401 3 3085 3083 3086
5402 1 3086 3083 3084
5403 3 3087 3084 3088
5404 1 3090 3091 3094
5405 1 3090 3091 3095
5406 1 3090 3091 3096
5407 1 3092 3090 3091
5408 3 3092 3090 3093
5409 1 3093 3090 3091
5410 3 3094 3091 3095
5411 3 3094 3091 3096
5412 3 3095 3091 3096
5413 2 3097 3098 3090
5414 1 3097 3098 3101
5415 1 3097 3098 3102
5416 2 3098 3090 3091
5417 1 3098 3090 3092
5418 1 3098 3090 3093
5419 1 3099 3097 3098
5420 3 3099 3097 3100
5421 1 3100 3097 3098
5422 1 3101 3098 3090
5423 3 3101 3098 3102
5424 1 3102 3098 3090
5425 2 3103 3104 3097
5426 1 3103 3104 3107
5427 1 3103 3104 3108
5428 2 3104 3097 3098
5429 1 3104 3097 3099
5430 1 3104 3097 3100
5431 1 3105 3103 3104
5432 3 3105 3103 3106
5433 1 3106 3103 3104
5434 1 3107 3104 3097
5435 3 3107 3104 3108
5436 1 3108 3104 3097
5437 2 3109 3110 3103
5438 1 3109 3110 3113
5439 1 3109 3110 3114
5440 2 3110 3103 3104
5441 1 3110 3103 3105
5442 1 3110 3103 3106
5443 1 3111 3109 3110
5444 3 3111 3109 3112
5445 1 3112 3109 3110
5446 1 3113 3110 3103
5447 3 3113 3110 3114
5448 1 3114 3110 3103
5449 2 3115 3116 3109
5450 1 3115 3116 3119
5451 1 3115 3116 3120
5452 2 3116 3109 3110
5453 1 3116 3109 3111
5454 1 3116 3109 3112
5455 1 3117 3115 3116
5456 3 3117 3115 3118
5457 1 3118 3115 3116
5458 1 3119 3116 3109
5459 3 3119 3116 3120
5460 1 3120 3116 3109
5461 2 27 28 34
5462 2 28 34 35
5463 1 28 34 36
5464 1 28 34 37
5465 1 31 28 34
5466 1 32 28 34
5467 2 58 59 65
5468 2 59 65 66
5469 1 59 65 67
5470 1 59 65 68
5471 1 62 59 65
5472 1 63 59 65
5473 2 89 90 96
5474 2 90 96 97
5475 1 90 96 98
5476 1 90 96 99
5477 1 93 90 96
5478 1 94 90 96
5479 2 120 121 127
5480 2 121 127 128
5481 1 121 127 129
5482 1 121 127 130
5483 1 124 121 127
5484 1 125 121 127
5485 2 151 152 158
5486 2 152 158 159
5487 1 152 158 160
5488 1 152 158 161
5489 1 155 152 158
5490 1 156 152 158
5491 2 182 183 189
5492 2 183 189 190
5493 1 183 189 191
5494 1 183 189 192
5495 1 186 183 189
5496 1 187 183 189
5497 2 213 214 220
5498 2 214 220 221
5499 1 214 220 222
5500 1 214 220 223
5501 1 217 214 220
5502 1 218 214 220
5503 2 244 245 251
5504 2 245 251 252
5505 1 245 251 253
5506 1 245 251 254
5507 1 248 245 251
5508 1 249 245 251
5509 2 275 276 307
5510 2 276 307 308
5511 1 276 307 309
5512 1 276 307 310
5513 1 279 276 307
5514 1 280 276 307
5515 2 339 340 346
5516 2 340 346 347
5517 1 340 346 348
5518 1 340 346 349
5519 1 343 340 346
5520 1 344 340 346
5521 2 370 371 377
5522 2 371 377 378
5523 1 371 377 379
5524 1 371 377 380
5525 1 374 371 377
5526 1 375 371 377
5527 2 401 402 408
5528 2 402 408 409
5529 1 402 408 410
5530 1 402 408 411
5531 1 405 402 408
5532 1 406 402 408
5533 2 432 433 439
5534 2 433 439 440
5535 1 433 439 441
5536 1 433 439 442
5537 1 436 433 439
5538 1 437 433 439
5539 2 463 464 470
5540 2 464 470 471
5541 1 464 470 472
5542 1 464 470 473
5543 1 467 464 470
5544 1 468 464 470
5545 2 494 495 501
5546 2 495 501 502
5547 1 495 501 503
5548 1 495 501 504
5549 1 498 495 501
5550 1 499 495 501
5551 2 525 526 532
5552 2 526 532 533
5553 1 526 532 534
5554 1 526 532 535
5555 1 529 526 532
5556 1 530 526 532
5557 2 556 557 563
5558 2 557 563 564
5559 1 557 563 565
5560 1 557 563 566
5561 1 560 557 563
5562 1 561 557 563
5563 2 587 588 619
5564 2 588 619 620
5565 1 588 619 621
5566 1 588 619 622
5567 1 591 588 619
5568 1 592 588 619
5569 2 651 652 658
5570 2 652 658 659
5571 1 652 658 660
5572 1 652 658 661
5573 1 655 652 658
5574 1 656 652 658
5575 2 682 683 689
5576 2 683 689 690
5577 1 683 689 691
5578 1 683 689 692
5579 1 686 683 689
5580 1 687 683 689
5581 2 713 714 720
5582 2 714 720 721
5583 1 714 720 722
5584 1 714 720 723
5585 1 717 714 720
5586 1 718 714 720
5587 2 744 745 751
5588 2 745 751 752
5589 1 745 751 753
5590 1 745 751 754
5591 1 748 745 751
5592 1 749 745 751
5593 2 775 776 782
5594 2 776 782 783
5595 1 776 782 784
5596 1 776 782 785
5597 1 779 776 782
5598 1 780 776 782
5599 2 806 807 813
5600 2 807 813 814
5601 1 807 813 815
5602 1 807 813 816
5603 1 810 807 813
5604 1 811 807 813
5605 2 837 838 844
5606 2 838 844 845
5607 1 838 844 846
5608 1 838 844 847
5609 1 841 838 844
5610 1 842 838 844
5611 2 868 869 875
5612 2 869 875 876
5613 1 869 875 877
5614 1 869 875 878
5615 1 872 869 875
5616 1 873 869 875
5617 2 899 900 931
5618 2 900 931 932
5619 1 900 931 933
5620 1 900 931 934
5621 1 903 900 931
5622 1 904 900 931
5623 2 963 964 970
5624 2 964 970 971
5625 1 964 970 972
5626 1 964 970 973
5627 1 967 964 970
5628 1 968 964 970
5629 2 994 995 1001
5630 2 995 1001 1002
5631 1 995 1001 1003
5632 1 995 1001 1004
5633 1 998 995 1001
5634 1 999 995 1001
5635 2 1025 1026 1032
5636 2 1026 1032 1033
5637 1 1026 1032 1034
5638 1 1026 1032 1035
5639 1 1029 1026 1032
5640 1 1030 1026 1032
5641 2 1056 1057 1063
5642 2 1057 1063 1064
5643 1 1057 1063 1065
5644 1 1057 1063 1066
5645 1 1060 1057 1063
5646 1 1061 1057 1063
5647 2 1087 1088 1094
5648 2 1088 1094 1095
5649 1 1088 1094 1096
5650 1 1088 1094 1097
5651 1 1091 1088 1094
5652 1 1092 1088 1094
5653 2 1118 1119 1125
5654 2 1119 1125 1126
5655 1 1119 1125 1127
5656 1 1119 1125 1128
5657 1 1122 1119 1125
5658 1 1123 1119 1125
5659 2 1149 1150 1156
5660 2 1150 1156 1157
5661 1 1150 1156 1158
5662 1 1150 1156 1159
5663 1 1153 1150 1156
5664 1 1154 1150 1156
5665 2 1180 1181 1187
5666 2 1181 1187 1188
5667 1 1181 1187 1189
5668 1 1181 1187 1190
5669 1 1184 1181 1187
5670 1 1185 1181 1187
5671 2 1211 1212 1243
5672 2 1212 1243 1244
5673 1 1212 1243 1245
5674 1 1212 1243 1246
5675 1 1215 1212 1243
5676 1 1216 1212 1243
5677 2 1275 1276 1282
5678 2 1276 1282 1283
5679 1 1276 1282 1284
5680 1 1276 1282 1285
5681 1 1279 1276 1282
5682 1 1280 1276 1282
5683 2 1306 1307 1313
5684 2 1307 1313 1314
5685 1 1307 1313 1315
5686 1 1307 1313 1316
5687 1 1310 1307 1313
5688 1 1311 1307 1313
5689 2 1337 1338 1344
5690 2 1338 1344 1345
5691 1 1338 1344 1346
5692 1 1338 1344 1347
5693 1 1341 1338 1344
5694 1 1342 1338 1344
5695 2 1368 1369 1375
5696 2 1369 1375 1376
5697 1 1369 1375 1377
5698 1 1369 1375 1378
5699 1 1372 1369 1375
5700 1 1373 1369 1375
5701 2 1399 1400 1406
5702 2 1400 1406 1407
5703 1 1400 1406 1408
5704 1 1400 1406 1409
5705 1 1403 1400 1406
5706 1 1404 1400 1406
5707 2 1430 1431 1437
5708 2 1431 1437 1438
5709 1 1431 1437 1439
5710 1 1431 1437 1440
5711 1 1434 1431 1437
5712 1 1435 1431 1437
5713 2 1461 1462 1468
5714 2 1462 1468 1469
5715 1 1462 1468 1470
5716 1 1462 1468 1471
5717 1 1465 1462 1468
5718 1 1466 1462 1468
5719 2 1492 1493 1499
5720 2 1493 1499 1500
5721 1 1493 1499 1501
5722 1 1493 1499 1502
5723 1 1496 1493 1499
5724 1 1497 1493 1499
5725 2 1523 1524 1555
5726 2 1524 1555 1556
5727 1 1524 1555 1557
5728 1 1524 1555 1558
5729 1 1527 1524 1555
5730 1 1528 1524 1555
5731 2 1587 1588 1594
5732 2 1588 1594 1595
5733 1 1588 1594 1596
5734 1 1588 1594 1597
5735 1 1591 1588 1594
5736 1 1592 1588 1594
5737 2 1618 1619 1625
5738 2 1619 1625 1626
5739 1 1619 1625 1627
5740 1 1619 1625 1628
5741 1 1622 1619 1625
5742 1 1623 1619 1625
5743 2 1649 1650 1656
5744 2 1650 1656 1657
5745 1 1650 1656 1658
5746 1 1650 1656 1659
5747 1 1653 1650 1656
5748 1 1654 1650 1656
5749 2 1680 1681 1687
5750 2 1681 1687 1688
5751 1 1681 1687 1689
5752 1 1681 1687 1690
5753 1 1684 1681 1687
5754 1 1685 1681 1687
5755 2 1711 1712 1718
5756 2 1712 1718 1719
5757 1 1712 1718 1720
5758 1 1712 1718 1721
5759 1 1715 1712 1718
5760 1 1716 1712 1718
5761 2 1742 1743 1749
5762 2 1743 1749 1750
5763 1 1743 1749 1751
5764 1 1743 1749 1752
5765 1 1746 1743 1749
5766 1 1747 1743 1749
5767 2 1773 1774 1780
5768 2 1774 1780 1781
5769 1 1774 1780 1782
5770 1 1774 1780 1783
5771 1 1777 1774 1780
5772 1 1778 1774 1780
5773 2 1804 1805 1811
5774 2 1805 1811 1812
5775 1 1805 1811 1813
5776 1 1805 1811 1814
5777 1 1808 1805 1811
5778 1 1809 1805 1811
5779 2 1835 1836 1867
5780 2 1836 1867 1868
5781 1 1836 1867 1869
5782 1 1836 1867 1870
5783 1 1839 1836 1867
5784 1 1840 1836 1867
5785 2 1899 1900 1906
5786 2 1900 1906 1907
5787 1 1900 1906 1908
5788 1 1900 1906 1909
5789 1 1903 1900 1906
5790 1 1904 1900 1906
5791 2 1930 1931 1937
5792 2 1931 1937 1938
5793 1 1931 1937 1939
5794 1 1931 1937 1940
5795 1 1934 1931 1937
5796 1 1935 1931 1937
5797 2 1961 1962 1968
5798 2 1962 1968 1969
5799 1 1962 1968 1970
5800 1 1962 1968 1971
5801 1 1965 1962 1968
5802 1 1966 1962 1968
5803 2 1992 1993 1999
5804 2 1993 1999 2000
5805 1 1993 1999 2001
5806 1 1993 1999 2002
5807 1 1996 1993 1999
5808 1 1997 1993 1999
5809 2 2023 2024 2030
5810 2 2024 2030 2031
5811 1 2024 2030 2032
5812 1 2024 2030 2033
5813 1 2027 2024 2030
5814 1 2028 2024 2030
5815 2 2054 2055 2061
5816 2 2055 2061 2062
5817 1 2055 2061 2063
5818 1 2055 2061 2064
5819 1 2058 2055 2061
5820 1 2059 2055 2061
5821 2 2085 2086 2092
5822 2 2086 2092 2093
5823 1 2086 2092 2094
5824 1 2086 2092 2095
5825 1 2089 2086 2092
5826 1 2090 2086 2092
5827 2 2116 2117 2123
5828 2 2117 2123 2124
5829 1 2117 2123 2125
5830 1 2117 2123 2126
5831 1 2120 2117 2123
5832 1 2121 2117 2123
5833 2 2147 2148 2179
5834 2 2148 2179 2180
5835 1 2148 2179 2181
5836 1 2148 2179 2182
5837 1 2151 2148 2179
5838 1 2152 2148 2179
5839 2 2211 2212 2218
5840 2 2212 2218 2219
5841 1 2212 2218 2220
5842 1 2212 2218 2221
5843 1 2215 2212 2218
5844 1 2216 2212 2218
5845 2 2242 2243 2249
5846 2 2243 2249 2250
5847 1 2243 2249 2251
5848 1 2243 2249 2252
5849 1 2246 2243 2249
5850 1 2247 2243 2249
5851 2 2273 2274 2280
5852 2 2274 2280 2281
5853 1 2274 2280 2282
5854 1 2274 2280 2283
5855 1 2277 2274 2280
5856 1 2278 2274 2280
5857 2 2304 2305 2311
5858 2 2305 2311 2312
5859 1 2305 2311 2313
5860 1 2305 2311 2314
5861 1 2308 2305 2311
5862 1 2309 2305 2311
5863 2 2335 2336 2342
5864 2 2336 2342 2343
5865 1 2336 2342 2344
5866 1 2336 2342 2345
5867 1 2339 2336 2342
5868 1 2340 2336 2342
5869 2 2366 2367 2373
5870 2 2367 2373 2374
5871 1 2367 2373 2375
5872 1 2367 2373 2376
5873 1 2370 2367 2373
5874 1 2371 2367 2373
5875 2 2397 2398 2404
5876 2 2398 2404 2405
5877 1 2398 2404 2406
5878 1 2398 2404 2407
5879 1 2401 2398 2404
5880 1 2402 2398 2404
5881 2 2428 2429 2435
5882 2 2429 2435 2436
5883 1 2429 2435 2437
5884 1 2429 2435 2438
5885 1 2432 2429 2435
5886 1 2433 2429 2435
5887 2 2459 2460 2491
5888 2 2460 2491 2492
5889 1 2460 2491 2493
5890 1 2460 2491 2494
5891 1 2463 2460 2491
5892 1 2464 2460 2491
5893 2 2523 2524 2530
5894 2 2524 2530 2531
5895 1 2524 2530 2532
5896 1 2524 2530 2533
5897 1 2527 2524 2530
5898 1 2528 2524 2530
5899 2 2554 2555 2561
5900 2 2555 2561 2562
5901 1 2555 2561 2563
5902 1 2555 2561 2564
5903 1 2558 2555 2561
5904 1 2559 2555 2561
5905 2 2585 2586 2592
5906 2 2586 2592 2593
5907 1 2586 2592 2594
5908 1 2586 2592 2595
5909 1 2589 2586 2592
5910 1 2590 2586 2592
5911 2 2616 2617 2623
5912 2 2617 2623 2624
5913 1 2617 2623 2625
5914 1 2617 2623 2626
5915 1 2620 2617 2623
5916 1 2621 2617 2623
5917 2 2647 2648 2654
5918 2 2648 2654 2655
5919 1 2648 2654 2656
5920 1 2648 2654 2657
5921 1 2651 2648 2654
5922 1 2652 2648 2654
5923 2 2678 2679 2685
5924 2 2679 2685 2686
5925 1 2679 2685 2687
5926 1 2679 2685 2688
5927 1 2682 2679 2685
5928 1 2683 2679 2685
5929 2 2709 2710 2716
5930 2 2710 2716 2717
5931 1 2710 2716 2718
5932 1 2710 2716 2719
5933 1 2713 2710 2716
5934 1 2714 2710 2716
5935 2 2740 2741 2747
5936 2 2741 2747 2748
5937 1 2741 2747 2749
5938 1 2741 2747 2750
5939 1 2744 2741 2747
5940 1 2745 2741 2747
5941 2 2771 2772 2803
5942 2 2772 2803 2804
5943 1 2772 2803 2805
5944 1 2772 2803 2806
5945 1 2775 2772 2803
5946 1 2776 2772 2803
5947 2 2835 2836 2842
5948 2 2836 2842 2843
5949 1 2836 2842 2844
5950 1 2836 2842 2845
5951 1 2839 2836 2842
5952 1 2840 2836 2842
5953 2 2866 2867 2873
5954 2 2867 2873 2874
5955 1 2867 2873 2875
5956 1 2867 2873 2876
5957 1 2870 2867 2873
5958 1 2871 2867 2873
5959 2 2897 2898 2904
5960 2 2898 2904 2905
5961 1 2898 2904 2906
5962 1 2898 2904 2907
5963 1 2901 2898 2904
5964 1 2902 2898 2904
5965 2 2928 2929 2935
5966 2 2929 2935 2936
5967 1 2929 2935 2937
5968 1 2929 2935 2938
5969 1 2932 2929 2935
5970 1 2933 2929 2935
5971 2 2959 2960 2966
5972 2 2960 2966 2967
5973 1 2960 2966 2968
5974 1 2960 2966 2969
5975 1 2963 2960 2966
5976 1 2964 2960 2966
5977 2 2990 2991 2997
5978 2 2991 2997 2998
5979 1 2991 2997 2999
5980 1 2991 2997 3000
5981 1 2994 2991 2997
5982 1 2995 2991 2997
5983 2 3021 3022 3028
5984 2 3022 3028 3029
5985 1 3022 3028 3030
5986 1 3022 3028 3031
5987 1 3025 3022 3028
5988 1 3026 3022 3028
5989 2 3052 3053 3059
5990 2 3053 3059 3060
5991 1 3053 3059 3061
5992 1 3053 3059 3062
5993 1 3056 3053 3059
5994 1 3057 3053 3059
5995 2 3083 3084 3115
5996 2 3084 3115 3116
5997 1 3084 3115 3117
5998 1 3084 3115 3118
5999 1 3087 3084 3115
6000 1 3088 3084 3115

Dihedrals

1 1 2 9 10 13
2 1 2 9 10 14
3 1 2 9 10 15
4 1 3 2 9 10
5 1 3 2 9 11
6 1 3 2 9 12
7 1 4 2 3 6
8 1 4 2 3 7
9 1 4 2 3 8
10 1 4 2 9 10
11 1 4 2 9 11
12 1 4 2 9 12
13 1 5 2 3 6
14 1 5 2 3 7
15 1 5 2 3 8
16 1 5 2 9 10
17 1 5 2 9 11
18 1 5 2 9 12
19 1 9 2 3 6
20 1 9 2 3 7
21 1 9 2 3 8
22 1 9 10 15 16
23 1 9 10 15 17
24 1 9 10 15 18
25 1 10 15 16 19
26 1 10 15 16 20
27 1 10 15 16 21
28 1 11 9 10 13
29 1 11 9 10 14
30 1 11 9 10 15
31 1 12 9 10 13
32 1 12 9 10 14
33 1 12 9 10 15
34 1 13 10 15 16
35 1 13 10 15 17
36 1 13 10 15 18
37 1 14 10 15 16
38 1 14 10 15 17
39 1 14 10 15 18
40 1 15 16 21 22
41 1 15 16 21 23
42 1 15 16 21 24
43 1 16 21 22 25
44 1 16 21 22 26
45 1 16 21 22 27
46 1 17 15 16 19
47 1 17 15 16 20
48 1 17 15 16 21
49 1 18 15 16 19
50 1 18 15 16 20
51 1 18 15 16 21
52 1 19 16 21 22
53 1 19 16 21 23
54 1 19 16 21 24
55 1 20 16 21 22
56 1 20 16 21 23
57 1 20 16 21 24
58 1 21 22 27 28
59 1 21 22 27 29
60 1 21 22 27 30
61 1 22 27 28 31
62 1 22 27 28 32
63 1 23 21 22 25
64 1 23 21 22 26
65 1 23 21 22 27
66 1 24 21 22 25
67 1 24 21 22 26
68 1 24 21 22 27
69 1 25 22 27 28
70 1 25 22 27 29
71 1 25 22 27 30
72 1 26 22 27 28
73 1 26 22 27 29
74 1 26 22 27 30
75 1 29 27 28 31
76 1 29 27 28 32
77 1 30 27 28 31
78 1 30 27 28 32
79 1 34 35 40 41
80 1 34 35 40 42
81 1 34 35 40 43
82 1 35 40 41 44
83 1 35 40 41 45
84 1 35 40 41 46
85 1 36 34 35 38
86 1 36 34 35 39
87 1 36 34 35 40
88 1 37 34 35 38
89 1 37 34 35 39
90 1 37 34 35 40
91 1 38 35 40 41
92 1 38 35 40 42
93 1 38 35 40 43
94 1 39 35 40 41
95 1 39 35 40 42
96 1 39 35 40 43
97 1 40 41 46 47
98 1 40 41 46 48
99 1 40 41 46 49
100 1 41 46 47 50
101 1 41 46 47 51
102 1 41 46 47 52
103 1 42 40 41 44
104 1 42 40 41 45
105 1 42 40 41 46
106 1 43 40 41 44
107 1 43 40 41 45
108 1 43 40 41 46
109 1 44 41 46 47
110 1 44 41 46 48
111 1 44 41 46 49
112 1 45 41 46 47
113 1 45 41 46 48
114 1 45 41 46 49
115 1 46 47 52 53
116 1 46 47 52 54
117 1 46 47 52 55
118 1 47 52 53 56
119 1 47 52 53 57
120 1 47 52 53 58
121 1 48 46 47 50
122 1 48 46 47 51
123 1 48 46 47 52
124 1 49 46 47 50
125 1 49 46 47 51
126 1 49 46 47 52
127 1 50 47 52 53
128 1 50 47 52 54
129 1 50 47 52 55
130 1 51 47 52 53
131 1 51 47 52 54
132 1 51 47 52 55
133 1 52 53 58 59
134 1 52 53 58 60
135 1 52 53 58 61
136 1 53 58 59 62
137 1 53 58 59 63
138 1 54 52 53 56
139 1 54 52 53 57
140 1 54 52 53 58
141 1 55 52 53 56
142 1 55 52 53 57
143 1 55 52 53 58
144 1 56 53 58 59
145 1 56 53 58 60
146 1 56 53 58 61
147 1 57 53 58 59
148 1 57 53 58 60
149 1 57 53 58 61
150 1 60 58 59 62
151 1 60 58 59 63
152 1 61 58 59 62
153 1 61 58 59 63
154 1 65 66 71 72
155 1 65 66 71 73
156 1 65 66 71 74
157 1 66 71 72 75
158 1 66 71 72 76
159 1 66 71 72 77
160 1 67 65 66 69
161 1 67 65 66 70
162 1 67 65 66 71
163 1 68 65 66 69
164 1 68 65 66 70
165 1 68 65 66 71
166 1 69 66 71 72
167 1 69 66 71 73
168 1 69 66 71 74
169 1 70 66 71 72
170 1 70 66 71 73
171 1 70 66 71 74
172 1 71 72 77 78
173 1 71 72 77 79
174 1 71 72 77 80
175 1 72 77 78 81
176 1 72 77 78 82
177 1 72 77 78 83
178 1 73 71 72 75
179 1 73 71 72 76
180 1 73 71 72 77
181 1 74 71 72 75
182 1 74 71 72 76
183 1 74 71 72 77
184 1 75 72 77 78
185 1 75 72 77 79
186 1 75 72 77 80
187 1 76 72 77 78
188 1 76 72 77 79
189 1 76 72 77 80
190 1 77 78 83 84
191 1 77 78 83 85
192 1 77 78 83 86
193 1 78 83 84 87
194 1 78 83 84 88
195 1 78 83 84 89
196 1 79 77 78 81
197 1 79 77 78 82
198 1 79 77 78 83
199 1 80 77 78 81
200 1 80 77 78 82
201 1 80 77 78 83
202 1 81 78 83 84
203 1 81 78 83 85
204 1 81 78 83 86
205 1 82 78 83 84
206 1 82 78 83 85
207 1 82 78 83 86
208 1 83 84 89 90
209 1 83 84 89 91
210 1 83 84 89 92
211 1 84 89 90 93
212 1 84 89 90 94
213 1 85 83 84 87
214 1 85 83 84 88
215 1 85 83 84 89
216 1 86 83 84 87
217 1 86 83 84 88
218 1 86 83 84 89
219 1 87 84 89 90
220 1 87 84 89 91
221 1 87 84 89 92
222 1 88 84 89 90
223 1 88 84 89 91
224 1 88 84 89 92
225 1 91 89 90 93
226 1 91 89 90 94
227 1 92 89 90 93
228 1 92 89 90 94
229 1 96 97 102 103
230 1 96 97 102 104
231 1 96 97 102 105
232 1 97 102 103 106
233 1 97 102 103 107
234 1 97 102 103 108
235 1 98 96 97 100
236 1 98 96 97 101
237 1 98 96 97 102
238 1 99 96 97 100
239 1 99 96 97 101
240 1 99 96 97 102
241 1 100 97 102 103
242 1 100 97 102 104
243 1 100 97 102 105
244 1 101 97 102 103
245 1 101 97 102 104
246 1 101 97 102 105
247 1 102 103 108 109
248 1 102 103 108 110
249 1 102 103 108 111
250 1 103 108 109 112
251 1 103 108 109 113
252 1 103 108 109 114
253 1 104 102 103 106
254 1 104 102 103 107
255 1 104 102 103 108
256 1 105 102 103 106
257 1 105 102 103 107
258 1 105 102 103 108
259 1 106 103 108 109
260 1 106 103 108 110
261 1 106 103 108 111
262 1 107 103 108 109
263 1 107 103 108 110
264 1 107 103 108 111
265 1 108 109 114 115
266 1 108 109 114 116
267 1 108 109 114 117
268 1 109 114 115 118
269 1 109 114 115 119
270 1 109 114 115 120
271 1 110 108 109 112
272 1 110 108 109 113
273 1 110 108 109 114
274 1 111 108 109 112
275 1 111 108 109 113
276 1 111 108 109 114
277 1 112 109 114 115
278 1 112 109 114 116
279 1 112 109 114 117
280 1 113 109 114 115
281 1 113 109 114 116
282 1 113 109 114 117
283 1 114 115 120 121
284 1 114 115 120 122
285 1 114 115 120 123
286 1 115 120 121 124
287 1 115 120 121 125
288 1 116 114 115 118
289 1 116 114 115 119
290 1 116 114 115 120
291 1 117 114 115 118
292 1 117 114 115 119
293 1 117 114 115 120
294 1 118 115 120 121
295 1 118 115 120 122
296 1 118 115 120 123
297 1 119 115 120 121
298 1 119 115 120 122
299 1 119 115 120 123
300 1 122 120 121 124
301 1 122 120 121 125
302 1 123 120 121 124
303 1 123 120 121 125
304 1 127 128 133 134
305 1 127 128 133 135
306 1 127 128 133 136
307 1 128 133 134 137
308 1 128 133 134 138
309 1 128 133 134 139
310 1 129 127 128 131
311 1 129 127 128 132
312 1 129 127 128 133
313 1 130 127 128 131
314 1 130 127 128 132
315 1 130 127 128 133
316 1 131 128 133 134
317 1 131 128 133 135
318 1 131 128 133 136
319 1 132 128 133 134
320 1 132 128 133 135
321 1 132 128 133 136
322 1 133 134 139 140
323 1 133 134 139 141
324 1 133 134 139 142
325 1 134 139 140 143
326 1 134 139 140 144
327 1 134 139 140 145
328 1 135 133 134 137
329 1 135 133 134 138
330 1 135 133 134 139
331 1 136 133 134 137
332 1 136 133 134 138
333 1 136 133 134 139
334 1 137 134 139 140
335 1 137 134 139 141
336 1 137 134 139 142
337 1 138 134 139 140
338 1 138 134 139 141
339 1 138 134 139 142
340 1 139 140 145 146
341 1 139 140 145 147
342 1 139 140 145 148
343 1 140 145 146 149
344 1 140 145 146 150
345 1 140 145 146 151
346 1 141 139 140 143
347 1 141 139 140 144
348 1 141 139 140 145
349 1 142 139 140 143
350 1 142 139 140 144
351 1 142 139 140 145
352 1 143 140 145 146
353 1 143 140 145 147
354 1 143 140 145 148
355 1 144 140 145 146
356 1 144 140 145 147
357 1 144 140 145 148
358 1 145 146 151 152
359 1 145 146 151 153
360 1 145 146 151 154
361 1 146 151 152 155
362 1 146 151 152 156
363 1 147 145 146 149
364 1 147 145 146 150
365 1 147 145 146 151
366 1 148 145 146 149
367 1 148 145 146 150
368 1 148 145 146 151
369 1 149 146 151 152
370 1 149 146 151 153
371 1 149 146 151 154
372 1 150 146 151 152
373 1 150 146 151 153
374 1 150 146 151 154
375 1 153 151 152 155
376 1 153 151 152 156
377 1 154 151 152 155
378 1 154 151 152 156
379 1 158 159 164 165
380 1 158 159 164 166
381 1 158 159 164 167
382 1 159 164 165 168
383 1 159 164 165 169
384 1 159 164 165 170
385 1 160 158 159 162
386 1 160 158 159 163
387 1 160 158 159 164
388 1 161 158 159 162
389 1 161 158 159 163
390 1 161 158 159 164
391 1 162 159 164 165
392 1 162 159 164 166
393 1 162 159 164 167
394 1 163 159 164 165
395 1 163 159 164 166
396 1 163 159 164 167
397 1 164 165 170 171
398 1 164 165 170 172
399 1 164 165 170 173
400 1 165 170 171 174
401 1 165 170 171 175
402 1 165 170 171 176
403 1 166 164 165 168
404 1 166 164 165 169
405 1 166 164 165 170
406 1 167 164 165 168
407 1 167 164 165 169
408 1 167 164 165 170
409 1 168 165 170 171
410 1 168 165 170 172
411 1 168 165 170 173
412 1 169 165 170 171
413 1 169 165 170 172
414 1 169 165 170 173
415 1 170 171 176 177
416 1 170 171 176 178
417 1 170 171 176 179
418 1 171 176 177 180
419 1 171 176 177 181
420 1 171 176 177 182
421 1 172 170 171 174
422 1 172 170 171 175
423 1 172 170 171 176
424 1 173 170 171 174
425 1 173 170 171 175
426 1 173 170 171 176
427 1 174 171 176 177
428 1 174 171 176 178
429 1 174 171 176 179
430 1 175 171 176 177
431 1 175 171 176 178
432 1 175 171 176 179
433 1 176 177 182 183
434 1 176 177 182 184
435 1 176 177 182 185
436 1 177 182 183 186
437 1 177 182 183 187
438 1 178 176 177 180
439 1 178 176 177 181
440 1 178 176 177 182
441 1 179 176 177 180
442 1 179 176 177 181
443 1 179 176 177 182
444 1 180 177 182 183
445 1 180 177 182 184
446 1 180 177 182 185
447 1 181 177 182 183
448 1 181 177 182 184
449 1 181 177 182 185
450 1 184 182 183 186
451 1 184 182 183 187
452 1 185 182 183 186
453 1 185 182 183 187
454 1 189 190 195 196
455 1 189 190 195 197
456 1 189 190 195 198
457 1 190 195 196 199
458 1 190 195 196 200
459 1 190 195 196 201
460 1 191 189 190 193
461 1 191 189 190 194
462 1 191 189 190 195
463 1 192 189 190 193
464 1 192 189 190 194
465 1 192 189 190 195
466 1 193 190 195 196
467 1 193 190 195 197
468 1 193 190 195 198
469 1 194 190 195 196
470 1 194 190 195 197
471 1 194 190 195 198
472 1 195 196 201 202
473 1 195 196 201 203
474 1 195 196 201 204
475 1 196 201 202 205
476 1 196 201 202 206
477 1 196 201 202 207
478 1 197 195 196 199
479 1 197 195 196 200
480 1 197 195 196 201
481 1 198 195 196 199
482 1 198 195 196 200
483 1 198 195 196 201
484 1 199 196 201 202
485 1 199 196 201 203
486 1 199 196 201 204
487 1 200 196 201 202
488 1 200 196 201 203
489 1 200 196 201 204
490 1 201 202 207 208
491 1 201 202 207 209
492 1 201 202 207 210
493 1 202 207 208 211
494 1 202 207 208 212
495 1 202 207 208 213
496 1 203 201 202 205
497 1 203 201 202 206
498 1 203 201 202 207
499 1 204 201 202 205
500 1 204 201 202 206
501 1 204 201 202 207
502 1 205 202 207 208
503 1 205 202 207 209
504 1 205 202 207 210
505 1 206 202 207 208
506 1 206 202 207 209
507 1 206 202 207 210
508 1 207 208 213 214
509 1 207 208 213 215
510 1 207 208 213 216
511 1 208 213 214 217
512 1 208 213 214 218
513 1 209 207 208 211
514 1 209 207 208 212
515 1 209 207 208 213
516 1 210 207 208 211
517 1 210 207 208 212
518 1 210 207 208 213
519 1 211 208 213 214
520 1 211 208 213 215
521 1 211 208 213 216
522 1 212 208 213 214
523 1 212 208 213 215
524 1 212 208 213 216
525 1 215 213 214 217
526 1 215 213 214 218
527 1 216 213 214 217
528 1 216 213 214 218
529 1 220 221 226 227
530 1 220 221 226 228
531 1 220 221 226 229
532 1 221 226 227 230
533 1 221 226 227 231
534 1 221 226 227 232
535 1 222 220 221 224
536 1 222 220 221 225
537 1 222 220 221 226
538 1 223 220 221 224
539 1 223 220 221 225
540 1 223 220 221 226
541 1 224 221 226 227
542 1 224 221 226 228
543 1 224 221 226 229
544 1 225 221 226 227
545 1 225 221 226 228
546 1 225 221 226 229
547 1 226 227 232 233
548 1 226 227 232 234
549 1 226 227 232 235
550 1 227 232 233 236
551 1 227 232 233 237
552 1 227 232 233 238
553 1 228 226 227 230
554 1 228 226 227 231
555 1 228 226 227 232
556 1 229 226 227 230
557 1 229 226 227 231
558 1 229 226 227 232
559 1 230 227 232 233
560 1 230 227 232 234
561 1 230 227 232 235
562 1 231 227 232 233
563 1 231 227 232 234
564 1 231 227 232 235
565 1 232 233 238 239
566 1 232 233 238 240
567 1 232 233 238 241
568 1 233 238 239 242
569 1 233 238 239 243
570 1 233 238 239 244
571 1 234 232 233 236
572 1 234 232 233 237
573 1 234 232 233 238
574 1 235 232 233 236
575 1 235 232 233 237
576 1 235 232 233 238
577 1 236 233 238 239
578 1 236 233 238 240
579 1 236 233 238 241
580 1 237 233 238 239
581 1 237 233 238 240
582 1 237 233 238 241
583 1 238 239 244 245
584 1 238 239 244 246
585 1 238 239 244 247
586 1 239 244 245 248
587 1 239 244 245 249
588 1 240 238 239 242
589 1 240 238 239 243
590 1 240 238 239 244
591 1 241 238 239 242
592 1 241 238 239 243
593 1 241 238 239 244
594 1 242 239 244 245
595 1 242 239 244 246
596 1 242 239 244 247
597 1 243 239 244 245
598 1 243 239 244 246
599 1 243 239 244 247
600 1 246 244 245 248
601 1 246 244 245 249
602 1 247 244 245 248
603 1 247 244 245 249
604 1 251 252 257 258
605 1 251 252 257 259
606 1 251 252 257 260
607 1 252 257 258 261
608 1 252 257 258 262
609 1 252 257 258 263
610 1 253 251 252 255
611 1 253 251 252 256
612 1 253 251 252 257
613 1 254 251 252 255
614 1 254 251 252 256
615 1 254 251 252 257
616 1 255 252 257 258
617 1 255 252 257 259
618 1 255 252 257 260
619 1 256 252 257 258
620 1 256 252 257 259
621 1 256 252 257 260
622 1 257 258 263 264
623 1 257 258 263 265
624 1 257 258 263 266
625 1 258 263 264 267
626 1 258 263 264 268
627 1 258 263 264 269
628 1 259 257 258 261
629 1 259 257 258 262
630 1 259 257 258 263
631 1 260 257 258 261
632 1 260 257 258 262
633 1 260 257 258 263
634 1 261 258 263 264
635 1 261 258 263 265
636 1 261 258 263 266
637 1 262 258 263 264
638 1 262 258 263 265
639 1 262 258 263 266
640 1 263 264 269 270
641 1 263 264 269 271
642 1 263 264 269 272
643 1 264 269 270 273
644 1 264 269 270 274
645 1 264 269 270 275
646 1 265 263 264 267
647 1 265 263 264 268
648 1 265 263 264 269
649 1 266 263 264 267
650 1 266 263 264 268
651 1 266 263 264 269
652 1 267 264 269 270
653 1 267 264 269 271
654 1 267 264 269 272
655 1 268 264 269 270
656 1 268 264 269 271
657 1 268 264 269 272
658 1 269 270 275 276
659 1 269 270 275 277
660 1 269 270 275 278
661 1 270 275 276 279
662 1 270 275 276 280
663 1 271 269 270 273
664 1 271 269 270 274
665 1 271 269 270 275
666 1 272 269 270 273
667 1 272 269 270 274
668 1 272 269 270 275
669 1 273 270 275 276
670 1 273 270 275 277
671 1 273 270 275 278
672 1 274 270 275 276
673 1 274 270 275 277
674 1 274 270 275 278
675 1 277 275 276 279
676 1 277 275 276 280
677 1 278 275 276 279
678 1 278 275 276 280
679 1 284 282 283 286
680 1 284 282 283 287
681 1 284 282 283 288
682 1 285 282 283 286
683 1 285 282 283 287
684 1 285 282 283 288
685 1 289 290 282 283
686 1 289 290 282 284
687 1 289 290 282 285
688 1 290 282 283 286
689 1 290 282 283 287
690 1 290 282 283 288
691 1 291 289 290 282
692 1 291 289 290 293
693 1 291 289 290 294
694 1 292 289 290 282
695 1 292 289 290 293
696 1 292 289 290 294
697 1 293 290 282 283
698 1 293 290 282 284
699 1 293 290 282 285
700 1 294 290 282 283
701 1 294 290 282 284
702 1 294 290 282 285
703 1 295 296 289 290
704 1 295 296 289 291
705 1 295 296 289 292
706 1 296 289 290 282
707 1 296 289 290 293
708 1 296 289 290 294
709 1 297 295 296 289
710 1 297 295 296 299
711 1 297 295 296 300
712 1 298 295 296 289
713 1 298 295 296 299
714 1 298 295 296 300
715 1 299 296 289 290
716 1 299 296 289 291
717 1 299 296 289 292
718 1 300 296 289 290
719 1 300 296 289 291
720 1 300 296 289 292
721 1 301 302 295 296
722 1 301 302 295 297
723 1 301 302 295 298
724 1 302 295 296 289
725 1 302 295 296 299
726 1 302 295 296 300
727 1 303 301 302 295
728 1 303 301 302 305
729 1 303 301 302 306
730 1 304 301 302 295
731 1 304 301 302 305
732 1 304 301 302 306
733 1 305 302 295 296
734 1 305 302 295 297
735 1 305 302 295 298
736 1 306 302 295 296
737 1 306 302 295 297
738 1 306 302 295 298
739 1 307 308 301 302
740 1 307 308 301 303
741 1 307 308 301 304
742 1 308 301 302 295
743 1 308 301 302 305
744 1 308 301 302 306
745 1 309 307 308 301
746 1 309 307 308 311
747 1 309 307 308 312
748 1 310 307 308 301
749 1 310 307 308 311
750 1 310 307 308 312
751 1 311 308 301 302
752 1 311 308 301 303
753 1 311 308 301 304
754 1 312 308 301 302
755 1 312 308 301 303
756 1 312 308 301 304
757 1 314 321 322 325
758 1 314 321 322 326
759 1 314 321 322 327
760 1 315 314 321 322
761 1 315 314 321 323
762 1 315 314 321 324
763 1 316 314 315 318
764 1 316 314 315 319
765 1 316 314 315 320
766 1 316 314 321 322
767 1 316 314 321 323
768 1 316 314 321 324
769 1 317 314 315 318
770 1 317 314 315 319
771 1 317 314 315 320
772 1 317 314 321 322
773 1 317 314 321 323
774 1 317 314 321 324
775 1 321 314 315 318
776 1 321 314 315 319
777 1 321 314 315 320
778 1 321 322 327 328
779 1 321 322 327 329
780 1 321 322 327 330
781 1 322 327 328 331
782 1 322 327 328 332
783 1 322 327 328 333
784 1 323 321 322 325
785 1 323 321 322 326
786 1 323 321 322 327
787 1 324 321 322 325
788 1 324 321 322 326
789 1 324 321 322 327
790 1 325 322 327 328
791 1 325 322 327 329
792 1 325 322 327 330
793 1 326 322 327 328
794 1 326 322 327 329
795 1 326 322 327 330
796 1 327 328 333 334
797 1 327 328 333 335
798 1 327 328 333 336
799 1 328 333 334 337
800 1 328 333 334 338
801 1 328 333 334 339
802 1 329 327 328 331
803 1 329 327 328 332
804 1 329 327 328 333
805 1 330 327 328 331
806 1 330 327 328 332
807 1 330 327 328 333
808 1 331 328 333 334
809 1 331 328 333 335
810 1 331 328 333 336
811 1 332 328 333 334
812 1 332 328 333 335
813 1 332 328 333 336
814 1 333 334 339 340
815 1 333 334 339 341
816 1 333 334 339 342
817 1 334 339 340 343
818 1 334 339 340 344
819 1 335 333 334 337
820 1 335 333 334 338
821 1 335 333 334 339
822 1 336 333 334 337
823 1 336 333 334 338
824 1 336 333 334 339
825 1 337 334 339 340
826 1 337 334 339 341
827 1 337 334 339 342
828 1 338 334 339 340
829 1 338 334 339 341
830 1 338 334 339 342
831 1 341 339 340 343
832 1 341 339 340 344
833 1 342 339 340 343
834 1 342 339 340 344
835 1 346 347 352 353
836 1 346 347 352 354
837 1 346 347 352 355
838 1 347 352 353 356
839 1 347 352 353 357
840 1 347 352 353 358
841 1 348 346 347 350
842 1 348 346 347 351
843 1 348 346 347 352
844 1 349 346 347 350
845 1 349 346 347 351
846 1 349 346 347 352
847 1 350 347 352 353
848 1 350 347 352 354
849 1 350 347 352 355
850 1 351 347 352 353
851 1 351 347 352 354
852 1 351 347 352 355
853 1 352 353 358 359
854 1 352 353 358 360
855 1 352 353 358 361
856 1 353 358 359 362
857 1 353 358 359 363
858 1 353 358 359 364
859 1 354 352 353 356
860 1 354 352 353 357
861 1 354 352 353 358
862 1 355 352 353 356
863 1 355 352 353 357
864 1 355 352 353 358
865 1 356 353 358 359
866 1 356 353 358 360
867 1 356 353 358 361
868 1 357 353 358 359
869 1 357 353 358 360
870 1 357 353 358 361
871 1 358 359 364 365
872 1 358 359 364 366
873 1 358 359 364 367
874 1 359 364 365 368
875 1 359 364 365 369
876 1 359 364 365 370
877 1 360 358 359 362
878 1 360 358 359 363
879 1 360 358 359 364
880 1 361 358 359 362
881 1 361 358 359 363
882 1 361 358 359 364
883 1 362 359 364 365
884 1 362 359 364 366
885 1 362 359 364 367
886 1 363 359 364 365
887 1 363 359 364 366
888 1 363 359 364 367
889 1 364 365 370 371
890 1 364 365 370 372
891 1 364 365 370 373
892 1 365 370 371 374
893 1 365 370 371 375
894 1 366 364 365 368
895 1 366 364 365 369
896 1 366 364 365 370
897 1 367 364 365 368
898 1 367 364 365 369
899 1 367 364 365 370
900 1 368 365 370 371
901 1 368 365 370 372
902 1 368 365 370 373
903 1 369 365 370 371
904 1 369 365 370 372
905 1 369 365 370 373
906 1 372 370 371 374
907 1 372 370 371 375
908 1 373 370 371 374
909 1 373 370 371 375
910 1 377 378 383 384
911 1 377 378 383 385
912 1 377 378 383 386
913 1 378 383 384 387
914 1 378 383 384 388
915 1 378 383 384 389
916 1 379 377 378 381
917 1 379 377 378 382
918 1 379 377 378 383
919 1 380 377 378 381
920 1 380 377 378 382
921 1 380 377 378 383
922 1 381 378 383 384
923 1 381 378 383 385
924 1 381 378 383 386
925 1 382 378 383 384
926 1 382 378 383 385
927 1 382 378 383 386
928 1 383 384 389 390
929 1 383 384 389 391
930 1 383 384 389 392
931 1 384 389 390 393
932 1 384 389 390 394
933 1 384 389 390 395
934 1 385 383 384 387
935 1 385 383 384 388
936 1 385 383 384 389
937 1 386 383 384 387
938 1 386 383 384 388
939 1 386 383 384 389
940 1 387 384 389 390
941 1 387 384 389 391
942 1 387 384 389 392
943 1 388 384 389 390
944 1 388 384 389 391
945 1 388 384 389 392
946 1 389 390 395 396
947 1 389 390 395 397
948 1 389 390 395 398
949 1 390 395 396 399
950 1 390 395 396 400
951 1 390 395 396 401
952 1 391 389 390 393
953 1 391 389 390 394
954 1 391 389 390 395
955 1 392 389 390 393
956 1 392 389 390 394
957 1 392 389 390 395
958 1 393 390 395 396
959 1 393 390 395 397
960 1 393 390 395 398
961 1 394 390 395 396
962 1 394 390 395 397
963 1 394 390 395 398
964 1 395 396 401 402
965 1 395 396 401 403
966 1 395 396 401 404
967 1 396 401 402 405
968 1 396 401 402 406
969 1 397 395 396 399
970 1 397 395 396 400
971 1 397 395 396 401
972 1 398 395 396 399
973 1 398 395 396 400
974 1 398 395 396 401
975 1 399 396 401 402
976 1 399 396 401 403
977 1 399 396 401 404
978 1 400 396 401 402
979 1 400 396 401 403
980 1 400 396 401 404
981 1 403 401 402 405
982 1 403 401 402 406
983 1 404 401 402 405
984 1 404 401 402 406
985 1 408 409 414 415
986 1 408 409 414 416
987 1 408 409 414 417
988 1 409 414 415 418
989 1 409 414 415 419
990 1 409 414 415 420
991 1 410 408 409 412
992 1 410 408 409 413
993 1 410 408 409 414
994 1 411 408 409 412
995 1 411 408 409 413
996 1 411 408 409 414
997 1 412 409 414 415
998 1 412 409 414 416
999 1 412 409 414 417
1000 1 413 409 414 415
1001 1 413 409 414 416
1002 1 413 409 414 417
1003 1 414 415 420 421
1004 1 414 415 420 422
1005 1 414 415 420 423
1006 1 415 420 421 424
1007 1 415 420 421 425
1008 1 415 420 421 426
1009 1 416 414 415 418
1010 1 416 414 415 419
1011 1 416 414 415 420
1012 1 417 414 415 418
1013 1 417 414 415 419
1014 1 417 414 415 420
1015 1 418 415 420 421
1016 1 418 415 420 422
1017 1 418 415 420 423
1018 1 419 415 420 421
1019 1 419 415 420 422
1020 1 419 415 420 423
1021 1 420 421 426 427
1022 1 420 421 426 428
1023 1 420 421 426 429
1024 1 421 426 427 430
1025 1 421 426 427 431
1026 1 421 426 427 432
1027 1 422 420 421 424
1028 1 422 420 421 425
1029 1 422 420 421 426
1030 1 423 420 421 424
1031 1 423 420 421 425
1032 1 423 420 421 426
1033 1 424 421 426 427
1034 1 424 421 426 428
1035 1 424 421 426 429
1036 1 425 421 426 427
1037 1 425 421 426 428
1038 1 425 421 426 429
1039 1 426 427 432 433
1040 1 426 427 432 434
1041 1 426 427 432 435
1042 1 427 432 433 436
1043 1 427 432 433 437
1044 1 428 426 427 430
1045 1 428 426 427 431
1046 1 428 426 427 432
1047 1 429 426 427 430
1048 1 429 426 427 431
1049 1 429 426 427 432
1050 1 430 427 432 433
1051 1 430 427 432 434
1052 1 430 427 432 435
1053 1 431 427 432 433
1054 1 431 427 432 434
1055 1 431 427 432 435
1056 1 434 432 433 436
1057 1 434 432 433 437
1058 1 435 432 433 436
1059 1 435 432 433 437
1060 1 439 440 445 446
1061 1 439 440 445 447
1062 1 439 440 445 448
1063 1 440 445 446 449
1064 1 440 445 446 450
1065 1 440 445 446 451
1066 1 441 439 440 443
1067 1 441 439 440 444
1068 1 441 439 440 445
1069 1 442 439 440 443
1070 1 442 439 440 444
1071 1 442 439 440 445
1072 1 443 440 445 446
1073 1 443 440 445 447
1074 1 443 440 445 448
1075 1 444 440 445 446
1076 1 444 440 445 447
1077 1 444 440 445 448
1078 1 445 446 451 452
1079 1 445 446 451 453
1080 1 445 446 451 454
1081 1 446 451 452 455
1082 1 446 451 452 456
1083 1 446 451 452 457
1084 1 447 445 446 449
1085 1 447 445 446 450
1086 1 447 445 446 451
1087 1 448 445 446 449
1088 1 448 445 446 450
1089 1 448 445 446 451
1090 1 449 446 451 452
1091 1 449 446 451 453
1092 1 449 446 451 454
1093 1 450 446 451 452
1094 1 450 446 451 453
1095 1 450 446 451 454
1096 1 451 452 457 458
1097 1 451 452 457 459
1098 1 451 452 457 460
1099 1 452 457 458 461
1100 1 452 457 458 462
1101 1 452 457 458 463
1102 1 453 451 452 455
1103 1 453 451 452 456
1104 1 453 451 452 457
1105 1 454 451 452 455
1106 1 454 451 452 456
1107 1 454 451 452 457
1108 1 455 452 457 458
1109 1 455 452 457 459
1110 1 455 452 457 460
1111 1 456 452 457 458
1112 1 456 452 457 459
1113 1 456 452 457 460
1114 1 457 458 463 464
1115 1 457 458 463 465
1116 1 457 458 463 466
1117 1 458 463 464 467
1118 1 458 463 464 468
1119 1 459 457 458 461
1120 1 459 457 458 462
1121 1 459 457 458 463
1122 1 460 457 458 461
1123 1 460 457 458 462
1124 1 460 457 458 463
1125 1 461 458 463 464
1126 1 461 458 463 465
1127 1 461 458 463 466
1128 1 462 458 463 464
1129 1 462 458 463 465
1130 1 462 458 463 466
1131 1 465 463 464 467
1132 1 465 463 464 468
1133 1 466 463 464 467
1134 1 466 463 464 468
1135 1 470 471 476 477
1136 1 470 471 476 478
1137 1 470 471 476 479
1138 1 471 476 477 480
1139 1 471 476 477 481
1140 1 471 476 477 482
1141 1 472 470 471 474
1142 1 472 470 471 475
1143 1 472 470 471 476
1144 1 473 470 471 474
1145 1 473 470 471 475
1146 1 473 470 471 476
1147 1 474 471 476 477
1148 1 474 471 476 478
1149 1 474 471 476 479
1150 1 475 471 476 477
1151 1 475 471 476 478
1152 1 475 471 476 479
1153 1 476 477 482 483
1154 1 476 477 482 484
1155 1 476 477 482 485
1156 1 477 482 483 486
1157 1 477 482 483 487
1158 1 477 482 483 488
1159 1 478 476 477 480
1160 1 478 476 477 481
1161 1 478 476 477 482
1162 1 479 476 477 480
1163 1 479 476 477 481
1164 1 479 476 477 482
1165 1 480 477 482 483
1166 1 480 477 482 484
1167 1 480 477 482 485
1168 1 481 477 482 483
1169 1 481 477 482 484
1170 1 481 477 482 485
1171 1 482 483 488 489
1172 1 482 483 488 490
1173 1 482 483 488 491
1174 1 483 488 489 492
1175 1 483 488 489 493
1176 1 483 488 489 494
1177 1 484 482 483 486
1178 1 484 482 483 487
1179 1 484 482 483 488
1180 1 485 482 483 486
1181 1 485 482 483 487
1182 1 485 482 483 488
1183 1 486 483 488 489
1184 1 486 483 488 490
1185 1 486 483 488 491
1186 1 487 483 488 489
1187 1 487 483 488 490
1188 1 487 483 488 491
1189 1 488 489 494 495
1190 1 488 489 494 496
1191 1 488 489 494 497
1192 1 489 494 495 498
1193 1 489 494 495 499
1194 1 490 488 489 492
1195 1 490 488 489 493
1196 1 490 488 489 494
1197 1 491 488 489 492
1198 1 491 488 489 493
1199 1 491 488 489 494
1200 1 492 489 494 495
1201 1 492 489 494 496
1202 1 492 489 494 497
1203 1 493 489 494 495
1204 1 493 489 494 496
1205 1 493 489 494 497
1206 1 496 494 495 498
1207 1 496 494 495 499
1208 1 497 494 495 498
1209 1 497 494 495 499
1210 1 501 502 507 508
1211 1 501 502 507 509
1212 1 501 502 507 510
1213 1 502 507 508 511
1214 1 502 507 508 512
1215 1 502 507 508 513
1216 1 503 501 502 505
1217 1 503 501 502 506
1218 1 503 501 502 507
1219 1 504 501 502 505
1220 1 504 501 502 506
1221 1 504 501 502 507
1222 1 505 502 507 508
1223 1 505 502 507 509
1224 1 505 502 507 510
1225 1 506 502 507 508
1226 1 506 502 507 509
1227 1 506 502 507 510
1228 1 507 508 513 514
1229 1 507 508 513 515
1230 1 507 508 513 516
1231 1 508 513 514 517
1232 1 508 513 514 518
1233 1 508 513 514 519
1234 1 509 507 508 511
1235 1 509 507 508 512
1236 1 509 507 508 513
1237 1 510 507 508 511
1238 1 510 507 508 512
1239 1 510 507 508 513
1240 1 511 508 513 514
1241 1 511 508 513 515
1242 1 511 508 513 516
1243 1 512 508 513 514
1244 1 512 508 513 515
1245 1 512 508 513 516
1246 1 513 514 519 520
1247 1 513 514 519 521
1248 1 513 514 519 522
1249 1 514 519 520 523
1250 1 514 519 520 524
1251 1 514 519 520 525
1252 1 515 513 514 517
1253 1 515 513 514 518
1254 1 515 513 514 519
1255 1 516 513 514 517
1256 1 516 513 514 518
1257 1 516 513 514 519
1258 1 517 514 519 520
1259 1 517 514 519 521
1260 1 517 514 519 522
1261 1 518 514 519 520
1262 1 518 514 519 521
1263 1 518 514 519 522
1264 1 519 520 525 526
1265 1 519 520 525 527
1266 1 519 520 525 528
1267 1 520 525 526 529
1268 1 520 525 526 530
1269 1 521 519 520 523
1270 1 521 519 520 524
1271 1 521 519 520 525
1272 1 522 519 520 523
1273 1 522 519 520 524
1274 1 522 519 520 525
1275 1 523 520 525 526
1276 1 523 520 525 527
1277 1 523 520 525 528
1278 1 524 520 525 526
1279 1 524 520 525 527
1280 1 524 520 525 528
1281 1 527 525 526 529
1282 1 527 525 526 530
1283 1 528 525 526 529
1284 1 528 525 526 530
1285 1 532 533 538 539
1286 1 532 533 538 540
1287 1 532 533 538 541
1288 1 533 538 539 542
1289 1 533 538 539 543
1290 1 533 538 539 544
1291 1 534 532 533 536
1292 1 534 532 533 537
1293 1 534 532 533 538
1294 1 535 532 533 536
1295 1 535 532 533 537
1296 1 535 532 533 538
1297 1 536 533 538 539
1298 1 536 533 538 540
1299 1 536 533 538 541
1300 1 537 533 538 539
1301 1 537 533 538 540
1302 1 537 533 538 541
1303 1 538 539 544 545
1304 1 538 539 544 546
1305 1 538 539 544 547
1306 1 539 544 545 548
1307 1 539 544 545 549
1308 1 539 544 545 550
1309 1 540 538 539 542
1310 1 540 538 539 543
1311 1 540 538 539 544
1312 1 541 538 539 542
1313 1 541 538 539 543
1314 1 541 538 539 544
1315 1 542 539 544 545
1316 1 542 539 544 546
1317 1 542 539 544 547
1318 1 543 539 544 545
1319 1 543 539 544 546
1320 1 543 539 544 547
1321 1 544 545 550 551
1322 1 544 545 550 552
1323 1 544 545 550 553
1324 1 545 550 551 554
1325 1 545 550 551 555
1326 1 545 550 551 556
1327 1 546 544 545 548
1328 1 546 544 545 549
1329 1 546 544 545 550
1330 1 547 544 545 548
1331 1 547 544 545 549
1332 1 547 544 545 550
1333 1 548 545 550 551
1334 1 548 545 550 552
1335 1 548 545 550 553
1336 1 549 545 550 551
1337 1 549 545 550 552
1338 1 549 545 550 553
1339 1 550 551 556 557
1340 1 550 551 556 558
1341 1 550 551 556 559
1342 1 551 556 557 560
1343 1 551 556 557 561
1344 1 552 550 551 554
1345 1 552 550 551 555
1346 1 552 550 551 556
1347 1 553 550 551 554
1348 1 553 550 551 555
1349 1 553 550 551 556
1350 1 554 551 556 557
1351 1 554 551 556 558
1352 1 554 551 556 559
1353 1 555 551 556 557
1354 1 555 551 556 558
1355 1 555 551 556 559
1356 1 558 556 557 560
1357 1 558 556 557 561
1358 1 559 556 557 560
1359 1 559 556 557 561
1360 1 563 564 569 570
1361 1 563 564 569 571
1362 1 563 564 569 572
1363 1 564 569 570 573
1364 1 564 569 570 574
1365 1 564 569 570 575
1366 1 565 563 564 567
1367 1 565 563 564 568
1368 1 565 563 564 569
1369 1 566 563 564 567
1370 1 566 563 564 568
1371 1 566 563 564 569
1372 1 567 564 569 570
1373 1 567 564 569 571
1374 1 567 564 569 572
1375 1 568 564 569 570
1376 1 568 564 569 571
1377 1 568 564 569 572
1378 1 569 570 575 576
1379 1 569 570 575 577
1380 1 569 570 575 578
1381 1 570 575 576 579
1382 1 570 575 576 580
1383 1 570 575 576 581
1384 1 571 569 570 573
1385 1 571 569 570 574
1386 1 571 569 570 575
1387 1 572 569 570 573
1388 1 572 569 570 574
1389 1 572 569 570 575
1390 1 573 570 575 576
1391 1 573 570 575 577
1392 1 573 570 575 578
1393 1 574 570 575 576
1394 1 574 570 575 577
1395 1 574 570 575 578
1396 1 575 576 581 582
1397 1 575 576 581 583
1398 1 575 576 581 584
1399 1 576 581 582 585
1400 1 576 581 582 586
1401 1 576 581 582 587
1402 1 577 575 576 579
1403 1 577 575 576 580
1404 1 577 575 576 581
1405 1 578 575 576 579
1406 1 578 575 576 580
1407 1 578 575 576 581
1408 1 579 576 581 582
1409 1 579 576 581 583
1410 1 579 576 581 584
1411 1 580 576 581 582
1412 1 580 576 581 583
1413 1 580 576 581 584
1414 1 581 582 587 588
1415 1 581 582 587 589
1416 1 581 582 587 590
1417 1 582 587 588 591
1418 1 582 587 588 592
1419 1 583 581 582 585
1420 1 583 581 582 586
1421 1 583 581 582 587
1422 1 584 581 582 585
1423 1 584 581 582 586
1424 1 584 581 582 587
1425 1 585 582 587 588
1426 1 585 582 587 589
1427 1 585 582 587 590
1428 1 586 582 587 588
1429 1 586 582 587 589
1430 1 586 582 587 590
1431 1 589 587 588 591
1432 1 589 587 588 592
1433 1 590 587 588 591
1434 1 590 587 588 592
1435 1 596 594 595 598
1436 1 596 594 595 599
1437 1 596 594 595 600
1438 1 597 594 595 598
1439 1 597 594 595 599
1440 1 597 594 595 600
1441 1 601 602 594 595
1442 1 601 602 594 596
1443 1 601 602 594 597
1444 1 602 594 595 598
1445 1 602 594 595 599
1446 1 602 594 595 600
1447 1 603 601 602 594
1448 1 603 601 602 605
1449 1 603 601 602 606
1450 1 604 601 602 594
1451 1 604 601 602 605
1452 1 604 601 602 606
1453 1 605 602 594 595
1454 1 605 602 594 596
1455 1 605 602 594 597
1456 1 606 602 594 595
1457 1 606 602 594 596
1458 1 606 602 594 597
1459 1 607 608 601 602
1460 1 607 608 601 603
1461 1 607 608 601 604
1462 1 608 601 602 594
1463 1 608 601 602 605
1464 1 608 601 602 606
1465 1 609 607 608 601
1466 1 609 607 608 611
1467 1 609 607 608 612
1468 1 610 607 608 601
1469 1 610 607 608 611
1470 1 610 607 608 612
1471 1 611 608 601 602
1472 1 611 608 601 603
1473 1 611 608 601 604
1474 1 612 608 601 602
1475 1 612 608 601 603
1476 1 612 608 601 604
1477 1 613 614 607 608
1478 1 613 614 607 609
1479 1 613 614 607 610
1480 1 614 607 608 601
1481 1 614 607 608 611
1482 1 614 607 608 612
1483 1 615 613 614 607
1484 1 615 613 614 617
1485 1 615 613 614 618
1486 1 616 613 614 607
1487 1 616 613 614 617
1488 1 616 613 614 618
1489 1 617 614 607 608
1490 1 617 614 607 609
1491 1 617 614 607 610
1492 1 618 614 607 608
1493 1 618 614 607 609
1494 1 618 614 607 610
1495 1 619 620 613 614
1496 1 619 620 613 615
1497 1 619 620 613 616
1498 1 620 613 614 607
1499 1 620 613 614 617
1500 1 620 613 614 618
1501 1 621 619 620 613
1502 1 621 619 620 623
1503 1 621 619 620 624
1504 1 622 619 620 613
1505 1 622 619 620 623
1506 1 622 619 620 624
1507 1 623 620 613 614
1508 1 623 620 613 615
1509 1 623 620 613 616
1510 1 624 620 613 614
1511 1 624 620 613 615
1512 1 624 620 613 616
1513 1 626 633 634 637
1514 1 626 633 634 638
1515 1 626 633 634 639
1516 1 627 626 633 634
1517 1 627 626 633 635
1518 1 627 626 633 636
1519 1 628 626 627 630
1520 1 628 626 627 631
1521 1 628 626 627 632
1522 1 628 626 633 634
1523 1 628 626 633 635
1524 1 628 626 633 636
1525 1 629 626 627 630
1526 1 629 626 627 631
1527 1 629 626 627 632
1528 1 629 626 633 634
1529 1 629 626 633 635
1530 1 629 626 633 636
1531 1 633 626 627 630
1532 1 633 626 627 631
1533 1 633 626 627 632
1534 1 633 634 639 640
1535 1 633 634 639 641
1536 1 633 634 639 642
1537 1 634 639 640 643
1538 1 634 639 640 644
1539 1 634 639 640 645
1540 1 635 633 634 637
1541 1 635 633 634 638
1542 1 635 633 634 639
1543 1 636 633 634 637
1544 1 636 633 634 638
1545 1 636 633 634 639
1546 1 637 634 639 640
1547 1 637 634 639 641
1548 1 637 634 639 642
1549 1 638 634 639 640
1550 1 638 634 639 641
1551 1 638 634 639 642
1552 1 639 640 645 646
1553 1 639 640 645 647
1554 1 639 640 645 648
1555 1 640 645 646 649
1556 1 640 645 646 650
1557 1 640 645 646 651
1558 1 641 639 640 643
1559 1 641 639 640 644
1560 1 641 639 640 645
1561 1 642 639 640 643
1562 1 642 639 640 644
1563 1 642 639 640 645
1564 1 643 640 645 646
1565 1 643 640 645 647
1566 1 643 640 645 648
1567 1 644 640 645 646
1568 1 644 640 645 647
1569 1 644 640 645 648
1570 1 645 646 651 652
1571 1 645 646 651 653
1572 1 645 646 651 654
1573 1 646 651 652 655
1574 1 646 651 652 656
1575 1 647 645 646 649
1576 1 647 645 646 650
1577 1 647 645 646 651
1578 1 648 645 646 649
1579 1 648 645 646 650
1580 1 648 645 646 651
1581 1 649 646 651 652
1582 1 649 646 651 653
1583 1 649 646 651 654
1584 1 650 646 651 652
1585 1 650 646 651 653
1586 1 650 646 651 654
1587 1 653 651 652 655
1588 1 653 651 652 656
1589 1 654 651 652 655
1590 1 654 651 652 656
1591 1 658 659 664 665
1592 1 658 659 664 666
1593 1 658 659 664 667
1594 1 659 664 665 668
1595 1 659 664 665 669
1596 1 659 664 665 670
1597 1 660 658 659 662
1598 1 660 658 659 663
1599 1 660 658 659 664
1600 1 661 658 659 662
1601 1 661 658 659 663
1602 1 661 658 659 664
1603 1 662 659 664 665
1604 1 662 659 664 666
1605 1 662 659 664 667
1606 1 663 659 664 665
1607 1 663 659 664 666
1608 1 663 659 664 667
1609 1 664 665 670 671
1610 1 664 665 670 672
1611 1 664 665 670 673
1612 1 665 670 671 674
1613 1 665 670 671 675
1614 1 665 670 671 676
1615 1 666 664 665 668
1616 1 666 664 665 669
1617 1 666 664 665 670
1618 1 667 664 665 668
1619 1 667 664 665 669
1620 1 667 664 665 670
1621 1 668 665 670 671
1622 1 668 665 670 672
1623 1 668 665 670 673
1624 1 669 665 670 671
1625 1 669 665 670 672
1626 1 669 665 670 673
1627 1 670 671 676 677
1628 1 670 671 676 678
1629 1 670 671 676 679
1630 1 671 676 677 680
1631 1 671 676 677 681
1632 1 671 676 677 682
1633 1 672 670 671 674
1634 1 672 670 671 675
1635 1 672 670 671 676
1636 1 673 670 671 674
1637 1 673 670 671 675
1638 1 673 670 671 676
1639 1 674 671 676 677
1640 1 674 671 676 678
1641 1 674 671 676 679
1642 1 675 671 676 677
1643 1 675 671 676 678
1644 1 675 671 676 679
1645 1 676 677 682 683
1646 1 676 677 682 684
1647 1 676 677 682 685
1648 1 677 682 683 686
1649 1 677 682 683 687
1650 1 678 676 677 680
1651 1 678 676 677 681
1652 1 678 676 677 682
1653 1 679 676 677 680
1654 1 679 676 677 681
1655 1 679 676 677 682
1656 1 680 677 682 683
1657 1 680 677 682 684
1658 1 680 677 682 685
1659 1 681 677 682 683
1660 1 681 677 682 684
1661 1 681 677 682 685
1662 1 684 682 683 686
1663 1 684 682 683 687
1664 1 685 682 683 686
1665 1 685 682 683 687
1666 1 689 690 695 696
1667 1 689 690 695 697
1668 1 689 690 695 698
1669 1 690 695 696 699
1670 1 690 695 696 700
1671 1 690 695 696 701
1672 1 691 689 690 693
1673 1 691 689 690 694
1674 1 691 689 690 695
1675 1 692 689 690 693
1676 1 692 689 690 694
1677 1 692 689 690 695
1678 1 693 690 695 696
1679 1 693 690 695 697
1680 1 693 690 695 698
1681 1 694 690 695 696
1682 1 694 690 695 697
1683 1 694 690 695 698
1684 1 695 696 701 702
1685 1 695 696 701 703
1686 1 695 696 701 704
1687 1 696 701 702 705
1688 1 696 701 702 706
1689 1 696 701 702 707
1690 1 697 695 696 699
1691 1 697 695 696 700
1692 1 697 695 696 701
1693 1 698 695 696 699
1694 1 698 695 696 700
1695 1 698 695 696 701
1696 1 699 696 701 702
1697 1 699 696 701 703
1698 1 699 696 701 704
1699 1 700 696 701 702
1700 1 700 696 701 703
1701 1 700 696 701 704
1702 1 701 702 707 708
1703 1 701 702 707 709
1704 1 701 702 707 710
1705 1 702 707 708 711
1706 1 702 707 708 712
1707 1 702 707 708 713
1708 1 703 701 702 705
1709 1 703 701 702 706
1710 1 703 701 702 707
1711 1 704 701 702 705
1712 1 704 701 702 706
1713 1 704 701 702 707
1714 1 705 702 707 708
1715 1 705 702 707 709
1716 1 705 702 707 710
1717 1 706 702 707 708
1718 1 706 702 707 709
1719 1 706 702 707 710
1720 1 707 708 713 714
1721 1 707 708 713 715
1722 1 707 708 713 716
1723 1 708 713 714 717
1724 1 708 713 714 718
1725 1 709 707 708 711
1726 1 709 707 708 712
1727 1 709 707 708 713
1728 1 710 707 708 711
1729 1 710 707 708 712
1730 1 710 707 708 713
1731 1 711 708 713 714
1732 1 711 708 713 715
1733 1 711 708 713 716
1734 1 712 708 713 714
1735 1 712 708 713 715
1736 1 712 708 713 716
1737 1 715 713 714 717
1738 1 715 713 714 718
1739 1 716 713 714 717
1740 1 716 713 714 718
1741 1 720 721 726 727
1742 1 720 721 726 728
1743 1 720 721 726 729
1744 1 721 726 727 730
1745 1 721 726 727 731
1746 1 721 726 727 732
1747 1 722 720 721 724
1748 1 722 720 721 725
1749 1 722 720 721 726
1750 1 723 720 721 724
1751 1 723 720 721 725
1752 1 723 720 721 726
1753 1 724 721 726 727
1754 1 724 721 726 728
1755 1 724 721 726 729
1756 1 725 721 726 727
1757 1 725 721 726 728
1758 1 725 721 726 729
1759 1 726 727 732 733
1760 1 726 727 732 734
1761 1 726 727 732 735
1762 1 727 732 733 736
1763 1 727 732 733 737
1764 1 727 732 733 738
1765 1 728 726 727 730
1766 1 728 726 727 731
1767 1 728 726 727 732
1768 1 729 726 727 730
1769 1 729 726 727 731
1770 1 729 726 727 732
1771 1 730 727 732 733
1772 1 730 727 732 734
1773 1 730 727 732 735
1774 1 731 727 732 733
1775 1 731 727 732 734
1776 1 731 727 732 735
1777 1 732 733 738 739
1778 1 732 733 738 740
1779 1 732 733 738 741
1780 1 733 738 739 742
1781 1 733 738 739 743
1782 1 733 738 739 744
1783 1 734 732 733 736
1784 1 734 732 733 737
1785 1 734 732 733 738
1786 1 735 732 733 736
1787 1 735 732 733 737
1788 1 735 732 733 738
1789 1 736 733 738 739
1790 1 736 733 738 740
1791 1 736 733 738 741
1792 1 737 733 738 739
1793 1 737 733 738 740
1794 1 737 733 738 741
1795 1 738 739 744 745
1796 1 738 739 744 746
1797 1 738 739 744 747
1798 1 739 744 745 748
1799 1 739 744 745 749
1800 1 740 738 739 742
1801 1 740 738 739 743
1802 1 740 738 739 744
1803 1 741 738 739 742
1804 1 741 738 739 743
1805 1 741 738 739 744
1806 1 742 739 744 745
1807 1 742 739 744 746
1808 1 742 739 744 747
1809 1 743 739 744 745
1810 1 743 739 744 746
1811 1 743 739 744 747
1812 1 746 744 745 748
1813 1 746 744 745 749
1814 1 747 744 745 748
1815 1 747 744 745 749
1816 1 751 752 757 758
1817 1 751 752 757 759
1818 1 751 752 757 760
1819 1 752 757 758 761
1820 1 752 757 758 762
1821 1 752 757 758 763
1822 1 753 751 752 755
1823 1 753 751 752 756
1824 1 753 751 752 757
1825 1 754 751 752 755
1826 1 754 751 752 756
1827 1 754 751 752 757
1828 1 755 752 757 758
1829 1 755 752 757 759
1830 1 755 752 757 760
1831 1 756 752 757 758
1832 1 756 752 757 759
1833 1 756 752 757 760
1834 1 757 758 763 764
1835 1 757 758 763 765
1836 1 757 758 763 766
1837 1 758 763 764 767
1838 1 758 763 764 768
1839 1 758 763 764 769
1840 1 759 757 758 761
1841 1 759 757 758 762
1842 1 759 757 758 763
1843 1 760 757 758 761
1844 1 760 757 758 762
1845 1 760 757 758 763
1846 1 761 758 763 764
1847 1 761 758 763 765
1848 1 761 758 763 766
1849 1 762 758 763 764
1850 1 762 758 763 765
1851 1 762 758 763 766
1852 1 763 764 769 770
1853 1 763 764 769 771
1854 1 763 764 769 772
1855 1 764 769 770 773
1856 1 764 769 770 774
1857 1 764 769 770 775
1858 1 765 763 764 767
1859 1 765 763 764 768
1860 1 765 763 764 769
1861 1 766 763 764 767
1862 1 766 763 764 768
1863 1 766 763 764 769
1864 1 767 764 769 770
1865 1 767 764 769 771
1866 1 767 764 769 772
1867 1 768 764 769 770
1868 1 768 764 769 771
1869 1 768 764 769 772
1870 1 769 770 775 776
1871 1 769 770 775 777
1872 1 769 770 775 778
1873 1 770 775 776 779
1874 1 770 775 776 780
1875 1 771 769 770 773
1876 1 771 769 770 774
1877 1 771 769 770 775
1878 1 772 769 770 773
1879 1 772 769 770 774
1880 1 772 769 770 775
1881 1 773 770 775 776
1882 1 773 770 775 777
1883 1 773 770 775 778
1884 1 774 770 775 776
1885 1 774 770 775 777
1886 1 774 770 775 778
1887 1 777 775 776 779
1888 1 777 775 776 780
1889 1 778 775 776 779
1890 1 778 775 776 780
1891 1 782 783 788 789
1892 1 782 783 788 790
1893 1 782 783 788 791
1894 1 783 788 789 792
1895 1 783 788 789 793
1896 1 783 788 789 794
1897 1 784 782 783 786
1898 1 784 782 783 787
1899 1 784 782 783 788
1900 1 785 782 783 786
1901 1 785 782 783 787
1902 1 785 782 783 788
1903 1 786 783 788 789
1904 1 786 783 788 790
1905 1 786 783 788 791
1906 1 787 783 788 789
1907 1 787 783 788 790
1908 1 787 783 788 791
1909 1 788 789 794 795
1910 1 788 789 794 796
1911 1 788 789 794 797
1912 1 789 794 795 798
1913 1 789 794 795 799
1914 1 789 794 795 800
1915 1 790 788 789 792
1916 1 790 788 789 793
1917 1 790 788 789 794
1918 1 791 788 789 792
1919 1 791 788 789 793
1920 1 791 788 789 794
1921 1 792 789 794 795
1922 1 792 789 794 796
1923 1 792 789 794 797
1924 1 793 789 794 795
1925 1 793 789 794 796
1926 1 793 789 794 797
1927 1 794 795 800 801
1928 1 794 795 800 802
1929 1 794 795 800 803
1930 1 795 800 801 804
1931 1 795 800 801 805
1932 1 795 800 801 806
1933 1 796 794 795 798
1934 1 796 794 795 799
1935 1 796 794 795 800
1936 1 797 794 795 798
1937 1 797 794 795 799
1938 1 797 794 795 800
1939 1 798 795 800 801
1940 1 798 795 800 802
1941 1 798 795 800 803
1942 1 799 795 800 801
1943 1 799 795 800 802
1944 1 799 795 800 803
1945 1 800 801 806 807
1946 1 800 801 806 808
1947 1 800 801 806 809
1948 1 801 806 807 810
1949 1 801 806 807 811
1950 1 802 800 801 804
1951 1 802 800 801 805
1952 1 802 800 801 806
1953 1 803 800 801 804
1954 1 803 800 801 805
1955 1 803 800 801 806
1956 1 804 801 806 807
1957 1 804 801 806 808
1958 1 804 801 806 809
1959 1 805 801 806 807
1960 1 805 801 806 808
1961 1 805 801 806 809
1962 1 808 806 807 810
1963 1 808 806 807 811
1964 1 809 806 807 810
1965 1 809 806 807 811
1966 1 813 814 819 820
1967 1 813 814 819 821
1968 1 813 814 819 822
1969 1 814 819 820 823
1970 1 814 819 820 824
1971 1 814 819 820 825
1972 1 815 813 814 817
1973 1 815 813 814 818
1974 1 815 813 814 819
1975 1 816 813 814 817
1976 1 816 813 814 818
1977 1 816 813 814 819
1978 1 817 814 819 820
1979 1 817 814 819 821
1980 1 817 814 819 822
1981 1 818 814 819 820
1982 1 818 814 819 821
1983 1 818 814 819 822
1984 1 819 820 825 826
1985 1 819 820 825 827
1986 1 819 820 825 828
1987 1 820 825 826 829
1988 1 820 825 826 830
1989 1 820 825 826 831
1990 1 821 819 820 823
1991 1 821 819 820 824
1992 1 821 819 820 825
1993 1 822 819 820 823
1994 1 822 819 820 824
1995 1 822 819 820 825
1996 1 823 820 825 826
1997 1 823 820 825 827
1998 1 823 820 825 828
1999 1 824 820 825 826
2000 1 824 820 825 827
2001 1 824 820 825 828
2002 1 825 826 831 832
2003 1 825 826 831 833
2004 1 825 826 831 834
2005 1 826 831 832 835
2006 1 826 831 832 836
2007 1 826 831 832 837
2008 1 827 825 826 829
2009 1 827 825 826 830
2010 1 827 825 826 831
2011 1 828 825 826 829
2012 1 828 825 826 830
2013 1 828 825 826 831
2014 1 829 826 831 832
2015 1 829 826 831 833
2016 1 829 826 831 834
2017 1 830 826 831 832
2018 1 830 826 831 833
2019 1 830 826 831 834
2020 1 831 832 837 838
2021 1 831 832 837 839
2022 1 831 832 837 840
2023 1 832 837 838 841
2024 1 832 837 838 842
2025 1 833 831 832 835
2026 1 833 831 832 836
2027 1 833 831 832 837
2028 1 834 831 832 835
2029 1 834 831 832 836
2030 1 834 831 832 837
2031 1 835 832 837 838
2032 1 835 832 837 839
2033 1 835 832 837 840
2034 1 836 832 837 838
2035 1 836 832 837 839
2036 1 836 832 837 840
2037 1 839 837 838 841
2038 1 839 837 838 842
2039 1 840 837 838 841
2040 1 840 837 838 842
2041 1 844 845 850 851
2042 1 844 845 850 852
2043 1 844 845 850 853
2044 1 845 850 851 854
2045 1 845 850 851 855
2046 1 845 850 851 856
2047 1 846 844 845 848
2048 1 846 844 845 849
2049 1 846 844 845 850
2050 1 847 844 845 848
2051 1 847 844 845 849
2052 1 847 844 845 850
2053 1 848 845 850 851
2054 1 848 845 850 852
2055 1 848 845 850 853
2056 1 849 845 850 851
2057 1 849 845 850 852
2058 1 849 845 850 853
2059 1 850 851 856 857
2060 1 850 851 856 858
2061 1 850 851 856 859
2062 1 851 856 857 860
2063 1 851 856 857 861
2064 1 851 856 857 862
2065 1 852 850 851 854
2066 1 852 850 851 855
2067 1 852 850 851 856
2068 1 853 850 851 854
2069 1 853 850 851 855
2070 1 853 850 851 856
2071 1 854 851 856 857
2072 1 854 851 856 858
2073 1 854 851 856 859
2074 1 855 851 856 857
2075 1 855 851 856 858
2076 1 855 851 856 859
2077 1 856 857 862 863
2078 1 856 857 862 864
2079 1 856 857 862 865
2080 1 857 862 863 866
2081 1 857 862 863 867
2082 1 857 862 863 868
2083 1 858 856 857 860
2084 1 858 856 857 861
2085 1 858 856 857 862
2086 1 859 856 857 860
2087 1 859 856 857 861
2088 1 859 856 857 862
2089 1 860 857 862 863
2090 1 860 857 862 864
2091 1 860 857 862 865
2092 1 861 857 862 863
2093 1 861 857 862 864
2094 1 861 857 862 865
2095 1 862 863 868 869
2096 1 862 863 868 870
2097 1 862 863 868 871
2098 1 863 868 869 872
2099 1 863 868 869 873
2100 1 864 862 863 866
2101 1 864 862 863 867
2102 1 864 862 863 868
2103 1 865 862 863 866
2104 1 865 862 863 867
2105 1 865 862 863 868
2106 1 866 863 868 869
2107 1 866 863 868 870
2108 1 866 863 868 871
2109 1 867 863 868 869
2110 1 867 863 868 870
2111 1 867 863 868 871
2112 1 870 868 869 872
2113 1 870 868 869 873
2114 1 871 868 869 872
2115 1 871 868 869 873
2116 1 875 876 881 882
2117 1 875 876 881 883
2118 1 875 876 881 884
2119 1 876 881 882 885
2120 1 876 881 882 886
2121 1 876 881 882 887
2122 1 877 875 876 879
2123 1 877 875 876 880
2124 1 877 875 876 881
2125 1 878 875 876 879
2126 1 878 875 876 880
2127 1 878 875 876 881
2128 1 879 876 881 882
2129 1 879 876 881 883
2130 1 879 876 881 884
2131 1 880 876 881 882
2132 1 880 876 881 883
2133 1 880 876 881 884
2134 1 881 882 887 888
2135 1 881 882 887 889
2136 1 881 882 887 890
2137 1 882 887 888 891
2138 1 882 887 888 892
2139 1 882 887 888 893
2140 1 883 881 882 885
2141 1 883 881 882 886
2142 1 883 881 882 887
2143 1 884 881 882 885
2144 1 884 881 882 886
2145 1 884 881 882 887
2146 1 885 882 887 888
2147 1 885 882 887 889
2148 1 885 882 887 890
2149 1 886 882 887 888
2150 1 886 882 887 889
2151 1 886 882 887 890
2152 1 887 888 893 894
2153 1 887 888 893 895
2154 1 887 888 893 896
2155 1 888 893 894 897
2156 1 888 893 894 898
2157 1 888 893 894 899
2158 1 889 887 888 891
2159 1 889 887 888 892
2160 1 889 887 888 893
2161 1 890 887 888 891
2162 1 890 887 888 892
2163 1 890 887 888 893
2164 1 891 888 893 894
2165 1 891 888 893 895
2166 1 891 888 893 896
2167 1 892 888 893 894
2168 1 892 888 893 895
2169 1 892 888 893 896
2170 1 893 894 899 900
2171 1 893 894 899 901
2172 1 893 894 899 902
2173 1 894 899 900 903
2174 1 894 899 900 904
2175 1 895 893 894 897
2176 1 895 893 894 898
2177 1 895 893 894 899
2178 1 896 893 894 897
2179 1 896 893 894 898
2180 1 896 893 894 899
2181 1 897 894 899 900
2182 1 897 894 899 901
2183 1 897 894 899 902
2184 1 898 894 899 900
2185 1 898 894 899 901
2186 1 898 894 899 902
2187 1 901 899 900 903
2188 1 901 899 900 904
2189 1 902 899 900 903
2190 1 902 899 900 904
2191 1 908 906 907 910
2192 1 908 906 907 911
2193 1 908 906 907 912
2194 1 909 906 907 910
2195 1 909 906 907 911
2196 1 909 906 907 912
2197 1 913 914 906 907
2198 1 913 914 906 908
2199 1 913 914 906 909
2200 1 914 906 907 910
2201 1 914 906 907 911
2202 1 914 906 907 912
2203 1 915 913 914 906
2204 1 915 913 914 917
2205 1 915 913 914 918
2206 1 916 913 914 906
2207 1 916 913 914 917
2208 1 916 913 914 918
2209 1 917 914 906 907
2210 1 917 914 906 908
2211 1 917 914 906 909
2212 1 918 914 906 907
2213 1 918 914 906 908
2214 1 918 914 906 909
2215 1 919 920 913 914
2216 1 919 920 913 915
2217 1 919 920 913 916
2218 1 920 913 914 906
2219 1 920 913 914 917
2220 1 920 913 914 918
2221 1 921 919 920 913
2222 1 921 919 920 923
2223 1 921 919 920 924
2224 1 922 919 920 913
2225 1 922 919 920 923
2226 1 922 919 920 924
2227 1 923 920 913 914
2228 1 923 920 913 915
2229 1 923 920 913 916
2230 1 924 920 913 914
2231 1 924 920 913 915
2232 1 924 920 913 916
2233 1 925 926 919 920
2234 1 925 926 919 921
2235 1 925 926 919 922
2236 1 926 919 920 913
2237 1 926 919 920 923
2238 1 926 919 920 924
2239 1 927 925 926 919
2240 1 927 925 926 929
2241 1 927 925 926 930
2242 1 928 925 926 919
2243 1 928 925 926 929
2244 1 928 925 926 930
2245 1 929 926 919 920
2246 1 929 926 919 921
2247 1 929 926 919 922
2248 1 930 926 919 920
2249 1 930 926 919 921
2250 1 930 926 919 922
2251 1 931 932 925 926
2252 1 931 932 925 927
2253 1 931 932 925 928
2254 1 932 925 926 919
2255 1 932 925 926 929
2256 1 932 925 926 930
2257 1 933 931 932 925
2258 1 933 931 932 935
2259 1 933 931 932 936
2260 1 934 931 932 925
2261 1 934 931 932 935
2262 1 934 931 932 936
2263 1 935 932 925 926
2264 1 935 932 925 927
2265 1 935 932 925 928
2266 1 936 932 925 926
2267 1 936 932 925 927
2268 1 936 932 925 928
2269 1 938 945 946 949
2270 1 938 945 946 950
2271 1 938 945 946 951
2272 1 939 938 945 946
2273 1 939 938 945 947
2274 1 939 938 945 948
2275 1 940 938 939 942
2276 1 940 938 939 943
2277 1 940 938 939 944
2278 1 940 938 945 946
2279 1 940 938 945 947
2280 1 940 938 945 948
2281 1 941 938 939 942
2282 1 941 938 939 943
2283 1 941 938 939 944
2284 1 941 938 945 946
2285 1 941 938 945 947
2286 1 941 938 945 948
2287 1 945 938 939 942
2288 1 945 938 939 943
2289 1 945 938 939 944
2290 1 945 946 951 952
2291 1 945 946 951 953
2292 1 945 946 951 954
2293 1 946 951 952 955
2294 1 946 951 952 956
2295 1 946 951 952 957
2296 1 947 945 946 949
2297 1 947 945 946 950
2298 1 947 945 946 951
2299 1 948 945 946 949
2300 1 948 945 946 950
2301 1 948 945 946 951
2302 1 949 946 951 952
2303 1 949 946 951 953
2304 1 949 946 951 954
2305 1 950 946 951 952
2306 1 950 946 951 953
2307 1 950 946 951 954
2308 1 951 952 957 958
2309 1 951 952 957 959
2310 1 951 952 957 960
2311 1 952 957 958 961
2312 1 952 957 958 962
2313 1 952 957 958 963
2314 1 953 951 952 955
2315 1 953 951 952 956
2316 1 953 951 952 957
2317 1 954 951 952 955
2318 1 954 951 952 956
2319 1 954 951 952 957
2320 1 955 952 957 958
2321 1 955 952 957 959
2322 1 955 952 957 960
2323 1 956 952 957 958
2324 1 956 952 957 959
2325 1 956 952 957 960
2326 1 957 958 963 964
2327 1 957 958 963 965
2328 1 957 958 963 966
2329 1 958 963 964 967
2330 1 958 963 964 968
2331 1 959 957 958 961
2332 1 959 957 958 962
2333 1 959 957 958 963
2334 1 960 957 958 961
2335 1 960 957 958 962
2336 1 960 957 958 963
2337 1 961 958 963 964
2338 1 961 958 963 965
2339 1 961 958 963 966
2340 1 962 958 963 964
2341 1 962 958 963 965
2342 1 962 958 963 966
2343 1 965 963 964 967
2344 1 965 963 964 968
2345 1 966 963 964 967
2346 1 966 963 964 968
2347 1 970 971 976 977
2348 1 970 971 976 978
2349 1 970 971 976 979
2350 1 971 976 977 980
2351 1 971 976 977 981
2352 1 971 976 977 982
2353 1 972 970 971 974
2354 1 972 970 971 975
2355 1 972 970 971 976
2356 1 973 970 971 974
2357 1 973 970 971 975
2358 1 973 970 971 976
2359 1 974 971 976 977
2360 1 974 971 976 978
2361 1 974 971 976 979
2362 1 975 971 976 977
2363 1 975 971 976 978
2364 1 975 971 976 979
2365 1 976 977 982 983
2366 1 976 977 982 984
2367 1 976 977 982 985
2368 1 977 982 983 986
2369 1 977 982 983 987
2370 1 977 982 983 988
2371 1 978 976 977 980
2372 1 978 976 977 981
2373 1 978 976 977 982
2374 1 979 976 977 980
2375 1 979 976 977 981
2376 1 979 976 977 982
2377 1 980 977 982 983
2378 1 980 977 982 984
2379 1 980 977 982 985
2380 1 981 977 982 983
2381 1 981 977 982 984
2382 1 981 977 982 985
2383 1 982 983 988 989
2384 1 982 983 988 990
2385 1 982 983 988 991
2386 1 983 988 989 992
2387 1 983 988 989 993
2388 1 983 988 989 994
2389 1 984 982 983 986
2390 1 984 982 983 987
2391 1 984 982 983 988
2392 1 985 982 983 986
2393 1 985 982 983 987
2394 1 985 982 983 988
2395 1 986 983 988 989
2396 1 986 983 988 990
2397 1 986 983 988 991
2398 1 987 983 988 989
2399 1 987 983 988 990
2400 1 987 983 988 991
2401 1 988 989 994 995
2402 1 988 989 994 996
2403 1 988 989 994 997
2404 1 989 994 995 998
2405 1 989 994 995 999
2406 1 990 988 989 992
2407 1 990 988 989 993
2408 1 990 988 989 994
2409 1 991 988 989 992
2410 1 991 988 989 993
2411 1 991 988 989 994
2412 1 992 989 994 995
2413 1 992 989 994 996
2414 1 992 989 994 997
2415 1 993 989 994 995
2416 1 993 989 994 996
2417 1 993 989 994 997
2418 1 996 994 995 998
2419 1 996 994 995 999
2420 1 997 994 995 998
2421 1 997 994 995 999
2422 1 1001 1002 1007 1008
2423 1 1001 1002 1007 1009
2424 1 1001 1002 1007 1010
2425 1 1002 1007 1008 1011
2426 1 1002 1007 1008 1012
2427 1 1002 1007 1008 1013
2428 1 1003 1001 1002 1005
2429 1 1003 1001 1002 1006
2430 1 1003 1001 1002 1007
2431 1 1004 1001 1002 1005
2432 1 1004 1001 1002 1006
2433 1 1004 1001 1002 1007
2434 1 1005 1002 1007 1008
2435 1 1005 1002 1007 1009
2436 1 1005 1002 1007 1010
2437 1 1006 1002 1007 1008
2438 1 1006 1002 1007 1009
2439 1 1006 1002 1007 1010
2440 1 1007 1008 1013 1014
2441 1 1007 1008 1013 1015
2442 1 1007 1008 1013 1016
2443 1 1008 1013 1014 1017
2444 1 1008 1013 1014 1018
2445 1 1008 1013 1014 1019
2446 1 1009 1007 1008 1011
2447 1 1009 1007 1008 1012
2448 1 1009 1007 1008 1013
2449 1 1010 1007 1008 1011
2450 1 1010 1007 1008 1012
2451 1 1010 1007 1008 1013
2452 1 1011 1008 1013 1014
2453 1 1011 1008 1013 1015
2454 1 1011 1008 1013 1016
2455 1 1012 1008 1013 1014
2456 1 1012 1008 1013 1015
2457 1 1012 1008 1013 1016
2458 1 1013 1014 1019 1020
2459 1 1013 1014 1019 1021
2460 1 1013 1014 1019 1022
2461 1 1014 1019 1020 1023
2462 1 1014 1019 1020 1024
2463 1 1014 1019 1020 1025
2464 1 1015 1013 1014 1017
2465 1 1015 1013 1014 1018
2466 1 1015 1013 1014 1019
2467 1 1016 1013 1014 1017
2468 1 1016 1013 1014 1018
2469 1 1016 1013 1014 1019
2470 1 1017 1014 1019 1020
2471 1 1017 1014 1019 1021
2472 1 1017 1014 1019 1022
2473 1 1018 1014 1019 1020
2474 1 1018 1014 1019 1021
2475 1 1018 1014 1019 1022
2476 1 1019 1020 1025 1026
2477 1 1019 1020 1025 1027
2478 1 1019 1020 1025 1028
2479 1 1020 1025 1026 1029
2480 1 1020 1025 1026 1030
2481 1 1021 1019 1020 1023
2482 1 1021 1019 1020 1024
2483 1 1021 1019 1020 1025
2484 1 1022 1019 1020 1023
2485 1 1022 1019 1020 1024
2486 1 1022 1019 1020 1025
2487 1 1023 1020 1025 1026
2488 1 1023 1020 1025 1027
2489 1 1023 1020 1025 1028
2490 1 1024 1020 1025 1026
2491 1 1024 1020 1025 1027
2492 1 1024 1020 1025 1028
2493 1 1027 1025 1026 1029
2494 1 1027 1025 1026 1030
2495 1 1028 1025 1026 1029
2496 1 1028 1025 1026 1030
2497 1 1032 1033 1038 1039
2498 1 1032 1033 1038 1040
2499 1 1032 1033 1038 1041
2500 1 1033 1038 1039 1042
2501 1 1033 1038 1039 1043
2502 1 1033 1038 1039 1044
2503 1 1034 1032 1033 1036
2504 1 1034 1032 1033 1037
2505 1 1034 1032 1033 1038
2506 1 1035 1032 1033 1036
2507 1 1035 1032 1033 1037
2508 1 1035 1032 1033 1038
2509 1 1036 1033 1038 1039
2510 1 1036 1033 1038 1040
2511 1 1036 1033 1038 1041
2512 1 1037 1033 1038 1039
2513 1 1037 1033 1038 1040
2514 1 1037 1033 1038 1041
2515 1 1038 1039 1044 1045
2516 1 1038 1039 1044 1046
2517 1 1038 1039 1044 1047
2518 1 1039 1044 1045 1048
2519 1 1039 1044 1045 1049
2520 1 1039 1044 1045 1050
2521 1 1040 1038 1039 1042
2522 1 1040 1038 1039 1043
2523 1 1040 1038 1039 1044
2524 1 1041 1038 1039 1042
2525 1 1041 1038 1039 1043
2526 1 1041 1038 1039 1044
2527 1 1042 1039 1044 1045
2528 1 1042 1039 1044 1046
2529 1 1042 1039 1044 1047
2530 1 1043 1039 1044 1045
2531 1 1043 1039 1044 1046
2532 1 1043 1039 1044 1047
2533 1 1044 1045 1050 1051
2534 1 1044 1045 1050 1052
2535 1 1044 1045 1050 1053
2536 1 1045 1050 1051 1054
2537 1 1045 1050 1051 1055
2538 1 1045 1050 1051 1056
2539 1 1046 1044 1045 1048
2540 1 1046 1044 1045 1049
2541 1 1046 1044 1045 1050
2542 1 1047 1044 1045 1048
2543 1 1047 1044 1045 1049
2544 1 1047 1044 1045 1050
2545 1 1048 1045 1050 1051
2546 1 1048 1045 1050 1052
2547 1 1048 1045 1050 1053
2548 1 1049 1045 1050 1051
2549 1 1049 1045 1050 1052
2550 1 1049 1045 1050 1053
2551 1 1050 1051 1056 1057
2552 1 1050 1051 1056 1058
2553 1 1050 1051 1056 1059
2554 1 1051 1056 1057 1060
2555 1 1051 1056 1057 1061
2556 1 1052 1050 1051 1054
2557 1 1052 1050 1051 1055
2558 1 1052 1050 1051 1056
2559 1 1053 1050 1051 1054
2560 1 1053 1050 1051 1055
2561 1 1053 1050 1051 1056
2562 1 1054 1051 1056 1057
2563 1 1054 1051 1056 1058
2564 1 1054 1051 1056 1059
2565 1 1055 1051 1056 1057
2566 1 1055 1051 1056 1058
2567 1 1055 1051 1056 1059
2568 1 1058 1056 1057 1060
2569 1 1058 1056 1057 1061
2570 1 1059 1056 1057 1060
2571 1 1059 1056 1057 1061
2572 1 1063 1064 1069 1070
2573 1 1063 1064 1069 1071
2574 1 1063 1064 1069 1072
2575 1 1064 1069 1070 1073
2576 1 1064 1069 1070 1074
2577 1 1064 1069 1070 1075
2578 1 1065 1063 1064 1067
2579 1 1065 1063 1064 1068
2580 1 1065 1063 1064 1069
2581 1 1066 1063 1064 1067
2582 1 1066 1063 1064 1068
2583 1 1066 1063 1064 1069
2584 1 1067 1064 1069 1070
2585 1 1067 1064 1069 1071
2586 1 1067 1064 1069 1072
2587 1 1068 1064 1069 1070
2588 1 1068 1064 1069 1071
2589 1 1068 1064 1069 1072
2590 1 1069 1070 1075 1076
2591 1 1069 1070 1075 1077
2592 1 1069 1070 1075 1078
2593 1 1070 1075 1076 1079
2594 1 1070 1075 1076 1080
2595 1 1070 1075 1076 1081
2596 1 1071 1069 1070 1073
2597 1 1071 1069 1070 1074
2598 1 1071 1069 1070 1075
2599 1 1072 1069 1070 1073
2600 1 1072 1069 1070 1074
2601 1 1072 1069 1070 1075
2602 1 1073 1070 1075 1076
2603 1 1073 1070 1075 1077
2604 1 1073 1070 1075 1078
2605 1 1074 1070 1075 1076
2606 1 1074 1070 1075 1077
2607 1 1074 1070 1075 1078
2608 1 1075 1076 1081 1082
2609 1 1075 1076 1081 1083
2610 1 1075 1076 1081 1084
2611 1 1076 1081 1082 1085
2612 1 1076 1081 1082 1086
2613 1 1076 1081 1082 1087
2614 1 1077 1075 1076 1079
2615 1 1077 1075 1076 1080
2616 1 1077 1075 1076 1081
2617 1 1078 1075 1076 1079
2618 1 1078 1075 1076 1080
2619 1 1078 1075 1076 1081
2620 1 1079 1076 1081 1082
2621 1 1079 1076 1081 1083
2622 1 1079 1076 1081 1084
2623 1 1080 1076 1081 1082
2624 1 1080 1076 1081 1083
2625 1 1080 1076 1081 1084
2626 1 1081 1082 1087 1088
2627 1 1081 1082 1087 1089
2628 1 1081 1082 1087 1090
2629 1 1082 1087 1088 1091
2630 1 1082 1087 1088 1092
2631 1 1083 1081 1082 1085
2632 1 1083 1081 1082 1086
2633 1 1083 1081 1082 1087
2634 1 1084 1081 1082 1085
2635 1 1084 1081 1082 1086
2636 1 1084 1081 1082 1087
2637 1 1085 1082 1087 1088
2638 1 1085 1082 1087 1089
2639 1 1085 1082 1087 1090
2640 1 1086 1082 1087 1088
2641 1 1086 1082 1087 1089
2642 1 1086 1082 1087 1090
2643 1 1089 1087 1088 1091
2644 1 1089 1087 1088 1092
2645 1 1090 1087 1088 1091
2646 1 1090 1087 1088 1092
2647 1 1094 1095 1100 1101
2648 1 1094 1095 1100 1102
2649 1 1094 1095 1100 1103
2650 1 1095 1100 1101 1104
2651 1 1095 1100 1101 1105
2652 1 1095 1100 1101 1106
2653 1 1096 1094 1095 1098
2654 1 1096 1094 1095 1099
2655 1 1096 1094 1095 1100
2656 1 1097 1094 1095 1098
2657 1 1097 1094 1095 1099
2658 1 1097 1094 1095 1100
2659 1 1098 1095 1100 1101
2660 1 1098 1095 1100 1102
2661 1 1098 1095 1100 1103
2662 1 1099 1095 1100 1101
2663 1 1099 1095 1100 1102
2664 1 1099 1095 1100 1103
2665 1 1100 1101 1106 1107
2666 1 1100 1101 1106 1108
2667 1 1100 1101 1106 1109
2668 1 1101 1106 1107 1110
2669 1 1101 1106 1107 1111
2670 1 1101 1106 1107 1112
2671 1 1102 1100 1101 1104
2672 1 1102 1100 1101 1105
2673 1 1102 1100 1101 1106
2674 1 1103 1100 1101 1104
2675 1 1103 1100 1101 1105
2676 1 1103 1100 1101 1106
2677 1 1104 1101 1106 1107
2678 1 1104 1101 1106 1108
2679 1 1104 1101 1106 1109
2680 1 1105 1101 1106 1107
2681 1 1105 1101 1106 1108
2682 1 1105 1101 1106 1109
2683 1 1106 1107 1112 1113
2684 1 1106 1107 1112 1114
2685 1 1106 1107 1112 1115
2686 1 1107 1112 1113 1116
2687 1 1107 1112 1113 1117
2688 1 1107 1112 1113 1118
2689 1 1108 1106 1107 1110
2690 1 1108 1106 1107 1111
2691 1 1108 1106 1107 1112
2692 1 1109 1106 1107 1110
2693 1 1109 1106 1107 1111
2694 1 1109 1106 1107 1112
2695 1 1110 1107 1112 1113
2696 1 1110 1107 1112 1114
2697 1 1110 1107 1112 1115
2698 1 1111 1107 1112 1113
2699 1 1111 1107 1112 1114
2700 1 1111 1107 1112 1115
2701 1 1112 1113 1118 1119
2702 1 1112 1113 1118 1120
2703 1 1112 1113 1118 1121
2704 1 1113 1118 1119 1122
2705 1 1113 1118 1119 1123
2706 1 1114 1112 1113 1116
2707 1 1114 1112 1113 1117
2708 1 1114 1112 1113 1118
2709 1 1115 1112 1113 1116
2710 1 1115 1112 1113 1117
2711 1 1115 1112 1113 1118
2712 1 1116 1113 1118 1119
2713 1 1116 1113 1118 1120
2714 1 1116 1113 1118 1121
2715 1 1117 1113 1118 1119
2716 1 1117 1113 1118 1120
2717 1 1117 1113 1118 1121
2718 1 1120 1118 1119 1122
2719 1 1120 1118 1119 1123
2720 1 1121 1118 1119 1122
2721 1 1121 1118 1119 1123
2722 1 1125 1126 1131 1132
2723 1 1125 1126 1131 1133
2724 1 1125 1126 1131 1134
2725 1 1126 1131 1132 1135
2726 1 1126 1131 1132 1136
2727 1 1126 1131 1132 1137
2728 1 1127 1125 1126 1129
2729 1 1127 1125 1126 1130
2730 1 1127 1125 1126 1131
2731 1 1128 1125 1126 1129
2732 1 1128 1125 1126 1130
2733 1 1128 1125 1126 1131
2734 1 1129 1126 1131 1132
2735 1 1129 1126 1131 1133
2736 1 1129 1126 1131 1134
2737 1 1130 1126 1131 1132
2738 1 1130 1126 1131 1133
2739 1 1130 1126 1131 1134
2740 1 1131 1132 1137 1138
2741 1 1131 1132 1137 1139
2742 1 1131 1132 1137 1140
2743 1 1132 1137 1138 1141
2744 1 1132 1137 1138 1142
2745 1 1132 1137 1138 1143
2746 1 1133 1131 1132 1135
2747 1 1133 1131 1132 1136
2748 1 1133 1131 1132 1137
2749 1 1134 1131 1132 1135
2750 1 1134 1131 1132 1136
2751 1 1134 1131 1132 1137
2752 1 1135 1132 1137 1138
2753 1 1135 1132 1137 1139
2754 1 1135 1132 1137 1140
2755 1 1136 1132 1137 1138
2756 1 1136 1132 1137 1139
2757 1 1136 1132 1137 1140
2758 1 1137 1138 1143 1144
2759 1 1137 1138 1143 1145
2760 1 1137 1138 1143 1146
2761 1 1138 1143 1144 1147
2762 1 1138 1143 1144 1148
2763 1 1138 1143 1144 1149
2764 1 1139 1137 1138 1141
2765 1 1139 1137 1138 1142
2766 1 1139 1137 1138 1143
2767 1 1140 1137 1138 1141
2768 1 1140 1137 1138 1142
2769 1 1140 1137 1138 1143
2770 1 1141 1138 1143 1144
2771 1 1141 1138 1143 1145
2772 1 1141 1138 1143 1146
2773 1 1142 1138 1143 1144
2774 1 1142 1138 1143 1145
2775 1 1142 1138 1143 1146
2776 1 1143 1144 1149 1150
2777 1 1143 1144 1149 1151
2778 1 1143 1144 1149 1152
2779 1 1144 1149 1150 1153
2780 1 1144 1149 1150 1154
2781 1 1145 1143 1144 1147
2782 1 1145 1143 1144 1148
2783 1 1145 1143 1144 1149
2784 1 1146 1143 1144 1147
2785 1 1146 1143 1144 1148
2786 1 1146 1143 1144 1149
2787 1 1147 1144 1149 1150
2788 1 1147 1144 1149 1151
2789 1 1147 1144 1149 1152
2790 1 1148 1144 1149 1150
2791 1 1148 1144 1149 1151
2792 1 1148 1144 1149 1152
2793 1 1151 1149 1150 1153
2794 1 1151 1149 1150 1154
2795 1 1152 1149 1150 1153
2796 1 1152 1149 1150 1154
2797 1 1156 1157 1162 1163
2798 1 1156 1157 1162 1164
2799 1 1156 1157 1162 1165
2800 1 1157 1162 1163 1166
2801 1 1157 1162 1163 1167
2802 1 1157 1162 1163 1168
2803 1 1158 1156 1157 1160
2804 1 1158 1156 1157 1161
2805 1 1158 1156 1157 1162
2806 1 1159 1156 1157 1160
2807 1 1159 1156 1157 1161
2808 1 1159 1156 1157 1162
2809 1 1160 1157 1162 1163
2810 1 1160 1157 1162 1164
2811 1 1160 1157 1162 1165
2812 1 1161 1157 1162 1163
2813 1 1161 1157 1162 1164
2814 1 1161 1157 1162 1165
2815 1 1162 1163 1168 1169
2816 1 1162 1163 1168 1170
2817 1 1162 1163 1168 1171
2818 1 1163 1168 1169 1172
2819 1 1163 1168 1169 1173
2820 1 1163 1168 1169 1174
2821 1 1164 1162 1163 1166
2822 1 1164 1162 1163 1167
2823 1 1164 1162 1163 1168
2824 1 1165 1162 1163 1166
2825 1 1165 1162 1163 1167
2826 1 1165 1162 1163 1168
2827 1 1166 1163 1168 1169
2828 1 1166 1163 1168 1170
2829 1 1166 1163 1168 1171
2830 1 1167 1163 1168 1169
2831 1 1167 1163 1168 1170
2832 1 1167 1163 1168 1171
2833 1 1168 1169 1174 1175
2834 1 1168 1169 1174 1176
2835 1 1168 1169 1174 1177
2836 1 1169 1174 1175 1178
2837 1 1169 1174 1175 1179
2838 1 1169 1174 1175 1180
2839 1 1170 1168 1169 1172
2840 1 1170 1168 1169 1173
2841 1 1170 1168 1169 1174
2842 1 1171 1168 1169 1172
2843 1 1171 1168 1169 1173
2844 1 1171 1168 1169 1174
2845 1 1172 1169 1174 1175
2846 1 1172 1169 1174 1176
2847 1 1172 1169 1174 1177
2848 1 1173 1169 1174 1175
2849 1 1173 1169 1174 1176
2850 1 1173 1169 1174 1177
2851 1 1174 1175 1180 1181
2852 1 1174 1175 1180 1182
2853 1 1174 1175 1180 1183
2854 1 1175 1180 1181 1184
2855 1 1175 1180 1181 1185
2856 1 1176 1174 1175 1178
2857 1 1176 1174 1175 1179
2858 1 1176 1174 1175 1180
2859 1 1177 1174 1175 1178
2860 1 1177 1174 1175 1179
2861 1 1177 1174 1175 1180
2862 1 1178 1175 1180 1181
2863 1 1178 1175 1180 1182
2864 1 1178 1175 1180 1183
2865 1 1179 1175 1180 1181
2866 1 1179 1175 1180 1182
2867 1 1179 1175 1180 1183
2868 1 1182 1180 1181 1184
2869 1 1182 1180 1181 1185
2870 1 1183 1180 1181 1184
2871 1 1183 1180 1181 1185
2872 1 1187 1188 1193 1194
2873 1 1187 1188 1193 1195
2874 1 1187 1188 1193 1196
2875 1 1188 1193 1194 1197
2876 1 1188 1193 1194 1198
2877 1 1188 1193 1194 1199
2878 1 1189 1187 1188 1191
2879 1 1189 1187 1188 1192
2880 1 1189 1187 1188 1193
2881 1 1190 1187 1188 1191
2882 1 1190 1187 1188 1192
2883 1 1190 1187 1188 1193
2884 1 1191 1188 1193 1194
2885 1 1191 1188 1193 1195
2886 1 1191 1188 1193 1196
2887 1 1192 1188 1193 1194
2888 1 1192 1188 1193 1195
2889 1 1192 1188 1193 1196
2890 1 1193 1194 1199 1200
2891 1 1193 1194 1199 1201
2892 1 1193 1194 1199 1202
2893 1 1194 1199 1200 1203
2894 1 1194 1199 1200 1204
2895 1 1194 1199 1200 1205
2896 1 1195 1193 1194 1197
2897 1 1195 1193 1194 1198
2898 1 1195 1193 1194 1199
2899 1 1196 1193 1194 1197
2900 1 1196 1193 1194 1198
2901 1 1196 1193 1194 1199
2902 1 1197 1194 1199 1200
2903 1 1197 1194 1199 1201
2904 1 1197 1194 1199 1202
2905 1 1198 1194 1199 1200
2906 1 1198 1194 1199 1201
2907 1 1198 1194 1199 1202
2908 1 1199 1200 1205 1206
2909 1 1199 1200 1205 1207
2910 1 1199 1200 1205 1208
2911 1 1200 1205 1206 1209
2912 1 1200 1205 1206 1210
2913 1 1200 1205 1206 1211
2914 1 1201 1199 1200 1203
2915 1 1201 1199 1200 1204
2916 1 1201 1199 1200 1205
2917 1 1202 1199 1200 1203
2918 1 1202 1199 1200 1204
2919 1 1202 1199 1200 1205
2920 1 1203 1200 1205 1206
2921 1 1203 1200 1205 1207
2922 1 1203 1200 1205 1208
2923 1 1204 1200 1205 1206
2924 1 1204 1200 1205 1207
2925 1 1204 1200 1205 1208
2926 1 1205 1206 1211 1212
2927 1 1205 1206 1211 1213
2928 1 1205 1206 1211 1214
2929 1 1206 1211 1212 1215
2930 1 1206 1211 1212 1216
2931 1 1207 1205 1206 1209
2932 1 1207 1205 1206 1210
2933 1 1207 1205 1206 1211
2934 1 1208 1205 1206 1209
2935 1 1208 1205 1206 1210
2936 1 1208 1205 1206 1211
2937 1 1209 1206 1211 1212
2938 1 1209 1206 1211 1213
2939 1 1209 1206 1211 1214
2940 1 1210 1206 1211 1212
2941 1 1210 1206 1211 1213
2942 1 1210 1206 1211 1214
2943 1 1213 1211 1212 1215
2944 1 1213 1211 1212 1216
2945 1 1214 1211 1212 1215
2946 1 1214 1211 1212 1216
2947 1 1220 1218 1219 1222
2948 1 1220 1218 1219 1223
2949 1 1220 1218 1219 1224
2950 1 1221 1218 1219 1222
2951 1 1221 1218 1219 1223
2952 1 1221 1218 1219 1224
2953 1 1225 1226 1218 1219
2954 1 1225 1226 1218 1220
2955 1 1225 1226 1218 1221
2956 1 1226 1218 1219 1222
2957 1 1226 1218 1219 1223
2958 1 1226 1218 1219 1224
2959 1 1227 1225 1226 1218
2960 1 1227 1225 1226 1229
2961 1 1227 1225 1226 1230
2962 1 1228 1225 1226 1218
2963 1 1228 1225 1226 1229
2964 1 1228 1225 1226 1230
2965 1 1229 1226 1218 1219
2966 1 1229 1226 1218 1220
2967 1 1229 1226 1218 1221
2968 1 1230 1226 1218 1219
2969 1 1230 1226 1218 1220
2970 1 1230 1226 1218 1221
2971 1 1231 1232 1225 1226
2972 1 1231 1232 1225 1227
2973 1 1231 1232 1225 1228
2974 1 1232 1225 1226 1218
2975 1 1232 1225 1226 1229
2976 1 1232 1225 1226 1230
2977 1 1233 1231 1232 1225
2978 1 1233 1231 1232 1235
2979 1 1233 1231 1232 1236
2980 1 1234 1231 1232 1225
2981 1 1234 1231 1232 1235
2982 1 1234 1231 1232 1236
2983 1 1235 1232 1225 1226
2984 1 1235 1232 1225 1227
2985 1 1235 1232 1225 1228
2986 1 1236 1232 1225 1226
2987 1 1236 1232 1225 1227
2988 1 1236 1232 1225 1228
2989 1 1237 1238 1231 1232
2990 1 1237 1238 1231 1233
2991 1 1237 1238 1231 1234
2992 1 1238 1231 1232 1225
2993 1 1238 1231 1232 1235
2994 1 1238 1231 1232 1236
2995 1 1239 1237 1238 1231
2996 1 1239 1237 1238 1241
2997 1 1239 1237 1238 1242
2998 1 1240 1237 1238 1231
2999 1 1240 1237 1238 1241
3000 1 1240 1237 1238 1242
3001 1 1241 1238 1231 1232
3002 1 1241 1238 1231 1233
3003 1 1241 1238 1231 1234
3004 1 1242 1238 1231 1232
3005 1 1242 1238 1231 1233
3006 1 1242 1238 1231 1234
3007 1 1243 1244 1237 1238
3008 1 1243 1244 1237 1239
3009 1 1243 1244 1237 1240
3010 1 1244 1237 1238 1231
3011 1 1244 1237 1238 1241
3012 1 1244 1237 1238 1242
3013 1 1245 1243 1244 1237
3014 1 1245 1243 1244 1247
3015 1 1245 1243 1244 1248
3016 1 1246 1243 1244 1237
3017 1 1246 1243 1244 1247
3018 1 1246 1243 1244 1248
3019 1 1247 1244 1237 1238
3020 1 1247 1244 1237 1239
3021 1 1247 1244 1237 1240
3022 1 1248 1244 1237 1238
3023 1 1248 1244 1237 1239
3024 1 1248 1244 1237 1240
3025 1 1250 1257 1258 1261
3026 1 1250 1257 1258 1262
3027 1 1250 1257 1258 1263
3028 1 1251 1250 1257 1258
3029 1 1251 1250 1257 1259
3030 1 1251 1250 1257 1260
3031 1 1252 1250 1251 1254
3032 1 1252 1250 1251 1255
3033 1 1252 1250 1251 1256
3034 1 1252 1250 1257 1258
3035 1 1252 1250 1257 1259
3036 1 1252 1250 1257 1260
3037 1 1253 1250 1251 1254
3038 1 1253 1250 1251 1255
3039 1 1253 1250 1251 1256
3040 1 1253 1250 1257 1258
3041 1 1253 1250 1257 1259
3042 1 1253 1250 1257 1260
3043 1 1257 1250 1251 1254
3044 1 1257 1250 1251 1255
3045 1 1257 1250 1251 1256
3046 1 1257 1258 1263 1264
3047 1 1257 1258 1263 1265
3048 1 1257 1258 1263 1266
3049 1 1258 1263 1264 1267
3050 1 1258 1263 1264 1268
3051 1 1258 1263 1264 1269
3052 1 1259 1257 1258 1261
3053 1 1259 1257 1258 1262
3054 1 1259 1257 1258 1263
3055 1 1260 1257 1258 1261
3056 1 1260 1257 1258 1262
3057 1 1260 1257 1258 1263
3058 1 1261 1258 1263 1264
3059 1 1261 1258 1263 1265
3060 1 1261 1258 1263 1266
3061 1 1262 1258 1263 1264
3062 1 1262 1258 1263 1265
3063 1 1262 1258 1263 1266
3064 1 1263 1264 1269 1270
3065 1 1263 1264 1269 1271
3066 1 1263 1264 1269 1272
3067 1 1264 1269 1270 1273
3068 1 1264 1269 1270 1274
3069 1 1264 1269 1270 1275
3070 1 1265 1263 1264 1267
3071 1 1265 1263 1264 1268
3072 1 1265 1263 1264 1269
3073 1 1266 1263 1264 1267
3074 1 1266 1263 1264 1268
3075 1 1266 1263 1264 1269
3076 1 1267 1264 1269 1270
3077 1 1267 1264 1269 1271
3078 1 1267 1264 1269 1272
3079 1 1268 1264 1269 1270
3080 1 1268 1264 1269 1271
3081 1 1268 1264 1269 1272
3082 1 1269 1270 1275 1276
3083 1 1269 1270 1275 1277
3084 1 1269 1270 1275 1278
3085 1 1270 1275 1276 1279
3086 1 1270 1275 1276 1280
3087 1 1271 1269 1270 1273
3088 1 1271 1269 1270 1274
3089 1 1271 1269 1270 1275
3090 1 1272 1269 1270 1273
3091 1 1272 1269 1270 1274
3092 1 1272 1269 1270 1275
3093 1 1273 1270 1275 1276
3094 1 1273 1270 1275 1277
3095 1 1273 1270 1275 1278
3096 1 1274 1270 1275 1276
3097 1 1274 1270 1275 1277
3098 1 1274 1270 1275 1278
3099 1 1277 1275 1276 1279
3100 1 1277 1275 1276 1280
3101 1 1278 1275 1276 1279
3102 1 1278 1275 1276 1280
3103 1 1282 1283 1288 1289
3104 1 1282 1283 1288 1290
3105 1 1282 1283 1288 1291
3106 1 1283 1288 1289 1292
3107 1 1283 1288 1289 1293
3108 1 1283 1288 1289 1294
3109 1 1284 1282 1283 1286
3110 1 1284 1282 1283 1287
3111 1 1284 1282 1283 1288
3112 1 1285 1282 1283 1286
3113 1 1285 1282 1283 1287
3114 1 1285 1282 1283 1288
3115 1 1286 1283 1288 1289
3116 1 1286 1283 1288 1290
3117 1 1286 1283 1288 1291
3118 1 1287 1283 1288 1289
3119 1 1287 1283 1288 1290
3120 1 1287 1283 1288 1291
3121 1 1288 1289 1294 1295
3122 1 1288 1289 1294 1296
3123 1 1288 1289 1294 1297
3124 1 1289 1294 1295 1298
3125 1 1289 1294 1295 1299
3126 1 1289 1294 1295 1300
3127 1 1290 1288 1289 1292
3128 1 1290 1288 1289 1293
3129 1 1290 1288 1289 1294
3130 1 1291 1288 1289 1292
3131 1 1291 1288 1289 1293
3132 1 1291 1288 1289 1294
3133 1 1292 1289 1294 1295
3134 1 1292 1289 1294 1296
3135 1 1292 1289 1294 1297
3136 1 1293 1289 1294 1295
3137 1 1293 1289 1294 1296
3138 1 1293 1289 1294 1297
3139 1 1294 1295 1300 1301
3140 1 1294 1295 1300 1302
3141 1 1294 1295 1300 1303
3142 1 1295 1300 1301 1304
3143 1 1295 1300 1301 1305
3144 1 1295 1300 1301 1306
3145 1 1296 1294 1295 1298
3146 1 1296 1294 1295 1299
3147 1 1296 1294 1295 1300
3148 1 1297 1294 1295 1298
3149 1 1297 1294 1295 1299
3150 1 1297 1294 1295 1300
3151 1 1298 1295 1300 1301
3152 1 1298 1295 1300 1302
3153 1 1298 1295 1300 1303
3154 1 1299 1295 1300 1301
3155 1 1299 1295 1300 1302
3156 1 1299 1295 1300 1303
3157 1 1300 1301 1306 1307
3158 1 1300 1301 1306 1308
3159 1 1300 1301 1306 1309
3160 1 1301 1306 1307 1310
3161 1 1301 1306 1307 1311
3162 1 1302 1300 1301 1304
3163 1 1302 1300 1301 1305
3164 1 1302 1300 1301 1306
3165 1 1303 1300 1301 1304
3166 1 1303 1300 1301 1305
3167 1 1303 1300 1301 1306
3168 1 1304 1301 1306 1307
3169 1 1304 1301 1306 1308
3170 1 1304 1301 1306 1309
3171 1 1305 1301 1306 1307
3172 1 1305 1301 1306 1308
3173 1 1305 1301 1306 1309
3174 1 1308 1306 1307 1310
3175 1 1308 1306 1307 1311
3176 1 1309 1306 1307 1310
3177 1 1309 1306 1307 1311
3178 1 1313 1314 1319 1320
3179 1 1313 1314 1319 1321
3180 1 1313 1314 1319 1322
3181 1 1314 1319 1320 1323
3182 1 1314 1319 1320 1324
3183 1 1314 1319 1320 1325
3184 1 1315 1313 1314 1317
3185 1 1315 1313 1314 1318
3186 1 1315 1313 1314 1319
3187 1 1316 1313 1314 1317
3188 1 1316 1313 1314 1318
3189 1 1316 1313 1314 1319
3190 1 1317 1314 1319 1320
3191 1 1317 1314 1319 1321
3192 1 1317 1314 1319 1322
3193 1 1318 1314 1319 1320
3194 1 1318 1314 1319 1321
3195 1 1318 1314 1319 1322
3196 1 1319 1320 1325 1326
3197 1 1319 1320 1325 1327
3198 1 1319 1320 1325 1328
3199 1 1320 1325 1326 1329
3200 1 1320 1325 1326 1330
3201 1 1320 1325 1326 1331
3202 1 1321 1319 1320 1323
3203 1 1321 1319 1320 1324
3204 1 1321 1319 1320 1325
3205 1 1322 1319 1320 1323
3206 1 1322 1319 1320 1324
3207 1 1322 1319 1320 1325
3208 1 1323 1320 1325 1326
3209 1 1323 1320 1325 1327
3210 1 1323 1320 1325 1328
3211 1 1324 1320 1325 1326
3212 1 1324 1320 1325 1327
3213 1 1324 1320 1325 1328
3214 1 1325 1326 1331 1332
3215 1 1325 1326 1331 1333
3216 1 1325 1326 1331 1334
3217 1 1326 1331 1332 1335
3218 1 1326 1331 1332 1336
3219 1 1326 1331 1332 1337
3220 1 1327 1325 1326 1329
3221 1 1327 1325 1326 1330
3222 1 1327 1325 1326 1331
3223 1 1328 1325 1326 1329
3224 1 1328 1325 1326 1330
3225 1 1328 1325 1326 1331
3226 1 1329 1326 1331 1332
3227 1 1329 1326 1331 1333
3228 1 1329 1326 1331 1334
3229 1 1330 1326 1331 1332
3230 1 1330 1326 1331 1333
3231 1 1330 1326 1331 1334
3232 1 1331 1332 1337 1338
3233 1 1331 1332 1337 1339
3234 1 1331 1332 1337 1340
3235 1 1332 1337 1338 1341
3236 1 1332 1337 1338 1342
3237 1 1333 1331 1332 1335
3238 1 1333 1331 1332 1336
3239 1 1333 1331 1332 1337
3240 1 1334 1331 1332 1335
3241 1 1334 1331 1332 1336
3242 1 1334 1331 1332 1337
3243 1 1335 1332 1337 1338
3244 1 1335 1332 1337 1339
3245 1 1335 1332 1337 1340
3246 1 1336 1332 1337 1338
3247 1 1336 1332 1337 1339
3248 1 1336 1332 1337 1340
3249 1 1339 1337 1338 1341
3250 1 1339 1337 1338 1342
3251 1 1340 1337 1338 1341
3252 1 1340 1337 1338 1342
3253 1 1344 1345 1350 1351
3254 1 1344 1345 1350 1352
3255 1 1344 1345 1350 1353
3256 1 1345 1350 1351 1354
3257 1 1345 1350 1351 1355
3258 1 1345 1350 1351 1356
3259 1 1346 1344 1345 1348
3260 1 1346 1344 1345 1349
3261 1 1346 1344 1345 1350
3262 1 1347 1344 1345 1348
3263 1 1347 1344 1345 1349
3264 1 1347 1344 1345 1350
3265 1 1348 1345 1350 1351
3266 1 1348 1345 1350 1352
3267 1 1348 1345 1350 1353
3268 1 1349 1345 1350 1351
3269 1 1349 1345 1350 1352
3270 1 1349 1345 1350 1353
3271 1 1350 1351 1356 1357
3272 1 1350 1351 1356 1358
3273 1 1350 1351 1356 1359
3274 1 1351 1356 1357 1360
3275 1 1351 1356 1357 1361
3276 1 1351 1356 1357 1362
3277 1 1352 1350 1351 1354
3278 1 1352 1350 1351 1355
3279 1 1352 1350 1351 1356
3280 1 1353 1350 1351 1354
3281 1 1353 1350 1351 1355
3282 1 1353 1350 1351 1356
3283 1 1354 1351 1356 1357
3284 1 1354 1351 1356 1358
3285 1 1354 1351 1356 1359
3286 1 1355 1351 1356 1357
3287 1 1355 1351 1356 1358
3288 1 1355 1351 1356 1359
3289 1 1356 1357 1362 1363
3290 1 1356 1357 1362 1364
3291 1 1356 1357 1362 1365
3292 1 1357 1362 1363 1366
3293 1 1357 1362 1363 1367
3294 1 1357 1362 1363 1368
3295 1 1358 1356 1357 1360
3296 1 1358 1356 1357 1361
3297 1 1358 1356 1357 1362
3298 1 1359 1356 1357 1360
3299 1 1359 1356 1357 1361
3300 1 1359 1356 1357 1362
3301 1 1360 1357 1362 1363
3302 1 1360 1357 1362 1364
3303 1 1360 1357 1362 1365
3304 1 1361 1357 1362 1363
3305 1 1361 1357 1362 1364
3306 1 1361 1357 1362 1365
3307 1 1362 1363 1368 1369
3308 1 1362 1363 1368 1370
3309 1 1362 1363 1368 1371
3310 1 1363 1368 1369 1372
3311 1 1363 1368 1369 1373
3312 1 1364 1362 1363 1366
3313 1 1364 1362 1363 1367
3314 1 1364 1362 1363 1368
3315 1 1365 1362 1363 1366
3316 1 1365 1362 1363 1367
3317 1 1365 1362 1363 1368
3318 1 1366 1363 1368 1369
3319 1 1366 1363 1368 1370
3320 1 1366 1363 1368 1371
3321 1 1367 1363 1368 1369
3322 1 1367 1363 1368 1370
3323 1 1367 1363 1368 1371
3324 1 1370 1368 1369 1372
3325 1 1370 1368 1369 1373
3326 1 1371 1368 1369 1372
3327 1 1371 1368 1369 1373
3328 1 1375 1376 1381 1382
3329 1 1375 1376 1381 1383
3330 1 1375 1376 1381 1384
3331 1 1376 1381 1382 1385
3332 1 1376 1381 1382 1386
3333 1 1376 1381 1382 1387
3334 1 1377 1375 1376 1379
3335 1 1377 1375 1376 1380
3336 1 1377 1375 1376 1381
3337 1 1378 1375 1376 1379
3338 1 1378 1375 1376 1380
3339 1 1378 1375 1376 1381
3340 1 1379 1376 1381 1382
3341 1 1379 1376 1381 1383
3342 1 1379 1376 1381 1384
3343 1 1380 1376 1381 1382
3344 1 1380 1376 1381 1383
3345 1 1380 1376 1381 1384
3346 1 1381 1382 1387 1388
3347 1 1381 1382 1387 1389
3348 1 1381 1382 1387 1390
3349 1 1382 1387 1388 1391
3350 1 1382 1387 1388 1392
3351 1 1382 1387 1388 1393
3352 1 1383 1381 1382 1385
3353 1 1383 1381 1382 1386
3354 1 1383 1381 1382 1387
3355 1 1384 1381 1382 1385
3356 1 1384 1381 1382 1386
3357 1 1384 1381 1382 1387
3358 1 1385 1382 1387 1388
3359 1 1385 1382 1387 1389
3360 1 1385 1382 1387 1390
3361 1 1386 1382 1387 1388
3362 1 1386 1382 1387 1389
3363 1 1386 1382 1387 1390
3364 1 1387 1388 1393 1394
3365 1 1387 1388 1393 1395
3366 1 1387 1388 1393 1396
3367 1 1388 1393 1394 1397
3368 1 1388 1393 1394 1398
3369 1 1388 1393 1394 1399
3370 1 1389 1387 1388 1391
3371 1 1389 1387 1388 1392
3372 1 1389 1387 1388 1393
3373 1 1390 1387 1388 1391
3374 1 1390 1387 1388 1392
3375 1 1390 1387 1388 1393
3376 1 1391 1388 1393 1394
3377 1 1391 1388 1393 1395
3378 1 1391 1388 1393 1396
3379 1 1392 1388 1393 1394
3380 1 1392 1388 1393 1395
3381 1 1392 1388 1393 1396
3382 1 1393 1394 1399 1400
3383 1 1393 1394 1399 1401
3384 1 1393 1394 1399 1402
3385 1 1394 1399 1400 1403
3386 1 1394 1399 1400 1404
3387 1 1395 1393 1394 1397
3388 1 1395 1393 1394 1398
3389 1 1395 1393 1394 1399
3390 1 1396 1393 1394 1397
3391 1 1396 1393 1394 1398
3392 1 1396 1393 1394 1399
3393 1 1397 1394 1399 1400
3394 1 1397 1394 1399 1401
3395 1 1397 1394 1399 1402
3396 1 1398 1394 1399 1400
3397 1 1398 1394 1399 1401
3398 1 1398 1394 1399 1402
3399 1 1401 1399 1400 1403
3400 1 1401 1399 1400 1404
3401 1 1402 1399 1400 1403
3402 1 1402 1399 1400 1404
3403 1 1406 1407 1412 1413
3404 1 1406 1407 1412 1414
3405 1 1406 1407 1412 1415
3406 1 1407 1412 1413 1416
3407 1 1407 1412 1413 1417
3408 1 1407 1412 1413 1418
3409 1 1408 1406 1407 1410
3410 1 1408 1406 1407 1411
3411 1 1408 1406 1407 1412
3412 1 1409 1406 1407 1410
3413 1 1409 1406 1407 1411
3414 1 1409 1406 1407 1412
3415 1 1410 1407 1412 1413
3416 1 1410 1407 1412 1414
3417 1 1410 1407 1412 1415
3418 1 1411 1407 1412 1413
3419 1 1411 1407 1412 1414
3420 1 1411 1407 1412 1415
3421 1 1412 1413 1418 1419
3422 1 1412 1413 1418 1420
3423 1 1412 1413 1418 1421
3424 1 1413 1418 1419 1422
3425 1 1413 1418 1419 1423
3426 1 1413 1418 1419 1424
3427 1 1414 1412 1413 1416
3428 1 1414 1412 1413 1417
3429 1 1414 1412 1413 1418
3430 1 1415 1412 1413 1416
3431 1 1415 1412 1413 1417
3432 1 1415 1412 1413 1418
3433 1 1416 1413 1418 1419
3434 1 1416 1413 1418 1420
3435 1 1416 1413 1418 1421
3436 1 1417 1413 1418 1419
3437 1 1417 1413 1418 1420
3438 1 1417 1413 1418 1421
3439 1 1418 1419 1424 1425
3440 1 1418 1419 1424 1426
3441 1 1418 1419 1424 1427
3442 1 1419 1424 1425 1428
3443 1 1419 1424 1425 1429
3444 1 1419 1424 1425 1430
3445 1 1420 1418 1419 1422
3446 1 1420 1418 1419 1423
3447 1 1420 1418 1419 1424
3448 1 1421 1418 1419 1422
3449 1 1421 1418 1419 1423
3450 1 1421 1418 1419 1424
3451 1 1422 1419 1424 1425
3452 1 1422 1419 1424 1426
3453 1 1422 1419 1424 1427
3454 1 1423 1419 1424 1425
3455 1 1423 1419 1424 1426
3456 1 1423 1419 1424 1427
3457 1 1424 1425 1430 1431
3458 1 1424 1425 1430 1432
3459 1 1424 1425 1430 1433
3460 1 1425 1430 1431 1434
3461 1 1425 1430 1431 1435
3462 1 1426 1424 1425 1428
3463 1 1426 1424 1425 1429
3464 1 1426 1424 1425 1430
3465 1 1427 1424 1425 1428
3466 1 1427 1424 1425 1429
3467 1 1427 1424 1425 1430
3468 1 1428 1425 1430 1431
3469 1 1428 1425 1430 1432
3470 1 1428 1425 1430 1433
3471 1 1429 1425 1430 1431
3472 1 1429 1425 1430 1432
3473 1 1429 1425 1430 1433
3474 1 1432 1430 1431 1434
3475 1 1432 1430 1431 1435
3476 1 1433 1430 1431 1434
3477 1 1433 1430 1431 1435
3478 1 1437 1438 1443 1444
3479 1 1437 1438 1443 1445
3480 1 1437 1438 1443 1446
3481 1 1438 1443 1444 1447
3482 1 1438 1443 1444 1448
3483 1 1438 1443 1444 1449
3484 1 1439 1437 1438 1441
3485 1 1439 1437 1438 1442
3486 1 1439 1437 1438 1443
3487 1 1440 1437 1438 1441
3488 1 1440 1437 1438 1442
3489 1 1440 1437 1438 1443
3490 1 1441 1438 1443 1444
3491 1 1441 1438 1443 1445
3492 1 1441 1438 1443 1446
3493 1 1442 1438 1443 1444
3494 1 1442 1438 1443 1445
3495 1 1442 1438 1443 1446
3496 1 1443 1444 1449 1450
3497 1 1443 1444 1449 1451
3498 1 1443 1444 1449 1452
3499 1 1444 1449 1450 1453
3500 1 1444 1449 1450 1454
3501 1 1444 1449 1450 1455
3502 1 1445 1443 1444 1447
3503 1 1445 1443 1444 1448
3504 1 1445 1443 1444 1449
3505 1 1446 1443 1444 1447
3506 1 1446 1443 1444 1448
3507 1 1446 1443 1444 1449
3508 1 1447 1444 1449 1450
3509 1 1447 1444 1449 1451
3510 1 1447 1444 1449 1452
3511 1 1448 1444 1449 1450
3512 1 1448 1444 1449 1451
3513 1 1448 1444 1449 1452
3514 1 1449 1450 1455 1456
3515 1 1449 1450 1455 1457
3516 1 1449 1450 1455 1458
3517 1 1450 1455 1456 1459
3518 1 1450 1455 1456 1460
3519 1 1450 1455 1456 1461
3520 1 1451 1449 1450 1453
3521 1 1451 1449 1450 1454
3522 1 1451 1449 1450 1455
3523 1 1452 1449 1450 1453
3524 1 1452 1449 1450 1454
3525 1 1452 1449 1450 1455
3526 1 1453 1450 1455 1456
3527 1 1453 1450 1455 1457
3528 1 1453 1450 1455 1458
3529 1 1454 1450 1455 1456
3530 1 1454 1450 1455 1457
3531 1 1454 1450 1455 1458
3532 1 1455 1456 1461 1462
3533 1 1455 1456 1461 1463
3534 1 1455 1456 1461 1464
3535 1 1456 1461 1462 1465
3536 1 1456 1461 1462 1466
3537 1 1457 1455 1456 1459
3538 1 1457 1455 1456 1460
3539 1 1457 1455 1456 1461
3540 1 1458 1455 1456 1459
3541 1 1458 1455 1456 1460
3542 1 1458 1455 1456 1461
3543 1 1459 1456 1461 1462
3544 1 1459 1456 1461 1463
3545 1 1459 1456 1461 1464
3546 1 1460 1456 1461 1462
3547 1 1460 1456 1461 1463
3548 1 1460 1456 1461 1464
3549 1 1463 1461 1462 1465
3550 1 1463 1461 1462 1466
3551 1 1464 1461 1462 1465
3552 1 1464 1461 1462 1466
3553 1 1468 1469 1474 1475
3554 1 1468 1469 1474 1476
3555 1 1468 1469 1474 1477
3556 1 1469 1474 1475 1478
3557 1 1469 1474 1475 1479
3558 1 1469 1474 1475 1480
3559 1 1470 1468 1469 1472
3560 1 1470 1468 1469 1473
3561 1 1470 1468 1469 1474
3562 1 1471 1468 1469 1472
3563 1 1471 1468 1469 1473
3564 1 1471 1468 1469 1474
3565 1 1472 1469 1474 1475
3566 1 1472 1469 1474 1476
3567 1 1472 1469 1474 1477
3568 1 1473 1469 1474 1475
3569 1 1473 1469 1474 1476
3570 1 1473 1469 1474 1477
3571 1 1474 1475 1480 1481
3572 1 1474 1475 1480 1482
3573 1 1474 1475 1480 1483
3574 1 1475 1480 1481 1484
3575 1 1475 1480 1481 1485
3576 1 1475 1480 1481 1486
3577 1 1476 1474 1475 1478
3578 1 1476 1474 1475 1479
3579 1 1476 1474 1475 1480
3580 1 1477 1474 1475 1478
3581 1 1477 1474 1475 1479
3582 1 1477 1474 1475 1480
3583 1 1478 1475 1480 1481
3584 1 1478 1475 1480 1482
3585 1 1478 1475 1480 1483
3586 1 1479 1475 1480 1481
3587 1 1479 1475 1480 1482
3588 1 1479 1475 1480 1483
3589 1 1480 1481 1486 1487
3590 1 1480 1481 1486 1488
3591 1 1480 1481 1486 1489
3592 1 1481 1486 1487 1490
3593 1 1481 1486 1487 1491
3594 1 1481 1486 1487 1492
3595 1 1482 1480 1481 1484
3596 1 1482 1480 1481 1485
3597 1 1482 1480 1481 1486
3598 1 1483 1480 1481 1484
3599 1 1483 1480 1481 1485
3600 1 1483 1480 1481 1486
3601 1 1484 1481 1486 1487
3602 1 1484 1481 1486 1488
3603 1 1484 1481 1486 1489
3604 1 1485 1481 1486 1487
3605 1 1485 1481 1486 1488
3606 1 1485 1481 1486 1489
3607 1 1486 1487 1492 1493
3608 1 1486 1487 1492 1494
3609 1 1486 1487 1492 1495
3610 1 1487 1492 1493 1496
3611 1 1487 1492 1493 1497
3612 1 1488 1486 1487 1490
3613 1 1488 1486 1487 1491
3614 1 1488 1486 1487 1492
3615 1 1489 1486 1487 1490
3616 1 1489 1486 1487 1491
3617 1 1489 1486 1487 1492
3618 1 1490 1487 1492 1493
3619 1 1490 1487 1492 1494
3620 1 1490 1487 1492 1495
3621 1 1491 1487 1492 1493
3622 1 1491 1487 1492 1494
3623 1 1491 1487 1492 1495
3624 1 1494 1492 1493 1496
3625 1 1494 1492 1493 1497
3626 1 1495 1492 1493 1496
3627 1 1495 1492 1493 1497
3628 1 1499 1500 1505 1506
3629 1 1499 1500 1505 1507
3630 1 1499 1500 1505 1508
3631 1 1500 1505 1506 1509
3632 1 1500 1505 1506 1510
3633 1 1500 1505 1506 1511
3634 1 1501 1499 1500 1503
3635 1 1501 1499 1500 1504
3636 1 1501 1499 1500 1505
3637 1 1502 1499 1500 1503
3638 1 1502 1499 1500 1504
3639 1 1502 1499 1500 1505
3640 1 1503 1500 1505 1506
3641 1 1503 1500 1505 1507
3642 1 1503 1500 1505 1508
3643 1 1504 1500 1505 1506
3644 1 1504 1500 1505 1507
3645 1 1504 1500 1505 1508
3646 1 1505 1506 1511 1512
3647 1 1505 1506 1511 1513
3648 1 1505 1506 1511 1514
3649 1 1506 1511 1512 1515
3650 1 1506 1511 1512 1516
3651 1 1506 1511 1512 1517
3652 1 1507 1505 1506 1509
3653 1 1507 1505 1506 1510
3654 1 1507 1505 1506 1511
3655 1 1508 1505 1506 1509
3656 1 1508 1505 1506 1510
3657 1 1508 1505 1506 1511
3658 1 1509 1506 1511 1512
3659 1 1509 1506 1511 1513
3660 1 1509 1506 1511 1514
3661 1 1510 1506 1511 1512
3662 1 1510 1506 1511 1513
3663 1 1510 1506 1511 1514
3664 1 1511 1512 1517 1518
3665 1 1511 1512 1517 1519
3666 1 1511 1512 1517 1520
3667 1 1512 1517 1518 1521
3668 1 1512 1517 1518 1522
3669 1 1512 1517 1518 1523
3670 1 1513 1511 1512 1515
3671 1 1513 1511 1512 1516
3672 1 1513 1511 1512 1517
3673 1 1514 1511 1512 1515
3674 1 1514 1511 1512 1516
3675 1 1514 1511 1512 1517
3676 1 1515 1512 1517 1518
3677 1 1515 1512 1517 1519
3678 1 1515 1512 1517 1520
3679 1 1516 1512 1517 1518
3680 1 1516 1512 1517 1519
3681 1 1516 1512 1517 1520
3682 1 1517 1518 1523 1524
3683 1 1517 1518 1523 1525
3684 1 1517 1518 1523 1526
3685 1 1518 1523 1524 1527
3686 1 1518 1523 1524 1528
3687 1 1519 1517 1518 1521
3688 1 1519 1517 1518 1522
3689 1 1519 1517 1518 1523
3690 1 1520 1517 1518 1521
3691 1 1520 1517 1518 1522
3692 1 1520 1517 1518 1523
3693 1 1521 1518 1523 1524
3694 1 1521 1518 1523 1525
3695 1 1521 1518 1523 1526
3696 1 1522 1518 1523 1524
3697 1 1522 1518 1523 1525
3698 1 1522 1518 1523 1526
3699 1 1525 1523 1524 1527
3700 1 1525 1523 1524 1528
3701 1 1526 1523 1524 1527
3702 1 1526 1523 1524 1528
3703 1 1532 1530 1531 1534
3704 1 1532 1530 1531 1535
3705 1 1532 1530 1531 1536
3706 1 1533 1530 1531 1534
3707 1 1533 1530 1531 1535
3708 1 1533 1530 1531 1536
3709 1 1537 1538 1530 1531
3710 1 1537 1538 1530 1532
3711 1 1537 1538 1530 1533
3712 1 1538 1530 1531 1534
3713 1 1538 1530 1531 1535
3714 1 1538 1530 1531 1536
3715 1 1539 1537 1538 1530
3716 1 1539 1537 1538 1541
3717 1 1539 1537 1538 1542
3718 1 1540 1537 1538 1530
3719 1 1540 1537 1538 1541
3720 1 1540 1537 1538 1542
3721 1 1541 1538 1530 1531
3722 1 1541 1538 1530 1532
3723 1 1541 1538 1530 1533
3724 1 1542 1538 1530 1531
3725 1 1542 1538 1530 1532
3726 1 1542 1538 1530 1533
3727 1 1543 1544 1537 1538
3728 1 1543 1544 1537 1539
3729 1 1543 1544 1537 1540
3730 1 1544 1537 1538 1530
3731 1 1544 1537 1538 1541
3732 1 1544 1537 1538 1542
3733 1 1545 1543 1544 1537
3734 1 1545 1543 1544 1547
3735 1 1545 1543 1544 1548
3736 1 1546 1543 1544 1537
3737 1 1546 1543 1544 1547
3738 1 1546 1543 1544 1548
3739 1 1547 1544 1537 1538
3740 1 1547 1544 1537 1539
3741 1 1547 1544 1537 1540
3742 1 1548 1544 1537 1538
3743 1 1548 1544 1537 1539
3744 1 1548 1544 1537 1540
3745 1 1549 1550 1543 1544
3746 1 1549 1550 1543 1545
3747 1 1549 1550 1543 1546
3748 1 1550 1543 1544 1537
3749 1 1550 1543 1544 1547
3750 1 1550 1543 1544 1548
3751 1 1551 1549 1550 1543
3752 1 1551 1549 1550 1553
3753 1 1551 1549 1550 1554
3754 1 1552 1549 1550 1543
3755 1 1552 1549 1550 1553
3756 1 1552 1549 1550 1554
3757 1 1553 1550 1543 1544
3758 1 1553 1550 1543 1545
3759 1 1553 1550 1543 1546
3760 1 1554 1550 1543 1544
3761 1 1554 1550 1543 1545
3762 1 1554 1550 1543 1546
3763 1 1555 1556 1549 1550
3764 1 1555 1556 1549 1551
3765 1 1555 1556 1549 1552
3766 1 1556 1549 1550 1543
3767 1 1556 1549 1550 1553
3768 1 1556 1549 1550 1554
3769 1 1557 1555 1556 1549
3770 1 1557 1555 1556 1559
3771 1 1557 1555 1556 1560
3772 1 1558 1555 1556 1549
3773 1 1558 1555 1556 1559
3774 1 1558 1555 1556 1560
3775 1 1559 1556 1549 1550
3776 1 1559 1556 1549 1551
3777 1 1559 1556 1549 1552
3778 1 1560 1556 1549 1550
3779 1 1560 1556 1549 1551
3780 1 1560 1556 1549 1552
3781 1 1562 1569 1570 1573
3782 1 1562 1569 1570 1574
3783 1 1562 1569 1570 1575
3784 1 1563 1562 1569 1570
3785 1 1563 1562 1569 1571
3786 1 1563 1562 1569 1572
3787 1 1564 1562 1563 1566
3788 1 1564 1562 1563 1567
3789 1 1564 1562 1563 1568
3790 1 1564 1562 1569 1570
3791 1 1564 1562 1569 1571
3792 1 1564 1562 1569 1572
3793 1 1565 1562 1563 1566
3794 1 1565 1562 1563 1567
3795 1 1565 1562 1563 1568
3796 1 1565 1562 1569 1570
3797 1 1565 1562 1569 1571
3798 1 1565 1562 1569 1572
3799 1 1569 1562 1563 1566
3800 1 1569 1562 1563 1567
3801 1 1569 1562 1563 1568
3802 1 1569 1570 1575 1576
3803 1 1569 1570 1575 1577
3804 1 1569 1570 1575 1578
3805 1 1570 1575 1576 1579
3806 1 1570 1575 1576 1580
3807 1 1570 1575 1576 1581
3808 1 1571 1569 1570 1573
3809 1 1571 1569 1570 1574
3810 1 1571 1569 1570 1575
3811 1 1572 1569 1570 1573
3812 1 1572 1569 1570 1574
3813 1 1572 1569 1570 1575
3814 1 1573 1570 1575 1576
3815 1 1573 1570 1575 1577
3816 1 1573 1570 1575 1578
3817 1 1574 1570 1575 1576
3818 1 1574 1570 1575 1577
3819 1 1574 1570 1575 1578
3820 1 1575 1576 1581 1582
3821 1 1575 1576 1581 1583
3822 1 1575 1576 1581 1584
3823 1 1576 1581 1582 1585
3824 1 1576 1581 1582 1586
3825 1 1576 1581 1582 1587
3826 1 1577 1575 1576 1579
3827 1 1577 1575 1576 1580
3828 1 1577 1575 1576 1581
3829 1 1578 1575 1576 1579
3830 1 1578 1575 1576 1580
3831 1 1578 1575 1576 1581
3832 1 1579 1576 1581 1582
3833 1 1579 1576 1581 1583
3834 1 1579 1576 1581 1584
3835 1 1580 1576 1581 1582
3836 1 1580 1576 1581 1583
3837 1 1580 1576 1581 1584
3838 1 1581 1582 1587 1588
3839 1 1581 1582 1587 1589
3840 1 1581 1582 1587 1590
3841 1 1582 1587 1588 1591
3842 1 1582 1587 1588 1592
3843 1 1583 1581 1582 1585
3844 1 1583 1581 1582 1586
3845 1 1583 1581 1582 1587
3846 1 1584 1581 1582 1585
3847 1 1584 1581 1582 1586
3848 1 1584 1581 1582 1587
3849 1 1585 1582 1587 1588
3850 1 1585 1582 1587 1589
3851 1 1585 1582 1587 1590
3852 1 1586 1582 1587 1588
3853 1 1586 1582 1587 1589
3854 1 1586 1582 1587 1590
3855 1 1589 1587 1588 1591
3856 1 1589 1587 1588 1592
3857 1 1590 1587 1588 1591
3858 1 1590 1587 1588 1592
3859 1 1594 1595 1600 1601
3860 1 1594 1595 1600 1602
3861 1 1594 1595 1600 1603
3862 1 1595 1600 1601 1604
3863 1 1595 1600 1601 1605
3864 1 1595 1600 1601 1606
3865 1 1596 1594 1595 1598
3866 1 1596 1594 1595 1599
3867 1 1596 1594 1595 1600
3868 1 1597 1594 1595 1598
3869 1 1597 1594 1595 1599
3870 1 1597 1594 1595 1600
3871 1 1598 1595 1600 1601
3872 1 1598 1595 1600 1602
3873 1 1598 1595 1600 1603
3874 1 1599 1595 1600 1601
3875 1 1599 1595 1600 1602
3876 1 1599 1595 1600 1603
3877 1 1600 1601 1606 1607
3878 1 1600 1601 1606 1608
3879 1 1600 1601 1606 1609
3880 1 1601 1606 1607 1610
3881 1 1601 1606 1607 1611
3882 1 1601 1606 1607 1612
3883 1 1602 1600 1601 1604
3884 1 1602 1600 1601 1605
3885 1 1602 1600 1601 1606
3886 1 1603 1600 1601 1604
3887 1 1603 1600 1601 1605
3888 1 1603 1600 1601 1606
3889 1 1604 1601 1606 1607
3890 1 1604 1601 1606 1608
3891 1 1604 1601 1606 1609
3892 1 1605 1601 1606 1607
3893 1 1605 1601 1606 1608
3894 1 1605 1601 1606 1609
3895 1 1606 1607 1612 1613
3896 1 1606 1607 1612 1614
3897 1 1606 1607 1612 1615
3898 1 1607 1612 1613 1616
3899 1 1607 1612 1613 1617
3900 1 1607 1612 1613 1618
3901 1 1608 1606 1607 1610
3902 1 1608 1606 1607 1611
3903 1 1608 1606 1607 1612
3904 1 1609 1606 1607 1610
3905 1 1609 1606 1607 1611
3906 1 1609 1606 1607 1612
3907 1 1610 1607 1612 1613
3908 1 1610 1607 1612 1614
3909 1 1610 1607 1612 1615
3910 1 1611 1607 1612 1613
3911 1 1611 1607 1612 1614
3912 1 1611 1607 1612 1615
3913 1 1612 1613 1618 1619
3914 1 1612 1613 1618 1620
3915 1 1612 1613 1618 1621
3916 1 1613 1618 1619 1622
3917 1 1613 1618 1619 1623
3918 1 1614 1612 1613 1616
3919 1 1614 1612 1613 1617
3920 1 1614 1612 1613 1618
3921 1 1615 1612 1613 1616
3922 1 1615 1612 1613 1617
3923 1 1615 1612 1613 1618
3924 1 1616 1613 1618 1619
3925 1 1616 1613 1618 1620
3926 1 1616 1613 1618 1621
3927 1 1617 1613 1618 1619
3928 1 1617 1613 1618 1620
3929 1 1617 1613 1618 1621
3930 1 1620 1618 1619 1622
3931 1 1620 1618 1619 1623
3932 1 1621 1618 1619 1622
3933 1 1621 1618 1619 1623
3934 1 1625 1626 1631 1632
3935 1 1625 1626 1631 1633
3936 1 1625 1626 1631 1634
3937 1 1626 1631 1632 1635
3938 1 1626 1631 1632 1636
3939 1 1626 1631 1632 1637
3940 1 1627 1625 1626 1629
3941 1 1627 1625 1626 1630
3942 1 1627 1625 1626 1631
3943 1 1628 1625 1626 1629
3944 1 1628 1625 1626 1630
3945 1 1628 1625 1626 1631
3946 1 1629 1626 1631 1632
3947 1 1629 1626 1631 1633
3948 1 1629 1626 1631 1634
3949 1 1630 1626 1631 1632
3950 1 1630 1626 1631 1633
3951 1 1630 1626 1631 1634
3952 1 1631 1632 1637 1638
3953 1 1631 1632 1637 1639
3954 1 1631 1632 1637 1640
3955 1 1632 1637 1638 1641
3956 1 1632 1637 1638 1642
3957 1 1632 1637 1638 1643
3958 1 1633 1631 1632 1635
3959 1 1633 1631 1632 1636
3960 1 1633 1631 1632 1637
3961 1 1634 1631 1632 1635
3962 1 1634 1631 1632 1636
3963 1 1634 1631 1632 1637
3964 1 1635 1632 1637 1638
3965 1 1635 1632 1637 1639
3966 1 1635 1632 1637 1640
3967 1 1636 1632 1637 1638
3968 1 1636 1632 1637 1639
3969 1 1636 1632 1637 1640
3970 1 1637 1638 1643 1644
3971 1 1637 1638 1643 1645
3972 1 1637 1638 1643 1646
3973 1 1638 1643 1644 1647
3974 1 1638 1643 1644 1648
3975 1 1638 1643 1644 1649
3976 1 1639 1637 1638 1641
3977 1 1639 1637 1638 1642
3978 1 1639 1637 1638 1643
3979 1 1640 1637 1638 1641
3980 1 1640 1637 1638 1642
3981 1 1640 1637 1638 1643
3982 1 1641 1638 1643 1644
3983 1 1641 1638 1643 1645
3984 1 1641 1638 1643 1646
3985 1 1642 1638 1643 1644
3986 1 1642 1638 1643 1645
3987 1 1642 1638 1643 1646
3988 1 1643 1644 1649 1650
3989 1 1643 1644 1649 1651
3990 1 1643 1644 1649 1652
3991 1 1644 1649 1650 1653
3992 1 1644 1649 1650 1654
3993 1 1645 1643 1644 1647
3994 1 1645 1643 1644 1648
3995 1 1645 1643 1644 1649
3996 1 1646 1643 1644 1647
3997 1 1646 1643 1644 1648
3998 1 1646 1643 1644 1649
3999 1 1647 1644 1649 1650
4000 1 1647 1644 1649 1651
4001 1 1647 1644 1649 1652
4002 1 1648 1644 1649 1650
4003 1 1648 1644 1649 1651
4004 1 1648 1644 1649 1652
4005 1 1651 1649 1650 1653
4006 1 1651 1649 1650 1654
4007 1 1652 1649 1650 1653
4008 1 1652 1649 1650 1654
4009 1 1656 1657 1662 1663
4010 1 1656 1657 1662 1664
4011 1 1656 1657 1662 1665
4012 1 1657 1662 1663 1666
4013 1 1657 1662 1663 1667
4014 1 1657 1662 1663 1668
4015 1 1658 1656 1657 1660
4016 1 1658 1656 1657 1661
4017 1 1658 1656 1657 1662
4018 1 1659 1656 1657 1660
4019 1 1659 1656 1657 1661
4020 1 1659 1656 1657 1662
4021 1 1660 1657 1662 1663
4022 1 1660 1657 1662 1664
4023 1 1660 1657 1662 1665
4024 1 1661 1657 1662 1663
4025 1 1661 1657 1662 1664
4026 1 1661 1657 1662 1665
4027 1 1662 1663 1668 1669
4028 1 1662 1663 1668 1670
4029 1 1662 1663 1668 1671
4030 1 1663 1668 1669 1672
4031 1 1663 1668 1669 1673
4032 1 1663 1668 1669 1674
4033 1 1664 1662 1663 1666
4034 1 1664 1662 1663 1667
4035 1 1664 1662 1663 1668
4036 1 1665 1662 1663 1666
4037 1 1665 1662 1663 1667
4038 1 1665 1662 1663 1668
4039 1 1666 1663 1668 1669
4040 1 1666 1663 1668 1670
4041 1 1666 1663 1668 1671
4042 1 1667 1663 1668 1669
4043 1 1667 1663 1668 1670
4044 1 1667 1663 1668 1671
4045 1 1668 1669 1674 1675
4046 1 1668 1669 1674 1676
4047 1 1668 1669 1674 1677
4048 1 1669 1674 1675 1678
4049 1 1669 1674 1675 1679
4050 1 1669 1674 1675 1680
4051 1 1670 1668 1669 1672
4052 1 1670 1668 1669 1673
4053 1 1670 1668 1669 1674
4054 1 1671 1668 1669 1672
4055 1 1671 1668 1669 1673
4056 1 1671 1668 1669 1674
4057 1 1672 1669 1674 1675
4058 1 1672 1669 1674 1676
4059 1 1672 1669 1674 1677
4060 1 1673 1669 1674 1675
4061 1 1673 1669 1674 1676
4062 1 1673 1669 1674 1677
4063 1 1674 1675 1680 1681
4064 1 1674 1675 1680 1682
4065 1 1674 1675 1680 1683
4066 1 1675 1680 1681 1684
4067 1 1675 1680 1681 1685
4068 1 1676 1674 1675 1678
4069 1 1676 1674 1675 1679
4070 1 1676 1674 1675 1680
4071 1 1677 1674 1675 1678
4072 1 1677 1674 1675 1679
4073 1 1677 1674 1675 1680
4074 1 1678 1675 1680 1681
4075 1 1678 1675 1680 1682
4076 1 1678 1675 1680 1683
4077 1 1679 1675 1680 1681
4078 1 1679 1675 1680 1682
4079 1 1679 1675 1680 1683
4080 1 1682 1680 1681 1684
4081 1 1682 1680 1681 1685
4082 1 1683 1680 1681 1684
4083 1 1683 1680 1681 1685
4084 1 1687 1688 1693 1694
4085 1 1687 1688 1693 1695
4086 1 1687 1688 1693 1696
4087 1 1688 1693 1694 1697
4088 1 1688 1693 1694 1698
4089 1 1688 1693 1694 1699
4090 1 1689 1687 1688 1691
4091 1 1689 1687 1688 1692
4092 1 1689 1687 1688 1693
4093 1 1690 1687 1688 1691
4094 1 1690 1687 1688 1692
4095 1 1690 1687 1688 1693
4096 1 1691 1688 1693 1694
4097 1 1691 1688 1693 1695
4098 1 1691 1688 1693 1696
4099 1 1692 1688 1693 1694
4100 1 1692 1688 1693 1695
4101 1 1692 1688 1693 1696
4102 1 1693 1694 1699 1700
4103 1 1693 1694 1699 1701
4104 1 1693 1694 1699 1702
4105 1 1694 1699 1700 1703
4106 1 1694 1699 1700 1704
4107 1 1694 1699 1700 1705
4108 1 1695 1693 1694 1697
4109 1 1695 1693 1694 1698
4110 1 1695 1693 1694 1699
4111 1 1696 1693 1694 1697
4112 1 1696 1693 1694 1698
4113 1 1696 1693 1694 1699
4114 1 1697 1694 1699 1700
4115 1 1697 1694 1699 1701
4116 1 1697 1694 1699 1702
4117 1 1698 1694 1699 1700
4118 1 1698 1694 1699 1701
4119 1 1698 1694 1699 1702
4120 1 1699 1700 1705 1706
4121 1 1699 1700 1705 1707
4122 1 1699 1700 1705 1708
4123 1 1700 1705 1706 1709
4124 1 1700 1705 1706 1710
4125 1 1700 1705 1706 1711
4126 1 1701 1699 1700 1703
4127 1 1701 1699 1700 1704
4128 1 1701 1699 1700 1705
4129 1 1702 1699 1700 1703
4130 1 1702 1699 1700 1704
4131 1 1702 1699 1700 1705
4132 1 1703 1700 1705 1706
4133 1 1703 1700 1705 1707
4134 1 1703 1700 1705 1708
4135 1 1704 1700 1705 1706
4136 1 1704 1700 1705 1707
4137 1 1704 1700 1705 1708
4138 1 1705 1706 1711 1712
4139 1 1705 1706 1711 1713
4140 1 1705 1706 1711 1714
4141 1 1706 1711 1712 1715
4142 1 1706 1711 1712 1716
4143 1 1707 1705 1706 1709
4144 1 1707 1705 1706 1710
4145 1 1707 1705 1706 1711
4146 1 1708 1705 1706 1709
4147 1 1708 1705 1706 1710
4148 1 1708 1705 1706 1711
4149 1 1709 1706 1711 1712
4150 1 1709 1706 1711 1713
4151 1 1709 1706 1711 1714
4152 1 1710 1706 1711 1712
4153 1 1710 1706 1711 1713
4154 1 1710 1706 1711 1714
4155 1 1713 1711 1712 1715
4156 1 1713 1711 1712 1716
4157 1 1714 1711 1712 1715
4158 1 1714 1711 1712 1716
4159 1 1718 1719 1724 1725
4160 1 1718 1719 1724 1726
4161 1 1718 1719 1724 1727
4162 1 1719 1724 1725 1728
4163 1 1719 1724 1725 1729
4164 1 1719 1724 1725 1730
4165 1 1720 1718 1719 1722
4166 1 1720 1718 1719 1723
4167 1 1720 1718 1719 1724
4168 1 1721 1718 1719 1722
4169 1 1721 1718 1719 1723
4170 1 1721 1718 1719 1724
4171 1 1722 1719 1724 1725
4172 1 1722 1719 1724 1726
4173 1 1722 1719 1724 1727
4174 1 1723 1719 1724 1725
4175 1 1723 1719 1724 1726
4176 1 1723 1719 1724 1727
4177 1 1724 1725 1730 1731
4178 1 1724 1725 1730 1732
4179 1 1724 1725 1730 1733
4180 1 1725 1730 1731 1734
4181 1 1725 1730 1731 1735
4182 1 1725 1730 1731 1736
4183 1 1726 1724 1725 1728
4184 1 1726 1724 1725 1729
4185 1 1726 1724 1725 1730
4186 1 1727 1724 1725 1728
4187 1 1727 1724 1725 1729
4188 1 1727 1724 1725 1730
4189 1 1728 1725 1730 1731
4190 1 1728 1725 1730 1732
4191 1 1728 1725 1730 1733
4192 1 1729 1725 1730 1731
4193 1 1729 1725 1730 1732
4194 1 1729 1725 1730 1733
4195 1 1730 1731 1736 1737
4196 1 1730 1731 1736 1738
4197 1 1730 1731 1736 1739
4198 1 1731 1736 1737 1740
4199 1 1731 1736 1737 1741
4200 1 1731 1736 1737 1742
4201 1 1732 1730 1731 1734
4202 1 1732 1730 1731 1735
4203 1 1732 1730 1731 1736
4204 1 1733 1730 1731 1734
4205 1 1733 1730 1731 1735
4206 1 1733 1730 1731 1736
4207 1 1734 1731 1736 1737
4208 1 1734 1731 1736 1738
4209 1 1734 1731 1736 1739
4210 1 1735 1731 1736 1737
4211 1 1735 1731 1736 1738
4212 1 1735 1731 1736 1739
4213 1 1736 1737 1742 1743
4214 1 1736 1737 1742 1744
4215 1 1736 1737 1742 1745
4216 1 1737 1742 1743 1746
4217 1 1737 1742 1743 1747
4218 1 1738 1736 1737 1740
4219 1 1738 1736 1737 1741
4220 1 1738 1736 1737 1742
4221 1 1739 1736 1737 1740
4222 1 1739 1736 1737 1741
4223 1 1739 1736 1737 1742
4224 1 1740 1737 1742 1743
4225 1 1740 1737 1742 1744
4226 1 1740 1737 1742 1745
4227 1 1741 1737 1742 1743
4228 1 1741 1737 1742 1744
4229 1 1741 1737 1742 1745
4230 1 1744 1742 1743 1746
4231 1 1744 1742 1743 1747
4232 1 1745 1742 1743 1746
4233 1 1745 1742 1743 1747
4234 1 1749 1750 1755 1756
4235 1 1749 1750 1755 1757
4236 1 1749 1750 1755 1758
4237 1 1750 1755 1756 1759
4238 1 1750 1755 1756 1760
4239 1 1750 1755 1756 1761
4240 1 1751 1749 1750 1753
4241 1 1751 1749 1750 1754
4242 1 1751 1749 1750 1755
4243 1 1752 1749 1750 1753
4244 1 1752 1749 1750 1754
4245 1 1752 1749 1750 1755
4246 1 1753 1750 1755 1756
4247 1 1753 1750 1755 1757
4248 1 1753 1750 1755 1758
4249 1 1754 1750 1755 1756
4250 1 1754 1750 1755 1757
4251 1 1754 1750 1755 1758
4252 1 1755 1756 1761 1762
4253 1 1755 1756 1761 1763
4254 1 1755 1756 1761 1764
4255 1 1756 1761 1762 1765
4256 1 1756 1761 1762 1766
4257 1 1756 1761 1762 1767
4258 1 1757 1755 1756 1759
4259 1 1757 1755 1756 1760
4260 1 1757 1755 1756 1761
4261 1 1758 1755 1756 1759
4262 1 1758 1755 1756 1760
4263 1 1758 1755 1756 1761
4264 1 1759 1756 1761 1762
4265 1 1759 1756 1761 1763
4266 1 1759 1756 1761 1764
4267 1 1760 1756 1761 1762
4268 1 1760 1756 1761 1763
4269 1 1760 1756 1761 1764
4270 1 1761 1762 1767 1768
4271 1 1761 1762 1767 1769
4272 1 1761 1762 1767 1770
4273 1 1762 1767 1768 1771
4274 1 1762 1767 1768 1772
4275 1 1762 1767 1768 1773
4276 1 1763 1761 1762 1765
4277 1 1763 1761 1762 1766
4278 1 1763 1761 1762 1767
4279 1 1764 1761 1762 1765
4280 1 1764 1761 1762 1766
4281 1 1764 1761 1762 1767
4282 1 1765 1762 1767 1768
4283 1 1765 1762 1767 1769
4284 1 1765 1762 1767 1770
4285 1 1766 1762 1767 1768
4286 1 1766 1762 1767 1769
4287 1 1766 1762 1767 1770
4288 1 1767 1768 1773 1774
4289 1 1767 1768 1773 1775
4290 1 1767 1768 1773 1776
4291 1 1768 1773 1774 1777
4292 1 1768 1773 1774 1778
4293 1 1769 1767 1768 1771
4294 1 1769 1767 1768 1772
4295 1 1769 1767 1768 1773
4296 1 1770 1767 1768 1771
4297 1 1770 1767 1768 1772
4298 1 1770 1767 1768 1773
4299 1 1771 1768 1773 1774
4300 1 1771 1768 1773 1775
4301 1 1771 1768 1773 1776
4302 1 1772 1768 1773 1774
4303 1 1772 1768 1773 1775
4304 1 1772 1768 1773 1776
4305 1 1775 1773 1774 1777
4306 1 1775 1773 1774 1778
4307 1 1776 1773 1774 1777
4308 1 1776 1773 1774 1778
4309 1 1780 1781 1786 1787
4310 1 1780 1781 1786 1788
4311 1 1780 1781 1786 1789
4312 1 1781 1786 1787 1790
4313 1 1781 1786 1787 1791
4314 1 1781 1786 1787 1792
4315 1 1782 1780 1781 1784
4316 1 1782 1780 1781 1785
4317 1 1782 1780 1781 1786
4318 1 1783 1780 1781 1784
4319 1 1783 1780 1781 1785
4320 1 1783 1780 1781 1786
4321 1 1784 1781 1786 1787
4322 1 1784 1781 1786 1788
4323 1 1784 1781 1786 1789
4324 1 1785 1781 1786 1787
4325 1 1785 1781 1786 1788
4326 1 1785 1781 1786 1789
4327 1 1786 1787 1792 1793
4328 1 1786 1787 1792 1794
4329 1 1786 1787 1792 1795
4330 1 1787 1792 1793 1796
4331 1 1787 1792 1793 1797
4332 1 1787 1792 1793 1798
4333 1 1788 1786 1787 1790
4334 1 1788 1786 1787 1791
4335 1 1788 1786 1787 1792
4336 1 1789 1786 1787 1790
4337 1 1789 1786 1787 1791
4338 1 1789 1786 1787 1792
4339 1 1790 1787 1792 1793
4340 1 1790 1787 1792 1794
4341 1 1790 1787 1792 1795
4342 1 1791 1787 1792 1793
4343 1 1791 1787 1792 1794
4344 1 1791 1787 1792 1795
4345 1 1792 1793 1798 1799
4346 1 1792 1793 1798 1800
4347 1 1792 1793 1798 1801
4348 1 1793 1798 1799 1802
4349 1 1793 1798 1799 1803
4350 1 1793 1798 1799 1804
4351 1 1794 1792 1793 1796
4352 1 1794 1792 1793 1797
4353 1 1794 1792 1793 1798
4354 1 1795 1792 1793 1796
4355 1 1795 1792 1793 1797
4356 1 1795 1792 1793 1798
4357 1 1796 1793 1798 1799
4358 1 1796 1793 1798 1800
4359 1 1796 1793 1798 1801
4360 1 1797 1793 1798 1799
4361 1 1797 1793 1798 1800
4362 1 1797 1793 1798 1801
4363 1 1798 1799 1804 1805
4364 1 1798 1799 1804 1806
4365 1 1798 1799 1804 1807
4366 1 1799 1804 1805 1808
4367 1 1799 1804 1805 1809
4368 1 1800 1798 1799 1802
4369 1 1800 1798 1799 1803
4370 1 1800 1798 1799 1804
4371 1 1801 1798 1799 1802
4372 1 1801 1798 1799 1803
4373 1 1801 1798 1799 1804
4374 1 1802 1799 1804 1805
4375 1 1802 1799 1804 1806
4376 1 1802 1799 1804 1807
4377 1 1803 1799 1804 1805
4378 1 1803 1799 1804 1806
4379 1 1803 1799 1804 1807
4380 1 1806 1804 1805 1808
4381 1 1806 1804 1805 1809
4382 1 1807 1804 1805 1808
4383 1 1807 1804 1805 1809
4384 1 1811 1812 1817 1818
4385 1 1811 1812 1817 1819
4386 1 1811 1812 1817 1820
4387 1 1812 1817 1818 1821
4388 1 1812 1817 1818 1822
4389 1 1812 1817 1818 1823
4390 1 1813 1811 1812 1815
4391 1 1813 1811 1812 1816
4392 1 1813 1811 1812 1817
4393 1 1814 1811 1812 1815
4394 1 1814 1811 1812 1816
4395 1 1814 1811 1812 1817
4396 1 1815 1812 1817 1818
4397 1 1815 1812 1817 1819
4398 1 1815 1812 1817 1820
4399 1 1816 1812 1817 1818
4400 1 1816 1812 1817 1819
4401 1 1816 1812 1817 1820
4402 1 1817 1818 1823 1824
4403 1 1817 1818 1823 1825
4404 1 1817 1818 1823 1826
4405 1 1818 1823 1824 1827
4406 1 1818 1823 1824 1828
4407 1 1818 1823 1824 1829
4408 1 1819 1817 1818 1821
4409 1 1819 1817 1818 1822
4410 1 1819 1817 1818 1823
4411 1 1820 1817 1818 1821
4412 1 1820 1817 1818 1822
4413 1 1820 1817 1818 1823
4414 1 1821 1818 1823 1824
4415 1 1821 1818 1823 1825
4416 1 1821 1818 1823 1826
4417 1 1822 1818 1823 1824
4418 1 1822 1818 1823 1825
4419 1 1822 1818 1823 1826
4420 1 1823 1824 1829 1830
4421 1 1823 1824 1829 1831
4422 1 1823 1824 1829 1832
4423 1 1824 1829 1830 1833
4424 1 1824 1829 1830 1834
4425 1 1824 1829 1830 1835
4426 1 1825 1823 1824 1827
4427 1 1825 1823 1824 1828
4428 1 1825 1823 1824 1829
4429 1 1826 1823 1824 1827
4430 1 1826 1823 1824 1828
4431 1 1826 1823 1824 1829
4432 1 1827 1824 1829 1830
4433 1 1827 1824 1829 1831
4434 1 1827 1824 1829 1832
4435 1 1828 1824 1829 1830
4436 1 1828 1824 1829 1831
4437 1 1828 1824 1829 1832
4438 1 1829 1830 1835 1836
4439 1 1829 1830 1835 1837
4440 1 1829 1830 1835 1838
4441 1 1830 1835 1836 1839
4442 1 1830 1835 1836 1840
4443 1 1831 1829 1830 1833
4444 1 1831 1829 1830 1834
4445 1 1831 1829 1830 1835
4446 1 1832 1829 1830 1833
4447 1 1832 1829 1830 1834
4448 1 1832 1829 1830 1835
4449 1 1833 1830 1835 1836
4450 1 1833 1830 1835 1837
4451 1 1833 1830 1835 1838
4452 1 1834 1830 1835 1836
4453 1 1834 1830 1835 1837
4454 1 1834 1830 1835 1838
4455 1 1837 1835 1836 1839
4456 1 1837 1835 1836 1840
4457 1 1838 1835 1836 1839
4458 1 1838 1835 1836 1840
4459 1 1844 1842 1843 1846
4460 1 1844 1842 1843 1847
4461 1 1844 1842 1843 1848
4462 1 1845 1842 1843 1846
4463 1 1845 1842 1843 1847
4464 1 1845 1842 1843 1848
4465 1 1849 1850 1842 1843
4466 1 1849 1850 1842 1844
4467 1 1849 1850 1842 1845
4468 1 1850 1842 1843 1846
4469 1 1850 1842 1843 1847
4470 1 1850 1842 1843 1848
4471 1 1851 1849 1850 1842
4472 1 1851 1849 1850 1853
4473 1 1851 1849 1850 1854
4474 1 1852 1849 1850 1842
4475 1 1852 1849 1850 1853
4476 1 1852 1849 1850 1854
4477 1 1853 1850 1842 1843
4478 1 1853 1850 1842 1844
4479 1 1853 1850 1842 1845
4480 1 1854 1850 1842 1843
4481 1 1854 1850 1842 1844
4482 1 1854 1850 1842 1845
4483 1 1855 1856 1849 1850
4484 1 1855 1856 1849 1851
4485 1 1855 1856 1849 1852
4486 1 1856 1849 1850 1842
4487 1 1856 1849 1850 1853
4488 1 1856 1849 1850 1854
4489 1 1857 1855 1856 1849
4490 1 1857 1855 1856 1859
4491 1 1857 1855 1856 1860
4492 1 1858 1855 1856 1849
4493 1 1858 1855 1856 1859
4494 1 1858 1855 1856 1860
4495 1 1859 1856 1849 1850
4496 1 1859 1856 1849 1851
4497 1 1859 1856 1849 1852
4498 1 1860 1856 1849 1850
4499 1 1860 1856 1849 1851
4500 1 1860 1856 1849 1852
4501 1 1861 1862 1855 1856
4502 1 1861 1862 1855 1857
4503 1 1861 1862 1855 1858
4504 1 1862 1855 1856 1849
4505 1 1862 1855 1856 1859
4506 1 1862 1855 1856 1860
4507 1 1863 1861 1862 1855
4508 1 1863 1861 1862 1865
4509 1 1863 1861 1862 1866
4510 1 1864 1861 1862 1855
4511 1 1864 1861 1862 1865
4512 1 1864 1861 1862 1866
4513 1 1865 1862 1855 1856
4514 1 1865 1862 1855 1857
4515 1 1865 1862 1855 1858
4516 1 1866 1862 1855 1856
4517 1 1866 1862 1855 1857
4518 1 1866 1862 1855 1858
4519 1 1867 1868 1861 1862
4520 1 1867 1868 1861 1863
4521 1 1867 1868 1861 1864
4522 1 1868 1861 1862 1855
4523 1 1868 1861 1862 1865
4524 1 1868 1861 1862 1866
4525 1 1869 1867 1868 1861
4526 1 1869 1867 1868 1871
4527 1 1869 1867 1868 1872
4528 1 1870 1867 1868 1861
4529 1 1870 1867 1868 1871
4530 1 1870 1867 1868 1872
4531 1 1871 1868 1861 1862
4532 1 1871 1868 1861 1863
4533 1 1871 1868 1861 1864
4534 1 1872 1868 1861 1862
4535 1 1872 1868 1861 1863
4536 1 1872 1868 1861 1864
4537 1 1874 1881 1882 1885
4538 1 1874 1881 1882 1886
4539 1 1874 1881 1882 1887
4540 1 1875 1874 1881 1882
4541 1 1875 1874 1881 1883
4542 1 1875 1874 1881 1884
4543 1 1876 1874 1875 1878
4544 1 1876 1874 1875 1879
4545 1 1876 1874 1875 1880
4546 1 1876 1874 1881 1882
4547 1 1876 1874 1881 1883
4548 1 1876 1874 1881 1884
4549 1 1877 1874 1875 1878
4550 1 1877 1874 1875 1879
4551 1 1877 1874 1875 1880
4552 1 1877 1874 1881 1882
4553 1 1877 1874 1881 1883
4554 1 1877 1874 1881 1884
4555 1 1881 1874 1875 1878
4556 1 1881 1874 1875 1879
4557 1 1881 1874 1875 1880
4558 1 1881 1882 1887 1888
4559 1 1881 1882 1887 1889
4560 1 1881 1882 1887 1890
4561 1 1882 1887 1888 1891
4562 1 1882 1887 1888 1892
4563 1 1882 1887 1888 1893
4564 1 1883 1881 1882 1885
4565 1 1883 1881 1882 1886
4566 1 1883 1881 1882 1887
4567 1 1884 1881 1882 1885
4568 1 1884 1881 1882 1886
4569 1 1884 1881 1882 1887
4570 1 1885 1882 1887 1888
4571 1 1885 1882 1887 1889
4572 1 1885 1882 1887 1890
4573 1 1886 1882 1887 1888
4574 1 1886 1882 1887 1889
4575 1 1886 1882 1887 1890
4576 1 1887 1888 1893 1894
4577 1 1887 1888 1893 1895
4578 1 1887 1888 1893 1896
4579 1 1888 1893 1894 1897
4580 1 1888 1893 1894 1898
4581 1 1888 1893 1894 1899
4582 1 1889 1887 1888 1891
4583 1 1889 1887 1888 1892
4584 1 1889 1887 1888 1893
4585 1 1890 1887 1888 1891
4586 1 1890 1887 1888 1892
4587 1 1890 1887 1888 1893
4588 1 1891 1888 1893 1894
4589 1 1891 1888 1893 1895
4590 1 1891 1888 1893 1896
4591 1 1892 1888 1893 1894
4592 1 1892 1888 1893 1895
4593 1 1892 1888 1893 1896
4594 1 1893 1894 1899 1900
4595 1 1893 1894 1899 1901
4596 1 1893 1894 1899 1902
4597 1 1894 1899 1900 1903
4598 1 1894 1899 1900 1904
4599 1 1895 1893 1894 1897
4600 1 1895 1893 1894 1898
4601 1 1895 1893 1894 1899
4602 1 1896 1893 1894 1897
4603 1 1896 1893 1894 1898
4604 1 1896 1893 1894 1899
4605 1 1897 1894 1899 1900
4606 1 1897 1894 1899 1901
4607 1 1897 1894 1899 1902
4608 1 1898 1894 1899 1900
4609 1 1898 1894 1899 1901
4610 1 1898 1894 1899 1902
4611 1 1901 1899 1900 1903
4612 1 1901 1899 1900 1904
4613 1 1902 1899 1900 1903
4614 1 1902 1899 1900 1904
4615 1 1906 1907 1912 1913
4616 1 1906 1907 1912 1914
4617 1 1906 1907 1912 1915
4618 1 1907 1912 1913 1916
4619 1 1907 1912 1913 1917
4620 1 1907 1912 1913 1918
4621 1 1908 1906 1907 1910
4622 1 1908 1906 1907 1911
4623 1 1908 1906 1907 1912
4624 1 1909 1906 1907 1910
4625 1 1909 1906 1907 1911
4626 1 1909 1906 1907 1912
4627 1 1910 1907 1912 1913
4628 1 1910 1907 1912 1914
4629 1 1910 1907 1912 1915
4630 1 1911 1907 1912 1913
4631 1 1911 1907 1912 1914
4632 1 1911 1907 1912 1915
4633 1 1912 1913 1918 1919
4634 1 1912 1913 1918 1920
4635 1 1912 1913 1918 1921
4636 1 1913 1918 1919 1922
4637 1 1913 1918 1919 1923
4638 1 1913 1918 1919 1924
4639 1 1914 1912 1913 1916
4640 1 1914 1912 1913 1917
4641 1 1914 1912 1913 1918
4642 1 1915 1912 1913 1916
4643 1 1915 1912 1913 1917
4644 1 1915 1912 1913 1918
4645 1 1916 1913 1918 1919
4646 1 1916 1913 1918 1920
4647 1 1916 1913 1918 1921
4648 1 1917 1913 1918 1919
4649 1 1917 1913 1918 1920
4650 1 1917 1913 1918 1921
4651 1 1918 1919 1924 1925
4652 1 1918 1919 1924 1926
4653 1 1918 1919 1924 1927
4654 1 1919 1924 1925 1928
4655 1 1919 1924 1925 1929
4656 1 1919 1924 1925 1930
4657 1 1920 1918 1919 1922
4658 1 1920 1918 1919 1923
4659 1 1920 1918 1919 1924
4660 1 1921 1918 1919 1922
4661 1 1921 1918 1919 1923
4662 1 1921 1918 1919 1924
4663 1 1922 1919 1924 1925
4664 1 1922 1919 1924 1926
4665 1 1922 1919 1924 1927
4666 1 1923 1919 1924 1925
4667 1 1923 1919 1924 1926
4668 1 1923 1919 1924 1927
4669 1 1924 1925 1930 1931
4670 1 1924 1925 1930 1932
4671 1 1924 1925 1930 1933
4672 1 1925 1930 1931 1934
4673 1 1925 1930 1931 1935
4674 1 1926 1924 1925 1928
4675 1 1926 1924 1925 1929
4676 1 1926 1924 1925 1930
4677 1 1927 1924 1925 1928
4678 1 1927 1924 1925 1929
4679 1 1927 1924 1925 1930
4680 1 1928 1925 1930 1931
4681 1 1928 1925 1930 1932
4682 1 1928 1925 1930 1933
4683 1 1929 1925 1930 1931
4684 1 1929 1925 1930 1932
4685 1 1929 1925 1930 1933
4686 1 1932 1930 1931 1934
4687 1 1932 1930 1931 1935
4688 1 1933 1930 1931 1934
4689 1 1933 1930 1931 1935
4690 1 1937 1938 1943 1944
4691 1 1937 1938 1943 1945
4692 1 1937 1938 1943 1946
4693 1 1938 1943 1944 1947
4694 1 1938 1943 1944 1948
4695 1 1938 1943 1944 1949
4696 1 1939 1937 1938 1941
4697 1 1939 1937 1938 1942
4698 1 1939 1937 1938 1943
4699 1 1940 1937 1938 1941
4700 1 1940 1937 1938 1942
4701 1 1940 1937 1938 1943
4702 1 1941 1938 1943 1944
4703 1 1941 1938 1943 1945
4704 1 1941 1938 1943 1946
4705 1 1942 1938 1943 1944
4706 1 1942 1938 1943 1945
4707 1 1942 1938 1943 1946
4708 1 1943 1944 1949 1950
4709 1 1943 1944 1949 1951
4710 1 1943 1944 1949 1952
4711 1 1944 1949 1950 1953
4712 1 1944 1949 1950 1954
4713 1 1944 1949 1950 1955
4714 1 1945 1943 1944 1947
4715 1 1945 1943 1944 1948
4716 1 1945 1943 1944 1949
4717 1 1946 1943 1944 1947
4718 1 1946 1943 1944 1948
4719 1 1946 1943 1944 1949
4720 1 1947 1944 1949 1950
4721 1 1947 1944 1949 1951
4722 1 1947 1944 1949 1952
4723 1 1948 1944 1949 1950
4724 1 1948 1944 1949 1951
4725 1 1948 1944 1949 1952
4726 1 1949 1950 1955 1956
4727 1 1949 1950 1955 1957
4728 1 1949 1950 1955 1958
4729 1 1950 1955 1956 1959
4730 1 1950 1955 1956 1960
4731 1 1950 1955 1956 1961
4732 1 1951 1949 1950 1953
4733 1 1951 1949 1950 1954
4734 1 1951 1949 1950 1955
4735 1 1952 1949 1950 1953
4736 1 1952 1949 1950 1954
4737 1 1952 1949 1950 1955
4738 1 1953 1950 1955 1956
4739 1 1953 1950 1955 1957
4740 1 1953 1950 1955 1958
4741 1 1954 1950 1955 1956
4742 1 1954 1950 1955 1957
4743 1 1954 1950 1955 1958
4744 1 1955 1956 1961 1962
4745 1 1955 1956 1961 1963
4746 1 1955 1956 1961 1964
4747 1 1956 1961 1962 1965
4748 1 1956 1961 1962 1966
4749 1 1957 1955 1956 1959
4750 1 1957 1955 1956 1960
4751 1 1957 1955 1956 1961
4752 1 1958 1955 1956 1959
4753 1 1958 1955 1956 1960
4754 1 1958 1955 1956 1961
4755 1 1959 1956 1961 1962
4756 1 1959 1956 1961 1963
4757 1 1959 1956 1961 1964
4758 1 1960 1956 1961 1962
4759 1 1960 1956 1961 1963
4760 1 1960 1956 1961 1964
4761 1 1963 1961 1962 1965
4762 1 1963 1961 1962 1966
4763 1 1964 1961 1962 1965
4764 1 1964 1961 1962 1966
4765 1 1968 1969 1974 1975
4766 1 1968 1969 1974 1976
4767 1 1968 1969 1974 1977
4768 1 1969 1974 1975 1978
4769 1 1969 1974 1975 1979
4770 1 1969 1974 1975 1980
4771 1 1970 1968 1969 1972
4772 1 1970 1968 1969 1973
4773 1 1970 1968 1969 1974
4774 1 1971 1968 1969 1972
4775 1 1971 1968 1969 1973
4776 1 1971 1968 1969 1974
4777 1 1972 1969 1974 1975
4778 1 1972 1969 1974 1976
4779 1 1972 1969 1974 1977
4780 1 1973 1969 1974 1975
4781 1 1973 1969 1974 1976
4782 1 1973 1969 1974 1977
4783 1 1974 1975 1980 1981
4784 1 1974 1975 1980 1982
4785 1 1974 1975 1980 1983
4786 1 1975 1980 1981 1984
4787 1 1975 1980 1981 1985
4788 1 1975 1980 1981 1986
4789 1 1976 1974 1975 1978
4790 1 1976 1974 1975 1979
4791 1 1976 1974 1975 1980
4792 1 1977 1974 1975 1978
4793 1 1977 1974 1975 1979
4794 1 1977 1974 1975 1980
4795 1 1978 1975 1980 1981
4796 1 1978 1975 1980 1982
4797 1 1978 1975 1980 1983
4798 1 1979 1975 1980 1981
4799 1 1979 1975 1980 1982
4800 1 1979 1975 1980 1983
4801 1 1980 1981 1986 1987
4802 1 1980 1981 1986 1988
4803 1 1980 1981 1986 1989
4804 1 1981 1986 1987 1990
4805 1 1981 1986 1987 1991
4806 1 1981 1986 1987 1992
4807 1 1982 1980 1981 1984
4808 1 1982 1980 1981 1985
4809 1 1982 1980 1981 1986
4810 1 1983 1980 1981 1984
4811 1 1983 1980 1981 1985
4812 1 1983 1980 1981 1986
4813 1 1984 1981 1986 1987
4814 1 1984 1981 1986 1988
4815 1 1984 1981 1986 1989
4816 1 1985 1981 1986 1987
4817 1 1985 1981 1986 1988
4818 1 1985 1981 1986 1989
4819 1 1986 1987 1992 1993
4820 1 1986 1987 1992 1994
4821 1 1986 1987 1992 1995
4822 1 1987 1992 1993 1996
4823 1 1987 1992 1993 1997
4824 1 1988 1986 1987 1990
4825 1 1988 1986 1987 1991
4826 1 1988 1986 1987 1992
4827 1 1989 1986 1987 1990
4828 1 1989 1986 1987 1991
4829 1 1989 1986 1987 1992
4830 1 1990 1987 1992 1993
4831 1 1990 1987 1992 1994
4832 1 1990 1987 1992 1995
4833 1 1991 1987 1992 1993
4834 1 1991 1987 1992 1994
4835 1 1991 1987 1992 1995
4836 1 1994 1992 1993 1996
4837 1 1994 1992 1993 1997
4838 1 1995 1992 1993 1996
4839 1 1995 1992 1993 1997
4840 1 1999 2000 2005 2006
4841 1 1999 2000 2005 2007
4842 1 1999 2000 2005 2008
4843 1 2000 2005 2006 2009
4844 1 2000 2005 2006 2010
4845 1 2000 2005 2006 2011
4846 1 2001 1999 2000 2003
4847 1 2001 1999 2000 2004
4848 1 2001 1999 2000 2005
4849 1 2002 1999 2000 2003
4850 1 2002 1999 2000 2004
4851 1 2002 1999 2000 2005
4852 1 2003 2000 2005 2006
4853 1 2003 2000 2005 2007
4854 1 2003 2000 2005 2008
4855 1 2004 2000 2005 2006
4856 1 2004 2000 2005 2007
4857 1 2004 2000 2005 2008
4858 1 2005 2006 2011 2012
4859 1 2005 2006 2011 2013
4860 1 2005 2006 2011 2014
4861 1 2006 2011 2012 2015
4862 1 2006 2011 2012 2016
4863 1 2006 2011 2012 2017
4864 1 2007 2005 2006 2009
4865 1 2007 2005 2006 2010
4866 1 2007 2005 2006 2011
4867 1 2008 2005 2006 2009
4868 1 2008 2005 2006 2010
4869 1 2008 2005 2006 2011
4870 1 2009 2006 2011 2012
4871 1 2009 2006 2011 2013
4872 1 2009 2006 2011 2014
4873 1 2010 2006 2011 2012
4874 1 2010 2006 2011 2013
4875 1 2010 2006 2011 2014
4876 1 2011 2012 2017 2018
4877 1 2011 2012 2017 2019
4878 1 2011 2012 2017 2020
4879 1 2012 2017 2018 2021
4880 1 2012 2017 2018 2022
4881 1 2012 2017 2018 2023
4882 1 2013 2011 2012 2015
4883 1 2013 2011 2012 2016
4884 1 2013 2011 2012 2017
4885 1 2014 2011 2012 2015
4886 1 2014 2011 2012 2016
4887 1 2014 2011 2012 2017
4888 1 2015 2012 2017 2018
4889 1 2015 2012 2017 2019
4890 1 2015 2012 2017 2020
4891 1 2016 2012 2017 2018
4892 1 2016 2012 2017 2019
4893 1 2016 2012 2017 2020
4894 1 2017 2018 2023 2024
4895 1 2017 2018 2023 2025
4896 1 2017 2018 2023 2026
4897 1 2018 2023 2024 2027
4898 1 2018 2023 2024 2028
4899 1 2019 2017 2018 2021
4900 1 2019 2017 2018 2022
4901 1 2019 2017 2018 2023
4902 1 2020 2017 2018 2021
4903 1 2020 2017 2018 2022
4904 1 2020 2017 2018 2023
4905 1 2021 2018 2023 2024
4906 1 2021 2018 2023 2025
4907 1 2021 2018 2023 2026
4908 1 2022 2018 2023 2024
4909 1 2022 2018 2023 2025
4910 1 2022 2018 2023 2026
4911 1 2025 2023 2024 2027
4912 1 2025 2023 2024 2028
4913 1 2026 2023 2024 2027
4914 1 2026 2023 2024 2028
4915 1 2030 2031 2036 2037
4916 1 2030 2031 2036 2038
4917 1 2030 2031 2036 2039
4918 1 2031 2036 2037 2040
4919 1 2031 2036 2037 2041
4920 1 2031 2036 2037 2042
4921 1 2032 2030 2031 2034
4922 1 2032 2030 2031 2035
4923 1 2032 2030 2031 2036
4924 1 2033 2030 2031 2034
4925 1 2033 2030 2031 2035
4926 1 2033 2030 2031 2036
4927 1 2034 2031 2036 2037
4928 1 2034 2031 2036 2038
4929 1 2034 2031 2036 2039
4930 1 2035 2031 2036 2037
4931 1 2035 2031 2036 2038
4932 1 2035 2031 2036 2039
4933 1 2036 2037 2042 2043
4934 1 2036 2037 2042 2044
4935 1 2036 2037 2042 2045
4936 1 2037 2042 2043 2046
4937 1 2037 2042 2043 2047
4938 1 2037 2042 2043 2048
4939 1 2038 2036 2037 2040
4940 1 2038 2036 2037 2041
4941 1 2038 2036 2037 2042
4942 1 2039 2036 2037 2040
4943 1 2039 2036 2037 2041
4944 1 2039 2036 2037 2042
4945 1 2040 2037 2042 2043
4946 1 2040 2037 2042 2044
4947 1 2040 2037 2042 2045
4948 1 2041 2037 2042 2043
4949 1 2041 2037 2042 2044
4950 1 2041 2037 2042 2045
4951 1 2042 2043 2048 2049
4952 1 2042 2043 2048 2050
4953 1 2042 2043 2048 2051
4954 1 2043 2048 2049 2052
4955 1 2043 2048 2049 2053
4956 1 2043 2048 2049 2054
4957 1 2044 2042 2043 2046
4958 1 2044 2042 2043 2047
4959 1 2044 2042 2043 2048
4960 1 2045 2042 2043 2046
4961 1 2045 2042 2043 2047
4962 1 2045 2042 2043 2048
4963 1 2046 2043 2048 2049
4964 1 2046 2043 2048 2050
4965 1 2046 2043 2048 2051
4966 1 2047 2043 2048 2049
4967 1 2047 2043 2048 2050
4968 1 2047 2043 2048 2051
4969 1 2048 2049 2054 2055
4970 1 2048 2049 2054 2056
4971 1 2048 2049 2054 2057
4972 1 2049 2054 2055 2058
4973 1 2049 2054 2055 2059
4974 1 2050 2048 2049 2052
4975 1 2050 2048 2049 2053
4976 1 2050 2048 2049 2054
4977 1 2051 2048 2049 2052
4978 1 2051 2048 2049 2053
4979 1 2051 2048 2049 2054
4980 1 2052 2049 2054 2055
4981 1 2052 2049 2054 2056
4982 1 2052 2049 2054 2057
4983 1 2053 2049 2054 2055
4984 1 2053 2049 2054 2056
4985 1 2053 2049 2054 2057
4986 1 2056 2054 2055 2058
4987 1 2056 2054 2055 2059
4988 1 2057 2054 2055 2058
4989 1 2057 2054 2055 2059
4990 1 2061 2062 2067 2068
4991 1 2061 2062 2067 2069
4992 1 2061 2062 2067 2070
4993 1 2062 2067 2068 2071
4994 1 2062 2067 2068 2072
4995 1 2062 2067 2068 2073
4996 1 2063 2061 2062 2065
4997 1 2063 2061 2062 2066
4998 1 2063 2061 2062 2067
4999 1 2064 2061 2062 2065
5000 1 2064 2061 2062 2066
5001 1 2064 2061 2062 2067
5002 1 2065 2062 2067 2068
5003 1 2065 2062 2067 2069
5004 1 2065 2062 2067 2070
5005 1 2066 2062 2067 2068
5006 1 2066 2062 2067 2069
5007 1 2066 2062 2067 2070
5008 1 2067 2068 2073 2074
5009 1 2067 2068 2073 2075
5010 1 2067 2068 2073 2076
5011 1 2068 2073 2074 2077
5012 1 2068 2073 2074 2078
5013 1 2068 2073 2074 2079
5014 1 2069 2067 2068 2071
5015 1 2069 2067 2068 2072
5016 1 2069 2067 2068 2073
5017 1 2070 2067 2068 2071
5018 1 2070 2067 2068 2072
5019 1 2070 2067 2068 2073
5020 1 2071 2068 2073 2074
5021 1 2071 2068 2073 2075
5022 1 2071 2068 2073 2076
5023 1 2072 2068 2073 2074
5024 1 2072 2068 2073 2075
5025 1 2072 2068 2073 2076
5026 1 2073 2074 2079 2080
5027 1 2073 2074 2079 2081
5028 1 2073 2074 2079 2082
5029 1 2074 2079 2080 2083
5030 1 2074 2079 2080 2084
5031 1 2074 2079 2080 2085
5032 1 2075 2073 2074 2077
5033 1 2075 2073 2074 2078
5034 1 2075 2073 2074 2079
5035 1 2076 2073 2074 2077
5036 1 2076 2073 2074 2078
5037 1 2076 2073 2074 2079
5038 1 2077 2074 2079 2080
5039 1 2077 2074 2079 2081
5040 1 2077 2074 2079 2082
5041 1 2078 2074 2079 2080
5042 1 2078 2074 2079 2081
5043 1 2078 2074 2079 2082
5044 1 2079 2080 2085 2086
5045 1 2079 2080 2085 2087
5046 1 2079 2080 2085 2088
5047 1 2080 2085 2086 2089
5048 1 2080 2085 2086 2090
5049 1 2081 2079 2080 2083
5050 1 2081 2079 2080 2084
5051 1 2081 2079 2080 2085
5052 1 2082 2079 2080 2083
5053 1 2082 2079 2080 2084
5054 1 2082 2079 2080 2085
5055 1 2083 2080 2085 2086
5056 1 2083 2080 2085 2087
5057 1 2083 2080 2085 2088
5058 1 2084 2080 2085 2086
5059 1 2084 2080 2085 2087
5060 1 2084 2080 2085 2088
5061 1 2087 2085 2086 2089
5062 1 2087 2085 2086 2090
5063 1 2088 2085 2086 2089
5064 1 2088 2085 2086 2090
5065 1 2092 2093 2098 2099
5066 1 2092 2093 2098 2100
5067 1 2092 2093 2098 2101
5068 1 2093 2098 2099 2102
5069 1 2093 2098 2099 2103
5070 1 2093 2098 2099 2104
5071 1 2094 2092 2093 2096
5072 1 2094 2092 2093 2097
5073 1 2094 2092 2093 2098
5074 1 2095 2092 2093 2096
5075 1 2095 2092 2093 2097
5076 1 2095 2092 2093 2098
5077 1 2096 2093 2098 2099
5078 1 2096 2093 2098 2100
5079 1 2096 2093 2098 2101
5080 1 2097 2093 2098 2099
5081 1 2097 2093 2098 2100
5082 1 2097 2093 2098 2101
5083 1 2098 2099 2104 2105
5084 1 2098 2099 2104 2106
5085 1 2098 2099 2104 2107
5086 1 2099 2104 2105 2108
5087 1 2099 2104 2105 2109
5088 1 2099 2104 2105 2110
5089 1 2100 2098 2099 2102
5090 1 2100 2098 2099 2103
5091 1 2100 2098 2099 2104
5092 1 2101 2098 2099 2102
5093 1 2101 2098 2099 2103
5094 1 2101 2098 2099 2104
5095 1 2102 2099 2104 2105
5096 1 2102 2099 2104 2106
5097 1 2102 2099 2104 2107
5098 1 2103 2099 2104 2105
5099 1 2103 2099 2104 2106
5100 1 2103 2099 2104 2107
5101 1 2104 2105 2110 2111
5102 1 2104 2105 2110 2112
5103 1 2104 2105 2110 2113
5104 1 2105 2110 2111 2114
5105 1 2105 2110 2111 2115
5106 1 2105 2110 2111 2116
5107 1 2106 2104 2105 2108
5108 1 2106 2104 2105 2109
5109 1 2106 2104 2105 2110
5110 1 2107 2104 2105 2108
5111 1 2107 2104 2105 2109
5112 1 2107 2104 2105 2110
5113 1 2108 2105 2110 2111
5114 1 2108 2105 2110 2112
5115 1 2108 2105 2110 2113
5116 1 2109 2105 2110 2111
5117 1 2109 2105 2110 2112
5118 1 2109 2105 2110 2113
5119 1 2110 2111 2116 2117
5120 1 2110 2111 2116 2118
5121 1 2110 2111 2116 2119
5122 1 2111 2116 2117 2120
5123 1 2111 2116 2117 2121
5124 1 2112 2110 2111 2114
5125 1 2112 2110 2111 2115
5126 1 2112 2110 2111 2116
5127 1 2113 2110 2111 2114
5128 1 2113 2110 2111 2115
5129 1 2113 2110 2111 2116
5130 1 2114 2111 2116 2117
5131 1 2114 2111 2116 2118
5132 1 2114 2111 2116 2119
5133 1 2115 2111 2116 2117
5134 1 2115 2111 2116 2118
5135 1 2115 2111 2116 2119
5136 1 2118 2116 2117 2120
5137 1 2118 2116 2117 2121
5138 1 2119 2116 2117 2120
5139 1 2119 2116 2117 2121
5140 1 2123 2124 2129 2130
5141 1 2123 2124 2129 2131
5142 1 2123 2124 2129 2132
5143 1 2124 2129 2130 2133
5144 1 2124 2129 2130 2134
5145 1 2124 2129 2130 2135
5146 1 2125 2123 2124 2127
5147 1 2125 2123 2124 2128
5148 1 2125 2123 2124 2129
5149 1 2126 2123 2124 2127
5150 1 2126 2123 2124 2128
5151 1 2126 2123 2124 2129
5152 1 2127 2124 2129 2130
5153 1 2127 2124 2129 2131
5154 1 2127 2124 2129 2132
5155 1 2128 2124 2129 2130
5156 1 2128 2124 2129 2131
5157 1 2128 2124 2129 2132
5158 1 2129 2130 2135 2136
5159 1 2129 2130 2135 2137
5160 1 2129 2130 2135 2138
5161 1 2130 2135 2136 2139
5162 1 2130 2135 2136 2140
5163 1 2130 2135 2136 2141
5164 1 2131 2129 2130 2133
5165 1 2131 2129 2130 2134
5166 1 2131 2129 2130 2135
5167 1 2132 2129 2130 2133
5168 1 2132 2129 2130 2134
5169 1 2132 2129 2130 2135
5170 1 2133 2130 2135 2136
5171 1 2133 2130 2135 2137
5172 1 2133 2130 2135 2138
5173 1 2134 2130 2135 2136
5174 1 2134 2130 2135 2137
5175 1 2134 2130 2135 2138
5176 1 2135 2136 2141 2142
5177 1 2135 2136 2141 2143
5178 1 2135 2136 2141 2144
5179 1 2136 2141 2142 2145
5180 1 2136 2141 2142 2146
5181 1 2136 2141 2142 2147
5182 1 2137 2135 2136 2139
5183 1 2137 2135 2136 2140
5184 1 2137 2135 2136 2141
5185 1 2138 2135 2136 2139
5186 1 2138 2135 2136 2140
5187 1 2138 2135 2136 2141
5188 1 2139 2136 2141 2142
5189 1 2139 2136 2141 2143
5190 1 2139 2136 2141 2144
5191 1 2140 2136 2141 2142
5192 1 2140 2136 2141 2143
5193 1 2140 2136 2141 2144
5194 1 2141 2142 2147 2148
5195 1 2141 2142 2147 2149
5196 1 2141 2142 2147 2150
5197 1 2142 2147 2148 2151
5198 1 2142 2147 2148 2152
5199 1 2143 2141 2142 2145
5200 1 2143 2141 2142 2146
5201 1 2143 2141 2142 2147
5202 1 2144 2141 2142 2145
5203 1 2144 2141 2142 2146
5204 1 2144 2141 2142 2147
5205 1 2145 2142 2147 2148
5206 1 2145 2142 2147 2149
5207 1 2145 2142 2147 2150
5208 1 2146 2142 2147 2148
5209 1 2146 2142 2147 2149
5210 1 2146 2142 2147 2150
5211 1 2149 2147 2148 2151
5212 1 2149 2147 2148 2152
5213 1 2150 2147 2148 2151
5214 1 2150 2147 2148 2152
5215 1 2156 2154 2155 2158
5216 1 2156 2154 2155 2159
5217 1 2156 2154 2155 2160
5218 1 2157 2154 2155 2158
5219 1 2157 2154 2155 2159
5220 1 2157 2154 2155 2160
5221 1 2161 2162 2154 2155
5222 1 2161 2162 2154 2156
5223 1 2161 2162 2154 2157
5224 1 2162 2154 2155 2158
5225 1 2162 2154 2155 2159
5226 1 2162 2154 2155 2160
5227 1 2163 2161 2162 2154
5228 1 2163 2161 2162 2165
5229 1 2163 2161 2162 2166
5230 1 2164 2161 2162 2154
5231 1 2164 2161 2162 2165
5232 1 2164 2161 2162 2166
5233 1 2165 2162 2154 2155
5234 1 2165 2162 2154 2156
5235 1 2165 2162 2154 2157
5236 1 2166 2162 2154 2155
5237 1 2166 2162 2154 2156
5238 1 2166 2162 2154 2157
5239 1 2167 2168 2161 2162
5240 1 2167 2168 2161 2163
5241 1 2167 2168 2161 2164
5242 1 2168 2161 2162 2154
5243 1 2168 2161 2162 2165
5244 1 2168 2161 2162 2166
5245 1 2169 2167 2168 2161
5246 1 2169 2167 2168 2171
5247 1 2169 2167 2168 2172
5248 1 2170 2167 2168 2161
5249 1 2170 2167 2168 2171
5250 1 2170 2167 2168 2172
5251 1 2171 2168 2161 2162
5252 1 2171 2168 2161 2163
5253 1 2171 2168 2161 2164
5254 1 2172 2168 2161 2162
5255 1 2172 2168 2161 2163
5256 1 2172 2168 2161 2164
5257 1 2173 2174 2167 2168
5258 1 2173 2174 2167 2169
5259 1 2173 2174 2167 2170
5260 1 2174 2167 2168 2161
5261 1 2174 2167 2168 2171
5262 1 2174 2167 2168 2172
5263 1 2175 2173 2174 2167
5264 1 2175 2173 2174 2177
5265 1 2175 2173 2174 2178
5266 1 2176 2173 2174 2167
5267 1 2176 2173 2174 2177
5268 1 2176 2173 2174 2178
5269 1 2177 2174 2167 2168
5270 1 2177 2174 2167 2169
5271 1 2177 2174 2167 2170
5272 1 2178 2174 2167 2168
5273 1 2178 2174 2167 2169
5274 1 2178 2174 2167 2170
5275 1 2179 2180 2173 2174
5276 1 2179 2180 2173 2175
5277 1 2179 2180 2173 2176
5278 1 2180 2173 2174 2167
5279 1 2180 2173 2174 2177
5280 1 2180 2173 2174 2178
5281 1 2181 2179 2180 2173
5282 1 2181 2179 2180 2183
5283 1 2181 2179 2180 2184
5284 1 2182 2179 2180 2173
5285 1 2182 2179 2180 2183
5286 1 2182 2179 2180 2184
5287 1 2183 2180 2173 2174
5288 1 2183 2180 2173 2175
5289 1 2183 2180 2173 2176
5290 1 2184 2180 2173 2174
5291 1 2184 2180 2173 2175
5292 1 2184 2180 2173 2176
5293 1 2186 2193 2194 2197
5294 1 2186 2193 2194 2198
5295 1 2186 2193 2194 2199
5296 1 2187 2186 2193 2194
5297 1 2187 2186 2193 2195
5298 1 2187 2186 2193 2196
5299 1 2188 2186 2187 2190
5300 1 2188 2186 2187 2191
5301 1 2188 2186 2187 2192
5302 1 2188 2186 2193 2194
5303 1 2188 2186 2193 2195
5304 1 2188 2186 2193 2196
5305 1 2189 2186 2187 2190
5306 1 2189 2186 2187 2191
5307 1 2189 2186 2187 2192
5308 1 2189 2186 2193 2194
5309 1 2189 2186 2193 2195
5310 1 2189 2186 2193 2196
5311 1 2193 2186 2187 2190
5312 1 2193 2186 2187 2191
5313 1 2193 2186 2187 2192
5314 1 2193 2194 2199 2200
5315 1 2193 2194 2199 2201
5316 1 2193 2194 2199 2202
5317 1 2194 2199 2200 2203
5318 1 2194 2199 2200 2204
5319 1 2194 2199 2200 2205
5320 1 2195 2193 2194 2197
5321 1 2195 2193 2194 2198
5322 1 2195 2193 2194 2199
5323 1 2196 2193 2194 2197
5324 1 2196 2193 2194 2198
5325 1 2196 2193 2194 2199
5326 1 2197 2194 2199 2200
5327 1 2197 2194 2199 2201
5328 1 2197 2194 2199 2202
5329 1 2198 2194 2199 2200
5330 1 2198 2194 2199 2201
5331 1 2198 2194 2199 2202
5332 1 2199 2200 2205 2206
5333 1 2199 2200 2205 2207
5334 1 2199 2200 2205 2208
5335 1 2200 2205 2206 2209
5336 1 2200 2205 2206 2210
5337 1 2200 2205 2206 2211
5338 1 2201 2199 2200 2203
5339 1 2201 2199 2200 2204
5340 1 2201 2199 2200 2205
5341 1 2202 2199 2200 2203
5342 1 2202 2199 2200 2204
5343 1 2202 2199 2200 2205
5344 1 2203 2200 2205 2206
5345 1 2203 2200 2205 2207
5346 1 2203 2200 2205 2208
5347 1 2204 2200 2205 2206
5348 1 2204 2200 2205 2207
5349 1 2204 2200 2205 2208
5350 1 2205 2206 2211 2212
5351 1 2205 2206 2211 2213
5352 1 2205 2206 2211 2214
5353 1 2206 2211 2212 2215
5354 1 2206 2211 2212 2216
5355 1 2207 2205 2206 2209
5356 1 2207 2205 2206 2210
5357 1 2207 2205 2206 2211
5358 1 2208 2205 2206 2209
5359 1 2208 2205 2206 2210
5360 1 2208 2205 2206 2211
5361 1 2209 2206 2211 2212
5362 1 2209 2206 2211 2213
5363 1 2209 2206 2211 2214
5364 1 2210 2206 2211 2212
5365 1 2210 2206 2211 2213
5366 1 2210 2206 2211 2214
5367 1 2213 2211 2212 2215
5368 1 2213 2211 2212 2216
5369 1 2214 2211 2212 2215
5370 1 2214 2211 2212 2216
5371 1 2218 2219 2224 2225
5372 1 2218 2219 2224 2226
5373 1 2218 2219 2224 2227
5374 1 2219 2224 2225 2228
5375 1 2219 2224 2225 2229
5376 1 2219 2224 2225 2230
5377 1 2220 2218 2219 2222
5378 1 2220 2218 2219 2223
5379 1 2220 2218 2219 2224
5380 1 2221 2218 2219 2222
5381 1 2221 2218 2219 2223
5382 1 2221 2218 2219 2224
5383 1 2222 2219 2224 2225
5384 1 2222 2219 2224 2226
5385 1 2222 2219 2224 2227
5386 1 2223 2219 2224 2225
5387 1 2223 2219 2224 2226
5388 1 2223 2219 2224 2227
5389 1 2224 2225 2230 2231
5390 1 2224 2225 2230 2232
5391 1 2224 2225 2230 2233
5392 1 2225 2230 2231 2234
5393 1 2225 2230 2231 2235
5394 1 2225 2230 2231 2236
5395 1 2226 2224 2225 2228
5396 1 2226 2224 2225 2229
5397 1 2226 2224 2225 2230
5398 1 2227 2224 2225 2228
5399 1 2227 2224 2225 2229
5400 1 2227 2224 2225 2230
5401 1 2228 2225 2230 2231
5402 1 2228 2225 2230 2232
5403 1 2228 2225 2230 2233
5404 1 2229 2225 2230 2231
5405 1 2229 2225 2230 2232
5406 1 2229 2225 2230 2233
5407 1 2230 2231 2236 2237
5408 1 2230 2231 2236 2238
5409 1 2230 2231 2236 2239
5410 1 2231 2236 2237 2240
5411 1 2231 2236 2237 2241
5412 1 2231 2236 2237 2242
5413 1 2232 2230 2231 2234
5414 1 2232 2230 2231 2235
5415 1 2232 2230 2231 2236
5416 1 2233 2230 2231 2234
5417 1 2233 2230 2231 2235
5418 1 2233 2230 2231 2236
5419 1 2234 2231 2236 2237
5420 1 2234 2231 2236 2238
5421 1 2234 2231 2236 2239
5422 1 2235 2231 2236 2237
5423 1 2235 2231 2236 2238
5424 1 2235 2231 2236 2239
5425 1 2236 2237 2242 2243
5426 1 2236 2237 2242 2244
5427 1 2236 2237 2242 2245
5428 1 2237 2242 2243 2246
5429 1 2237 2242 2243 2247
5430 1 2238 2236 2237 2240
5431 1 2238 2236 2237 2241
5432 1 2238 2236 2237 2242
5433 1 2239 2236 2237 2240
5434 1 2239 2236 2237 2241
5435 1 2239 2236 2237 2242
5436 1 2240 2237 2242 2243
5437 1 2240 2237 2242 2244
5438 1 2240 2237 2242 2245
5439 1 2241 2237 2242 2243
5440 1 2241 2237 2242 2244
5441 1 2241 2237 2242 2245
5442 1 2244 2242 2243 2246
5443 1 2244 2242 2243 2247
5444 1 2245 2242 2243 2246
5445 1 2245 2242 2243 2247
5446 1 2249 2250 2255 2256
5447 1 2249 2250 2255 2257
5448 1 2249 2250 2255 2258
5449 1 2250 2255 2256 2259
5450 1 2250 2255 2256 2260
5451 1 2250 2255 2256 2261
5452 1 2251 2249 2250 2253
5453 1 2251 2249 2250 2254
5454 1 2251 2249 2250 2255
5455 1 2252 2249 2250 2253
5456 1 2252 2249 2250 2254
5457 1 2252 2249 2250 2255
5458 1 2253 2250 2255 2256
5459 1 2253 2250 2255 2257
5460 1 2253 2250 2255 2258
5461 1 2254 2250 2255 2256
5462 1 2254 2250 2255 2257
5463 1 2254 2250 2255 2258
5464 1 2255 2256 2261 2262
5465 1 2255 2256 2261 2263
5466 1 2255 2256 2261 2264
5467 1 2256 2261 2262 2265
5468 1 2256 2261 2262 2266
5469 1 2256 2261 2262 2267
5470 1 2257 2255 2256 2259
5471 1 2257 2255 2256 2260
5472 1 2257 2255 2256 2261
5473 1 2258 2255 2256 2259
5474 1 2258 2255 2256 2260
5475 1 2258 2255 2256 2261
5476 1 2259 2256 2261 2262
5477 1 2259 2256 2261 2263
5478 1 2259 2256 2261 2264
5479 1 2260 2256 2261 2262
5480 1 2260 2256 2261 2263
5481 1 2260 2256 2261 2264
5482 1 2261 2262 2267 2268
5483 1 2261 2262 2267 2269
5484 1 2261 2262 2267 2270
5485 1 2262 2267 2268 2271
5486 1 2262 2267 2268 2272
5487 1 2262 2267 2268 2273
5488 1 2263 2261 2262 2265
5489 1 2263 2261 2262 2266
5490 1 2263 2261 2262 2267
5491 1 2264 2261 2262 2265
5492 1 2264 2261 2262 2266
5493 1 2264 2261 2262 2267
5494 1 2265 2262 2267 2268
5495 1 2265 2262 2267 2269
5496 1 2265 2262 2267 2270
5497 1 2266 2262 2267 2268
5498 1 2266 2262 2267 2269
5499 1 2266 2262 2267 2270
5500 1 2267 2268 2273 2274
5501 1 2267 2268 2273 2275
5502 1 2267 2268 2273 2276
5503 1 2268 2273 2274 2277
5504 1 2268 2273 2274 2278
5505 1 2269 2267 2268 2271
5506 1 2269 2267 2268 2272
5507 1 2269 2267 2268 2273
5508 1 2270 2267 2268 2271
5509 1 2270 2267 2268 2272
5510 1 2270 2267 2268 2273
5511 1 2271 2268 2273 2274
5512 1 2271 2268 2273 2275
5513 1 2271 2268 2273 2276
5514 1 2272 2268 2273 2274
5515 1 2272 2268 2273 2275
5516 1 2272 2268 2273 2276
5517 1 2275 2273 2274 2277
5518 1 2275 2273 2274 2278
5519 1 2276 2273 2274 2277
5520 1 2276 2273 2274 2278
5521 1 2280 2281 2286 2287
5522 1 2280 2281 2286 2288
5523 1 2280 2281 2286 2289
5524 1 2281 2286 2287 2290
5525 1 2281 2286 2287 2291
5526 1 2281 2286 2287 2292
5527 1 2282 2280 2281 2284
5528 1 2282 2280 2281 2285
5529 1 2282 2280 2281 2286
5530 1 2283 2280 2281 2284
5531 1 2283 2280 2281 2285
5532 1 2283 2280 2281 2286
5533 1 2284 2281 2286 2287
5534 1 2284 2281 2286 2288
5535 1 2284 2281 2286 2289
5536 1 2285 2281 2286 2287
5537 1 2285 2281 2286 2288
5538 1 2285 2281 2286 2289
5539 1 2286 2287 2292 2293
5540 1 2286 2287 2292 2294
5541 1 2286 2287 2292 2295
5542 1 2287 2292 2293 2296
5543 1 2287 2292 2293 2297
5544 1 2287 2292 2293 2298
5545 1 2288 2286 2287 2290
5546 1 2288 2286 2287 2291
5547 1 2288 2286 2287 2292
5548 1 2289 2286 2287 2290
5549 1 2289 2286 2287 2291
5550 1 2289 2286 2287 2292
5551 1 2290 2287 2292 2293
5552 1 2290 2287 2292 2294
5553 1 2290 2287 2292 2295
5554 1 2291 2287 2292 2293
5555 1 2291 2287 2292 2294
5556 1 2291 2287 2292 2295
5557 1 2292 2293 2298 2299
5558 1 2292 2293 2298 2300
5559 1 2292 2293 2298 2301
5560 1 2293 2298 2299 2302
5561 1 2293 2298 2299 2303
5562 1 2293 2298 2299 2304
5563 1 2294 2292 2293 2296
5564 1 2294 2292 2293 2297
5565 1 2294 2292 2293 2298
5566 1 2295 2292 2293 2296
5567 1 2295 2292 2293 2297
5568 1 2295 2292 2293 2298
5569 1 2296 2293 2298 2299
5570 1 2296 2293 2298 2300
5571 1 2296 2293 2298 2301
5572 1 2297 2293 2298 2299
5573 1 2297 2293 2298 2300
5574 1 2297 2293 2298 2301
5575 1 2298 2299 2304 2305
5576 1 2298 2299 2304 2306
5577 1 2298 2299 2304 2307
5578 1 2299 2304 2305 2308
5579 1 2299 2304 2305 2309
5580 1 2300 2298 2299 2302
5581 1 2300 2298 2299 2303
5582 1 2300 2298 2299 2304
5583 1 2301 2298 2299 2302
5584 1 2301 2298 2299 2303
5585 1 2301 2298 2299 2304
5586 1 2302 2299 2304 2305
5587 1 2302 2299 2304 2306
5588 1 2302 2299 2304 2307
5589 1 2303 2299 2304 2305
5590 1 2303 2299 2304 2306
5591 1 2303 2299 2304 2307
5592 1 2306 2304 2305 2308
5593 1 2306 2304 2305 2309
5594 1 2307 2304 2305 2308
5595 1 2307 2304 2305 2309
5596 1 2311 2312 2317 2318
5597 1 2311 2312 2317 2319
5598 1 2311 2312 2317 2320
5599 1 2312 2317 2318 2321
5600 1 2312 2317 2318 2322
5601 1 2312 2317 2318 2323
5602 1 2313 2311 2312 2315
5603 1 2313 2311 2312 2316
5604 1 2313 2311 2312 2317
5605 1 2314 2311 2312 2315
5606 1 2314 2311 2312 2316
5607 1 2314 2311 2312 2317
5608 1 2315 2312 2317 2318
5609 1 2315 2312 2317 2319
5610 1 2315 2312 2317 2320
5611 1 2316 2312 2317 2318
5612 1 2316 2312 2317 2319
5613 1 2316 2312 2317 2320
5614 1 2317 2318 2323 2324
5615 1 2317 2318 2323 2325
5616 1 2317 2318 2323 2326
5617 1 2318 2323 2324 2327
5618 1 2318 2323 2324 2328
5619 1 2318 2323 2324 2329
5620 1 2319 2317 2318 2321
5621 1 2319 2317 2318 2322
5622 1 2319 2317 2318 2323
5623 1 2320 2317 2318 2321
5624 1 2320 2317 2318 2322
5625 1 2320 2317 2318 2323
5626 1 2321 2318 2323 2324
5627 1 2321 2318 2323 2325
5628 1 2321 2318 2323 2326
5629 1 2322 2318 2323 2324
5630 1 2322 2318 2323 2325
5631 1 2322 2318 2323 2326
5632 1 2323 2324 2329 2330
5633 1 2323 2324 2329 2331
5634 1 2323 2324 2329 2332
5635 1 2324 2329 2330 2333
5636 1 2324 2329 2330 2334
5637 1 2324 2329 2330 2335
5638 1 2325 2323 2324 2327
5639 1 2325 2323 2324 2328
5640 1 2325 2323 2324 2329
5641 1 2326 2323 2324 2327
5642 1 2326 2323 2324 2328
5643 1 2326 2323 2324 2329
5644 1 2327 2324 2329 2330
5645 1 2327 2324 2329 2331
5646 1 2327 2324 2329 2332
5647 1 2328 2324 2329 2330
5648 1 2328 2324 2329 2331
5649 1 2328 2324 2329 2332
5650 1 2329 2330 2335 2336
5651 1 2329 2330 2335 2337
5652 1 2329 2330 2335 2338
5653 1 2330 2335 2336 2339
5654 1 2330 2335 2336 2340
5655 1 2331 2329 2330 2333
5656 1 2331 2329 2330 2334
5657 1 2331 2329 2330 2335
5658 1 2332 2329 2330 2333
5659 1 2332 2329 2330 2334
5660 1 2332 2329 2330 2335
5661 1 2333 2330 2335 2336
5662 1 2333 2330 2335 2337
5663 1 2333 2330 2335 2338
5664 1 2334 2330 2335 2336
5665 1 2334 2330 2335 2337
5666 1 2334 2330 2335 2338
5667 1 2337 2335 2336 2339
5668 1 2337 2335 2336 2340
5669 1 2338 2335 2336 2339
5670 1 2338 2335 2336 2340
5671 1 2342 2343 2348 2349
5672 1 2342 2343 2348 2350
5673 1 2342 2343 2348 2351
5674 1 2343 2348 2349 2352
5675 1 2343 2348 2349 2353
5676 1 2343 2348 2349 2354
5677 1 2344 2342 2343 2346
5678 1 2344 2342 2343 2347
5679 1 2344 2342 2343 2348
5680 1 2345 2342 2343 2346
5681 1 2345 2342 2343 2347
5682 1 2345 2342 2343 2348
5683 1 2346 2343 2348 2349
5684 1 2346 2343 2348 2350
5685 1 2346 2343 2348 2351
5686 1 2347 2343 2348 2349
5687 1 2347 2343 2348 2350
5688 1 2347 2343 2348 2351
5689 1 2348 2349 2354 2355
5690 1 2348 2349 2354 2356
5691 1 2348 2349 2354 2357
5692 1 2349 2354 2355 2358
5693 1 2349 2354 2355 2359
5694 1 2349 2354 2355 2360
5695 1 2350 2348 2349 2352
5696 1 2350 2348 2349 2353
5697 1 2350 2348 2349 2354
5698 1 2351 2348 2349 2352
5699 1 2351 2348 2349 2353
5700 1 2351 2348 2349 2354
5701 1 2352 2349 2354 2355
5702 1 2352 2349 2354 2356
5703 1 2352 2349 2354 2357
5704 1 2353 2349 2354 2355
5705 1 2353 2349 2354 2356
5706 1 2353 2349 2354 2357
5707 1 2354 2355 2360 2361
5708 1 2354 2355 2360 2362
5709 1 2354 2355 2360 2363
5710 1 2355 2360 2361 2364
5711 1 2355 2360 2361 2365
5712 1 2355 2360 2361 2366
5713 1 2356 2354 2355 2358
5714 1 2356 2354 2355 2359
5715 1 2356 2354 2355 2360
5716 1 2357 2354 2355 2358
5717 1 2357 2354 2355 2359
5718 1 2357 2354 2355 2360
5719 1 2358 2355 2360 2361
5720 1 2358 2355 2360 2362
5721 1 2358 2355 2360 2363
5722 1 2359 2355 2360 2361
5723 1 2359 2355 2360 2362
5724 1 2359 2355 2360 2363
5725 1 2360 2361 2366 2367
5726 1 2360 2361 2366 2368
5727 1 2360 2361 2366 2369
5728 1 2361 2366 2367 2370
5729 1 2361 2366 2367 2371
5730 1 2362 2360 2361 2364
5731 1 2362 2360 2361 2365
5732 1 2362 2360 2361 2366
5733 1 2363 2360 2361 2364
5734 1 2363 2360 2361 2365
5735 1 2363 2360 2361 2366
5736 1 2364 2361 2366 2367
5737 1 2364 2361 2366 2368
5738 1 2364 2361 2366 2369
5739 1 2365 2361 2366 2367
5740 1 2365 2361 2366 2368
5741 1 2365 2361 2366 2369
5742 1 2368 2366 2367 2370
5743 1 2368 2366 2367 2371
5744 1 2369 2366 2367 2370
5745 1 2369 2366 2367 2371
5746 1 2373 2374 2379 2380
5747 1 2373 2374 2379 2381
5748 1 2373 2374 2379 2382
5749 1 2374 2379 2380 2383
5750 1 2374 2379 2380 2384
5751 1 2374 2379 2380 2385
5752 1 2375 2373 2374 2377
5753 1 2375 2373 2374 2378
5754 1 2375 2373 2374 2379
5755 1 2376 2373 2374 2377
5756 1 2376 2373 2374 2378
5757 1 2376 2373 2374 2379
5758 1 2377 2374 2379 2380
5759 1 2377 2374 2379 2381
5760 1 2377 2374 2379 2382
5761 1 2378 2374 2379 2380
5762 1 2378 2374 2379 2381
5763 1 2378 2374 2379 2382
5764 1 2379 2380 2385 2386
5765 1 2379 2380 2385 2387
5766 1 2379 2380 2385 2388
5767 1 2380 2385 2386 2389
5768 1 2380 2385 2386 2390
5769 1 2380 2385 2386 2391
5770 1 2381 2379 2380 2383
5771 1 2381 2379 2380 2384
5772 1 2381 2379 2380 2385
5773 1 2382 2379 2380 2383
5774 1 2382 2379 2380 2384
5775 1 2382 2379 2380 2385
5776 1 2383 2380 2385 2386
5777 1 2383 2380 2385 2387
5778 1 2383 2380 2385 2388
5779 1 2384 2380 2385 2386
5780 1 2384 2380 2385 2387
5781 1 2384 2380 2385 2388
5782 1 2385 2386 2391 2392
5783 1 2385 2386 2391 2393
5784 1 2385 2386 2391 2394
5785 1 2386 2391 2392 2395
5786 1 2386 2391 2392 2396
5787 1 2386 2391 2392 2397
5788 1 2387 2385 2386 2389
5789 1 2387 2385 2386 2390
5790 1 2387 2385 2386 2391
5791 1 2388 2385 2386 2389
5792 1 2388 2385 2386 2390
5793 1 2388 2385 2386 2391
5794 1 2389 2386 2391 2392
5795 1 2389 2386 2391 2393
5796 1 2389 2386 2391 2394
5797 1 2390 2386 2391 2392
5798 1 2390 2386 2391 2393
5799 1 2390 2386 2391 2394
5800 1 2391 2392 2397 2398
5801 1 2391 2392 2397 2399
5802 1 2391 2392 2397 2400
5803 1 2392 2397 2398 2401
5804 1 2392 2397 2398 2402
5805 1 2393 2391 2392 2395
5806 1 2393 2391 2392 2396
5807 1 2393 2391 2392 2397
5808 1 2394 2391 2392 2395
5809 1 2394 2391 2392 2396
5810 1 2394 2391 2392 2397
5811 1 2395 2392 2397 2398
5812 1 2395 2392 2397 2399
5813 1 2395 2392 2397 2400
5814 1 2396 2392 2397 2398
5815 1 2396 2392 2397 2399
5816 1 2396 2392 2397 2400
5817 1 2399 2397 2398 2401
5818 1 2399 2397 2398 2402
5819 1 2400 2397 2398 2401
5820 1 2400 2397 2398 2402
5821 1 2404 2405 2410 2411
5822 1 2404 2405 2410 2412
5823 1 2404 2405 2410 2413
5824 1 2405 2410 2411 2414
5825 1 2405 2410 2411 2415
5826 1 2405 2410 2411 2416
5827 1 2406 2404 2405 2408
5828 1 2406 2404 2405 2409
5829 1 2406 2404 2405 2410
5830 1 2407 2404 2405 2408
5831 1 2407 2404 2405 2409
5832 1 2407 2404 2405 2410
5833 1 2408 2405 2410 2411
5834 1 2408 2405 2410 2412
5835 1 2408 2405 2410 2413
5836 1 2409 2405 2410 2411
5837 1 2409 2405 2410 2412
5838 1 2409 2405 2410 2413
5839 1 2410 2411 2416 2417
5840 1 2410 2411 2416 2418
5841 1 2410 2411 2416 2419
5842 1 2411 2416 2417 2420
5843 1 2411 2416 2417 2421
5844 1 2411 2416 2417 2422
5845 1 2412 2410 2411 2414
5846 1 2412 2410 2411 2415
5847 1 2412 2410 2411 2416
5848 1 2413 2410 2411 2414
5849 1 2413 2410 2411 2415
5850 1 2413 2410 2411 2416
5851 1 2414 2411 2416 2417
5852 1 2414 2411 2416 2418
5853 1 2414 2411 2416 2419
5854 1 2415 2411 2416 2417
5855 1 2415 2411 2416 2418
5856 1 2415 2411 2416 2419
5857 1 2416 2417 2422 2423
5858 1 2416 2417 2422 2424
5859 1 2416 2417 2422 2425
5860 1 2417 2422 2423 2426
5861 1 2417 2422 2423 2427
5862 1 2417 2422 2423 2428
5863 1 2418 2416 2417 2420
5864 1 2418 2416 2417 2421
5865 1 2418 2416 2417 2422
5866 1 2419 2416 2417 2420
5867 1 2419 2416 2417 2421
5868 1 2419 2416 2417 2422
5869 1 2420 2417 2422 2423
5870 1 2420 2417 2422 2424
5871 1 2420 2417 2422 2425
5872 1 2421 2417 2422 2423
5873 1 2421 2417 2422 2424
5874 1 2421 2417 2422 2425
5875 1 2422 2423 2428 2429
5876 1 2422 2423 2428 2430
5877 1 2422 2423 2428 2431
5878 1 2423 2428 2429 2432
5879 1 2423 2428 2429 2433
5880 1 2424 2422 2423 2426
5881 1 2424 2422 2423 2427
5882 1 2424 2422 2423 2428
5883 1 2425 2422 2423 2426
5884 1 2425 2422 2423 2427
5885 1 2425 2422 2423 2428
5886 1 2426 2423 2428 2429
5887 1 2426 2423 2428 2430
5888 1 2426 2423 2428 2431
5889 1 2427 2423 2428 2429
5890 1 2427 2423 2428 2430
5891 1 2427 2423 2428 2431
5892 1 2430 2428 2429 2432
5893 1 2430 2428 2429 2433
5894 1 2431 2428 2429 2432
5895 1 2431 2428 2429 2433
5896 1 2435 2436 2441 2442
5897 1 2435 2436 2441 2443
5898 1 2435 2436 2441 2444
5899 1 2436 2441 2442 2445
5900 1 2436 2441 2442 2446
5901 1 2436 2441 2442 2447
5902 1 2437 2435 2436 2439
5903 1 2437 2435 2436 2440
5904 1 2437 2435 2436 2441
5905 1 2438 2435 2436 2439
5906 1 2438 2435 2436 2440
5907 1 2438 2435 2436 2441
5908 1 2439 2436 2441 2442
5909 1 2439 2436 2441 2443
5910 1 2439 2436 2441 2444
5911 1 2440 2436 2441 2442
5912 1 2440 2436 2441 2443
5913 1 2440 2436 2441 2444
5914 1 2441 2442 2447 2448
5915 1 2441 2442 2447 2449
5916 1 2441 2442 2447 2450
5917 1 2442 2447 2448 2451
5918 1 2442 2447 2448 2452
5919 1 2442 2447 2448 2453
5920 1 2443 2441 2442 2445
5921 1 2443 2441 2442 2446
5922 1 2443 2441 2442 2447
5923 1 2444 2441 2442 2445
5924 1 2444 2441 2442 2446
5925 1 2444 2441 2442 2447
5926 1 2445 2442 2447 2448
5927 1 2445 2442 2447 2449
5928 1 2445 2442 2447 2450
5929 1 2446 2442 2447 2448
5930 1 2446 2442 2447 2449
5931 1 2446 2442 2447 2450
5932 1 2447 2448 2453 2454
5933 1 2447 2448 2453 2455
5934 1 2447 2448 2453 2456
5935 1 2448 2453 2454 2457
5936 1 2448 2453 2454 2458
5937 1 2448 2453 2454 2459
5938 1 2449 2447 2448 2451
5939 1 2449 2447 2448 2452
5940 1 2449 2447 2448 2453
5941 1 2450 2447 2448 2451
5942 1 2450 2447 2448 2452
5943 1 2450 2447 2448 2453
5944 1 2451 2448 2453 2454
5945 1 2451 2448 2453 2455
5946 1 2451 2448 2453 2456
5947 1 2452 2448 2453 2454
5948 1 2452 2448 2453 2455
5949 1 2452 2448 2453 2456
5950 1 2453 2454 2459 2460
5951 1 2453 2454 2459 2461
5952 1 2453 2454 2459 2462
5953 1 2454 2459 2460 2463
5954 1 2454 2459 2460 2464
5955 1 2455 2453 2454 2457
5956 1 2455 2453 2454 2458
5957 1 2455 2453 2454 2459
5958 1 2456 2453 2454 2457
5959 1 2456 2453 2454 2458
5960 1 2456 2453 2454 2459
5961 1 2457 2454 2459 2460
5962 1 2457 2454 2459 2461
5963 1 2457 2454 2459 2462
5964 1 2458 2454 2459 2460
5965 1 2458 2454 2459 2461
5966 1 2458 2454 2459 2462
5967 1 2461 2459 2460 2463
5968 1 2461 2459 2460 2464
5969 1 2462 2459 2460 2463
5970 1 2462 2459 2460 2464
5971 1 2468 2466 2467 2470
5972 1 2468 2466 2467 2471
5973 1 2468 2466 2467 2472
5974 1 2469 2466 2467 2470
5975 1 2469 2466 2467 2471
5976 1 2469 2466 2467 2472
5977 1 2473 2474 2466 2467
5978 1 2473 2474 2466 2468
5979 1 2473 2474 2466 2469
5980 1 2474 2466 2467 2470
5981 1 2474 2466 2467 2471
5982 1 2474 2466 2467 2472
5983 1 2475 2473 2474 2466
5984 1 2475 2473 2474 2477
5985 1 2475 2473 2474 2478
5986 1 2476 2473 2474 2466
5987 1 2476 2473 2474 2477
5988 1 2476 2473 2474 2478
5989 1 2477 2474 2466 2467
5990 1 2477 2474 2466 2468
5991 1 2477 2474 2466 2469
5992 1 2478 2474 2466 2467
5993 1 2478 2474 2466 2468
5994 1 2478 2474 2466 2469
5995 1 2479 2480 2473 2474
5996 1 2479 2480 2473 2475
5997 1 2479 2480 2473 2476
5998 1 2480 2473 2474 2466
5999 1 2480 2473 2474 2477
6000 1 2480 2473 2474 2478
6001 1 2481 2479 2480 2473
6002 1 2481 2479 2480 2483
6003 1 2481 2479 2480 2484
6004 1 2482 2479 2480 2473
6005 1 2482 2479 2480 2483
6006 1 2482 2479 2480 2484
6007 1 2483 2480 2473 2474
6008 1 2483 2480 2473 2475
6009 1 2483 2480 2473 2476
6010 1 2484 2480 2473 2474
6011 1 2484 2480 2473 2475
6012 1 2484 2480 2473 2476
6013 1 2485 2486 2479 2480
6014 1 2485 2486 2479 2481
6015 1 2485 2486 2479 2482
6016 1 2486 2479 2480 2473
6017 1 2486 2479 2480 2483
6018 1 2486 2479 2480 2484
6019 1 2487 2485 2486 2479
6020 1 2487 2485 2486 2489
6021 1 2487 2485 2486 2490
6022 1 2488 2485 2486 2479
6023 1 2488 2485 2486 2489
6024 1 2488 2485 2486 2490
6025 1 2489 2486 2479 2480
6026 1 2489 2486 2479 2481
6027 1 2489 2486 2479 2482
6028 1 2490 2486 2479 2480
6029 1 2490 2486 2479 2481
6030 1 2490 2486 2479 2482
6031 1 2491 2492 2485 2486
6032 1 2491 2492 2485 2487
6033 1 2491 2492 2485 2488
6034 1 2492 2485 2486 2479
6035 1 2492 2485 2486 2489
6036 1 2492 2485 2486 2490
6037 1 2493 2491 2492 2485
6038 1 2493 2491 2492 2495
6039 1 2493 2491 2492 2496
6040 1 2494 2491 2492 2485
6041 1 2494 2491 2492 2495
6042 1 2494 2491 2492 2496
6043 1 2495 2492 2485 2486
6044 1 2495 2492 2485 2487
6045 1 2495 2492 2485 2488
6046 1 2496 2492 2485 2486
6047 1 2496 2492 2485 2487
6048 1 2496 2492 2485 2488
6049 1 2498 2505 2506 2509
6050 1 2498 2505 2506 2510
6051 1 2498 2505 2506 2511
6052 1 2499 2498 2505 2506
6053 1 2499 2498 2505 2507
6054 1 2499 2498 2505 2508
6055 1 2500 2498 2499 2502
6056 1 2500 2498 2499 2503
6057 1 2500 2498 2499 2504
6058 1 2500 2498 2505 2506
6059 1 2500 2498 2505 2507
6060 1 2500 2498 2505 2508
6061 1 2501 2498 2499 2502
6062 1 2501 2498 2499 2503
6063 1 2501 2498 2499 2504
6064 1 2501 2498 2505 2506
6065 1 2501 2498 2505 2507
6066 1 2501 2498 2505 2508
6067 1 2505 2498 2499 2502
6068 1 2505 2498 2499 2503
6069 1 2505 2498 2499 2504
6070 1 2505 2506 2511 2512
6071 1 2505 2506 2511 2513
6072 1 2505 2506 2511 2514
6073 1 2506 2511 2512 2515
6074 1 2506 2511 2512 2516
6075 1 2506 2511 2512 2517
6076 1 2507 2505 2506 2509
6077 1 2507 2505 2506 2510
6078 1 2507 2505 2506 2511
6079 1 2508 2505 2506 2509
6080 1 2508 2505 2506 2510
6081 1 2508 2505 2506 2511
6082 1 2509 2506 2511 2512
6083 1 2509 2506 2511 2513
6084 1 2509 2506 2511 2514
6085 1 2510 2506 2511 2512
6086 1 2510 2506 2511 2513
6087 1 2510 2506 2511 2514
6088 1 2511 2512 2517 2518
6089 1 2511 2512 2517 2519
6090 1 2511 2512 2517 2520
6091 1 2512 2517 2518 2521
6092 1 2512 2517 2518 2522
6093 1 2512 2517 2518 2523
6094 1 2513 2511 2512 2515
6095 1 2513 2511 2512 2516
6096 1 2513 2511 2512 2517
6097 1 2514 2511 2512 2515
6098 1 2514 2511 2512 2516
6099 1 2514 2511 2512 2517
6100 1 2515 2512 2517 2518
6101 1 2515 2512 2517 2519
6102 1 2515 2512 2517 2520
6103 1 2516 2512 2517 2518
6104 1 2516 2512 2517 2519
6105 1 2516 2512 2517 2520
6106 1 2517 2518 2523 2524
6107 1 2517 2518 2523 2525
6108 1 2517 2518 2523 2526
6109 1 2518 2523 2524 2527
6110 1 2518 2523 2524 2528
6111 1 2519 2517 2518 2521
6112 1 2519 2517 2518 2522
6113 1 2519 2517 2518 2523
6114 1 2520 2517 2518 2521
6115 1 2520 2517 2518 2522
6116 1 2520 2517 2518 2523
6117 1 2521 2518 2523 2524
6118 1 2521 2518 2523 2525
6119 1 2521 2518 2523 2526
6120 1 2522 2518 2523 2524
6121 1 2522 2518 2523 2525
6122 1 2522 2518 2523 2526
6123 1 2525 2523 2524 2527
6124 1 2525 2523 2524 2528
6125 1 2526 2523 2524 2527
6126 1 2526 2523 2524 2528
6127 1 2530 2531 2536 2537
6128 1 2530 2531 2536 2538
6129 1 2530 2531 2536 2539
6130 1 2531 2536 2537 2540
6131 1 2531 2536 2537 2541
6132 1 2531 2536 2537 2542
6133 1 2532 2530 2531 2534
6134 1 2532 2530 2531 2535
6135 1 2532 2530 2531 2536
6136 1 2533 2530 2531 2534
6137 1 2533 2530 2531 2535
6138 1 2533 2530 2531 2536
6139 1 2534 2531 2536 2537
6140 1 2534 2531 2536 2538
6141 1 2534 2531 2536 2539
6142 1 2535 2531 2536 2537
6143 1 2535 2531 2536 2538
6144 1 2535 2531 2536 2539
6145 1 2536 2537 2542 2543
6146 1 2536 2537 2542 2544
6147 1 2536 2537 2542 2545
6148 1 2537 2542 2543 2546
6149 1 2537 2542 2543 2547
6150 1 2537 2542 2543 2548
6151 1 2538 2536 2537 2540
6152 1 2538 2536 2537 2541
6153 1 2538 2536 2537 2542
6154 1 2539 2536 2537 2540
6155 1 2539 2536 2537 2541
6156 1 2539 2536 2537 2542
6157 1 2540 2537 2542 2543
6158 1 2540 2537 2542 2544
6159 1 2540 2537 2542 2545
6160 1 2541 2537 2542 2543
6161 1 2541 2537 2542 2544
6162 1 2541 2537 2542 2545
6163 1 2542 2543 2548 2549
6164 1 2542 2543 2548 2550
6165 1 2542 2543 2548 2551
6166 1 2543 2548 2549 2552
6167 1 2543 2548 2549 2553
6168 1 2543 2548 2549 2554
6169 1 2544 2542 2543 2546
6170 1 2544 2542 2543 2547
6171 1 2544 2542 2543 2548
6172 1 2545 2542 2543 2546
6173 1 2545 2542 2543 2547
6174 1 2545 2542 2543 2548
6175 1 2546 2543 2548 2549
6176 1 2546 2543 2548 2550
6177 1 2546 2543 2548 2551
6178 1 2547 2543 2548 2549
6179 1 2547 2543 2548 2550
6180 1 2547 2543 2548 2551
6181 1 2548 2549 2554 2555
6182 1 2548 2549 2554 2556
6183 1 2548 2549 2554 2557
6184 1 2549 2554 2555 2558
6185 1 2549 2554 2555 2559
6186 1 2550 2548 2549 2552
6187 1 2550 2548 2549 2553
6188 1 2550 2548 2549 2554
6189 1 2551 2548 2549 2552
6190 1 2551 2548 2549 2553
6191 1 2551 2548 2549 2554
6192 1 2552 2549 2554 2555
6193 1 2552 2549 2554 2556
6194 1 2552 2549 2554 2557
6195 1 2553 2549 2554 2555
6196 1 2553 2549 2554 2556
6197 1 2553 2549 2554 2557
6198 1 2556 2554 2555 2558
6199 1 2556 2554 2555 2559
6200 1 2557 2554 2555 2558
6201 1 2557 2554 2555 2559
6202 1 2561 2562 2567 2568
6203 1 2561 2562 2567 2569
6204 1 2561 2562 2567 2570
6205 1 2562 2567 2568 2571
6206 1 2562 2567 2568 2572
6207 1 2562 2567 2568 2573
6208 1 2563 2561 2562 2565
6209 1 2563 2561 2562 2566
6210 1 2563 2561 2562 2567
6211 1 2564 2561 2562 2565
6212 1 2564 2561 2562 2566
6213 1 2564 2561 2562 2567
6214 1 2565 2562 2567 2568
6215 1 2565 2562 2567 2569
6216 1 2565 2562 2567 2570
6217 1 2566 2562 2567 2568
6218 1 2566 2562 2567 2569
6219 1 2566 2562 2567 2570
6220 1 2567 2568 2573 2574
6221 1 2567 2568 2573 2575
6222 1 2567 2568 2573 2576
6223 1 2568 2573 2574 2577
6224 1 2568 2573 2574 2578
6225 1 2568 2573 2574 2579
6226 1 2569 2567 2568 2571
6227 1 2569 2567 2568 2572
6228 1 2569 2567 2568 2573
6229 1 2570 2567 2568 2571
6230 1 2570 2567 2568 2572
6231 1 2570 2567 2568 2573
6232 1 2571 2568 2573 2574
6233 1 2571 2568 2573 2575
6234 1 2571 2568 2573 2576
6235 1 2572 2568 2573 2574
6236 1 2572 2568 2573 2575
6237 1 2572 2568 2573 2576
6238 1 2573 2574 2579 2580
6239 1 2573 2574 2579 2581
6240 1 2573 2574 2579 2582
6241 1 2574 2579 2580 2583
6242 1 2574 2579 2580 2584
6243 1 2574 2579 2580 2585
6244 1 2575 2573 2574 2577
6245 1 2575 2573 2574 2578
6246 1 2575 2573 2574 2579
6247 1 2576 2573 2574 2577
6248 1 2576 2573 2574 2578
6249 1 2576 2573 2574 2579
6250 1 2577 2574 2579 2580
6251 1 2577 2574 2579 2581
6252 1 2577 2574 2579 2582
6253 1 2578 2574 2579 2580
6254 1 2578 2574 2579 2581
6255 1 2578 2574 2579 2582
6256 1 2579 2580 2585 2586
6257 1 2579 2580 2585 2587
6258 1 2579 2580 2585 2588
6259 1 2580 2585 2586 2589
6260 1 2580 2585 2586 2590
6261 1 2581 2579 2580 2583
6262 1 2581 2579 2580 2584
6263 1 2581 2579 2580 2585
6264 1 2582 2579 2580 2583
6265 1 2582 2579 2580 2584
6266 1 2582 2579 2580 2585
6267 1 2583 2580 2585 2586
6268 1 2583 2580 2585 2587
6269 1 2583 2580 2585 2588
6270 1 2584 2580 2585 2586
6271 1 2584 2580 2585 2587
6272 1 2584 2580 2585 2588
6273 1 2587 2585 2586 2589
6274 1 2587 2585 2586 2590
6275 1 2588 2585 2586 2589
6276 1 2588 2585 2586 2590
6277 1 2592 2593 2598 2599
6278 1 2592 2593 2598 2600
6279 1 2592 2593 2598 2601
6280 1 2593 2598 2599 2602
6281 1 2593 2598 2599 2603
6282 1 2593 2598 2599 2604
6283 1 2594 2592 2593 2596
6284 1 2594 2592 2593 2597
6285 1 2594 2592 2593 2598
6286 1 2595 2592 2593 2596
6287 1 2595 2592 2593 2597
6288 1 2595 2592 2593 2598
6289 1 2596 2593 2598 2599
6290 1 2596 2593 2598 2600
6291 1 2596 2593 2598 2601
6292 1 2597 2593 2598 2599
6293 1 2597 2593 2598 2600
6294 1 2597 2593 2598 2601
6295 1 2598 2599 2604 2605
6296 1 2598 2599 2604 2606
6297 1 2598 2599 2604 2607
6298 1 2599 2604 2605 2608
6299 1 2599 2604 2605 2609
6300 1 2599 2604 2605 2610
6301 1 2600 2598 2599 2602
6302 1 2600 2598 2599 2603
6303 1 2600 2598 2599 2604
6304 1 2601 2598 2599 2602
6305 1 2601 2598 2599 2603
6306 1 2601 2598 2599 2604
6307 1 2602 2599 2604 2605
6308 1 2602 2599 2604 2606
6309 1 2602 2599 2604 2607
6310 1 2603 2599 2604 2605
6311 1 2603 2599 2604 2606
6312 1 2603 2599 2604 2607
6313 1 2604 2605 2610 2611
6314 1 2604 2605 2610 2612
6315 1 2604 2605 2610 2613
6316 1 2605 2610 2611 2614
6317 1 2605 2610 2611 2615
6318 1 2605 2610 2611 2616
6319 1 2606 2604 2605 2608
6320 1 2606 2604 2605 2609
6321 1 2606 2604 2605 2610
6322 1 2607 2604 2605 2608
6323 1 2607 2604 2605 2609
6324 1 2607 2604 2605 2610
6325 1 2608 2605 2610 2611
6326 1 2608 2605 2610 2612
6327 1 2608 2605 2610 2613
6328 1 2609 2605 2610 2611
6329 1 2609 2605 2610 2612
6330 1 2609 2605 2610 2613
6331 1 2610 2611 2616 2617
6332 1 2610 2611 2616 2618
6333 1 2610 2611 2616 2619
6334 1 2611 2616 2617 2620
6335 1 2611 2616 2617 2621
6336 1 2612 2610 2611 2614
6337 1 2612 2610 2611 2615
6338 1 2612 2610 2611 2616
6339 1 2613 2610 2611 2614
6340 1 2613 2610 2611 2615
6341 1 2613 2610 2611 2616
6342 1 2614 2611 2616 2617
6343 1 2614 2611 2616 2618
6344 1 2614 2611 2616 2619
6345 1 2615 2611 2616 2617
6346 1 2615 2611 2616 2618
6347 1 2615 2611 2616 2619
6348 1 2618 2616 2617 2620
6349 1 2618 2616 2617 2621
6350 1 2619 2616 2617 2620
6351 1 2619 2616 2617 2621
6352 1 2623 2624 2629 2630
6353 1 2623 2624 2629 2631
6354 1 2623 2624 2629 2632
6355 1 2624 2629 2630 2633
6356 1 2624 2629 2630 2634
6357 1 2624 2629 2630 2635
6358 1 2625 2623 2624 2627
6359 1 2625 2623 2624 2628
6360 1 2625 2623 2624 2629
6361 1 2626 2623 2624 2627
6362 1 2626 2623 2624 2628
6363 1 2626 2623 2624 2629
6364 1 2627 2624 2629 2630
6365 1 2627 2624 2629 2631
6366 1 2627 2624 2629 2632
6367 1 2628 2624 2629 2630
6368 1 2628 2624 2629 2631
6369 1 2628 2624 2629 2632
6370 1 2629 2630 2635 2636
6371 1 2629 2630 2635 2637
6372 1 2629 2630 2635 2638
6373 1 2630 2635 2636 2639
6374 1 2630 2635 2636 2640
6375 1 2630 2635 2636 2641
6376 1 2631 2629 2630 2633
6377 1 2631 2629 2630 2634
6378 1 2631 2629 2630 2635
6379 1 2632 2629 2630 2633
6380 1 2632 2629 2630 2634
6381 1 2632 2629 2630 2635
6382 1 2633 2630 2635 2636
6383 1 2633 2630 2635 2637
6384 1 2633 2630 2635 2638
6385 1 2634 2630 2635 2636
6386 1 2634 2630 2635 2637
6387 1 2634 2630 2635 2638
6388 1 2635 2636 2641 2642
6389 1 2635 2636 2641 2643
6390 1 2635 2636 2641 2644
6391 1 2636 2641 2642 2645
6392 1 2636 2641 2642 2646
6393 1 2636 2641 2642 2647
6394 1 2637 2635 2636 2639
6395 1 2637 2635 2636 2640
6396 1 2637 2635 2636 2641
6397 1 2638 2635 2636 2639
6398 1 2638 2635 2636 2640
6399 1 2638 2635 2636 2641
6400 1 2639 2636 2641 2642
6401 1 2639 2636 2641 2643
6402 1 2639 2636 2641 2644
6403 1 2640 2636 2641 2642
6404 1 2640 2636 2641 2643
6405 1 2640 2636 2641 2644
6406 1 2641 2642 2647 2648
6407 1 2641 2642 2647 2649
6408 1 2641 2642 2647 2650
6409 1 2642 2647 2648 2651
6410 1 2642 2647 2648 2652
6411 1 2643 2641 2642 2645
6412 1 2643 2641 2642 2646
6413 1 2643 2641 2642 2647
6414 1 2644 2641 2642 2645
6415 1 2644 2641 2642 2646
6416 1 2644 2641 2642 2647
6417 1 2645 2642 2647 2648
6418 1 2645 2642 2647 2649
6419 1 2645 2642 2647 2650
6420 1 2646 2642 2647 2648
6421 1 2646 2642 2647 2649
6422 1 2646 2642 2647 2650
6423 1 2649 2647 2648 2651
6424 1 2649 2647 2648 2652
6425 1 2650 2647 2648 2651
6426 1 2650 2647 2648 2652
6427 1 2654 2655 2660 2661
6428 1 2654 2655 2660 2662
6429 1 2654 2655 2660 2663
6430 1 2655 2660 2661 2664
6431 1 2655 2660 2661 2665
6432 1 2655 2660 2661 2666
6433 1 2656 2654 2655 2658
6434 1 2656 2654 2655 2659
6435 1 2656 2654 2655 2660
6436 1 2657 2654 2655 2658
6437 1 2657 2654 2655 2659
6438 1 2657 2654 2655 2660
6439 1 2658 2655 2660 2661
6440 1 2658 2655 2660 2662
6441 1 2658 2655 2660 2663
6442 1 2659 2655 2660 2661
6443 1 2659 2655 2660 2662
6444 1 2659 2655 2660 2663
6445 1 2660 2661 2666 2667
6446 1 2660 2661 2666 2668
6447 1 2660 2661 2666 2669
6448 1 2661 2666 2667 2670
6449 1 2661 2666 2667 2671
6450 1 2661 2666 2667 2672
6451 1 2662 2660 2661 2664
6452 1 2662 2660 2661 2665
6453 1 2662 2660 2661 2666
6454 1 2663 2660 2661 2664
6455 1 2663 2660 2661 2665
6456 1 2663 2660 2661 2666
6457 1 2664 2661 2666 2667
6458 1 2664 2661 2666 2668
6459 1 2664 2661 2666 2669
6460 1 2665 2661 2666 2667
6461 1 2665 2661 2666 2668
6462 1 2665 2661 2666 2669
6463 1 2666 2667 2672 2673
6464 1 2666 2667 2672 2674
6465 1 2666 2667 2672 2675
6466 1 2667 2672 2673 2676
6467 1 2667 2672 2673 2677
6468 1 2667 2672 2673 2678
6469 1 2668 2666 2667 2670
6470 1 2668 2666 2667 2671
6471 1 2668 2666 2667 2672
6472 1 2669 2666 2667 2670
6473 1 2669 2666 2667 2671
6474 1 2669 2666 2667 2672
6475 1 2670 2667 2672 2673
6476 1 2670 2667 2672 2674
6477 1 2670 2667 2672 2675
6478 1 2671 2667 2672 2673
6479 1 2671 2667 2672 2674
6480 1 2671 2667 2672 2675
6481 1 2672 2673 2678 2679
6482 1 2672 2673 2678 2680
6483 1 2672 2673 2678 2681
6484 1 2673 2678 2679 2682
6485 1 2673 2678 2679 2683
6486 1 2674 2672 2673 2676
6487 1 2674 2672 2673 2677
6488 1 2674 2672 2673 2678
6489 1 2675 2672 2673 2676
6490 1 2675 2672 2673 2677
6491 1 2675 2672 2673 2678
6492 1 2676 2673 2678 2679
6493 1 2676 2673 2678 2680
6494 1 2676 2673 2678 2681
6495 1 2677 2673 2678 2679
6496 1 2677 2673 2678 2680
6497 1 2677 2673 2678 2681
6498 1 2680 2678 2679 2682
6499 1 2680 2678 2679 2683
6500 1 2681 2678 2679 2682
6501 1 2681 2678 2679 2683
6502 1 2685 2686 2691 2692
6503 1 2685 2686 2691 2693
6504 1 2685 2686 2691 2694
6505 1 2686 2691 2692 2695
6506 1 2686 2691 2692 2696
6507 1 2686 2691 2692 2697
6508 1 2687 2685 2686 2689
6509 1 2687 2685 2686 2690
6510 1 2687 2685 2686 2691
6511 1 2688 2685 2686 2689
6512 1 2688 2685 2686 2690
6513 1 2688 2685 2686 2691
6514 1 2689 2686 2691 2692
6515 1 2689 2686 2691 2693
6516 1 2689 2686 2691 2694
6517 1 2690 2686 2691 2692
6518 1 2690 2686 2691 2693
6519 1 2690 2686 2691 2694
6520 1 2691 2692 2697 2698
6521 1 2691 2692 2697 2699
6522 1 2691 2692 2697 2700
6523 1 2692 2697 2698 2701
6524 1 2692 2697 2698 2702
6525 1 2692 2697 2698 2703
6526 1 2693 2691 2692 2695
6527 1 2693 2691 2692 2696
6528 1 2693 2691 2692 2697
6529 1 2694 2691 2692 2695
6530 1 2694 2691 2692 2696
6531 1 2694 2691 2692 2697
6532 1 2695 2692 2697 2698
6533 1 2695 2692 2697 2699
6534 1 2695 2692 2697 2700
6535 1 2696 2692 2697 2698
6536 1 2696 2692 2697 2699
6537 1 2696 2692 2697 2700
6538 1 2697 2698 2703 2704
6539 1 2697 2698 2703 2705
6540 1 2697 2698 2703 2706
6541 1 2698 2703 2704 2707
6542 1 2698 2703 2704 2708
6543 1 2698 2703 2704 2709
6544 1 2699 2697 2698 2701
6545 1 2699 2697 2698 2702
6546 1 2699 2697 2698 2703
6547 1 2700 2697 2698 2701
6548 1 2700 2697 2698 2702
6549 1 2700 2697 2698 2703
6550 1 2701 2698 2703 2704
6551 1 2701 2698 2703 2705
6552 1 2701 2698 2703 2706
6553 1 2702 2698 2703 2704
6554 1 2702 2698 2703 2705
6555 1 2702 2698 2703 2706
6556 1 2703 2704 2709 2710
6557 1 2703 2704 2709 2711
6558 1 2703 2704 2709 2712
6559 1 2704 2709 2710 2713
6560 1 2704 2709 2710 2714
6561 1 2705 2703 2704 2707
6562 1 2705 2703 2704 2708
6563 1 2705 2703 2704 2709
6564 1 2706 2703 2704 2707
6565 1 2706 2703 2704 2708
6566 1 2706 2703 2704 2709
6567 1 2707 2704 2709 2710
6568 1 2707 2704 2709 2711
6569 1 2707 2704 2709 2712
6570 1 2708 2704 2709 2710
6571 1 2708 2704 2709 2711
6572 1 2708 2704 2709 2712
6573 1 2711 2709 2710 2713
6574 1 2711 2709 2710 2714
6575 1 2712 2709 2710 2713
6576 1 2712 2709 2710 2714
6577 1 2716 2717 2722 2723
6578 1 2716 2717 2722 2724
6579 1 2716 2717 2722 2725
6580 1 2717 2722 2723 2726
6581 1 2717 2722 2723 2727
6582 1 2717 2722 2723 2728
6583 1 2718 2716 2717 2720
6584 1 2718 2716 2717 2721
6585 1 2718 2716 2717 2722
6586 1 2719 2716 2717 2720
6587 1 2719 2716 2717 2721
6588 1 2719 2716 2717 2722
6589 1 2720 2717 2722 2723
6590 1 2720 2717 2722 2724
6591 1 2720 2717 2722 2725
6592 1 2721 2717 2722 2723
6593 1 2721 2717 2722 2724
6594 1 2721 2717 2722 2725
6595 1 2722 2723 2728 2729
6596 1 2722 2723 2728 2730
6597 1 2722 2723 2728 2731
6598 1 2723 2728 2729 2732
6599 1 2723 2728 2729 2733
6600 1 2723 2728 2729 2734
6601 1 2724 2722 2723 2726
6602 1 2724 2722 2723 2727
6603 1 2724 2722 2723 2728
6604 1 2725 2722 2723 2726
6605 1 2725 2722 2723 2727
6606 1 2725 2722 2723 2728
6607 1 2726 2723 2728 2729
6608 1 2726 2723 2728 2730
6609 1 2726 2723 2728 2731
6610 1 2727 2723 2728 2729
6611 1 2727 2723 2728 2730
6612 1 2727 2723 2728 2731
6613 1 2728 2729 2734 2735
6614 1 2728 2729 2734 2736
6615 1 2728 2729 2734 2737
6616 1 2729 2734 2735 2738
6617 1 2729 2734 2735 2739
6618 1 2729 2734 2735 2740
6619 1 2730 2728 2729 2732
6620 1 2730 2728 2729 2733
6621 1 2730 2728 2729 2734
6622 1 2731 2728 2729 2732
6623 1 2731 2728 2729 2733
6624 1 2731 2728 2729 2734
6625 1 2732 2729 2734 2735
6626 1 2732 2729 2734 2736
6627 1 2732 2729 2734 2737
6628 1 2733 2729 2734 2735
6629 1 2733 2729 2734 2736
6630 1 2733 2729 2734 2737
6631 1 2734 2735 2740 2741
6632 1 2734 2735 2740 2742
6633 1 2734 2735 2740 2743
6634 1 2735 2740 2741 2744
6635 1 2735 2740 2741 2745
6636 1 2736 2734 2735 2738
6637 1 2736 2734 2735 2739
6638 1 2736 2734 2735 2740
6639 1 2737 2734 2735 2738
6640 1 2737 2734 2735 2739
6641 1 2737 2734 2735 2740
6642 1 2738 2735 2740 2741
6643 1 2738 2735 2740 2742
6644 1 2738 2735 2740 2743
6645 1 2739 2735 2740 2741
6646 1 2739 2735 2740 2742
6647 1 2739 2735 2740 2743
6648 1 2742 2740 2741 2744
6649 1 2742 2740 2741 2745
6650 1 2743 2740 2741 2744
6651 1 2743 2740 2741 2745
6652 1 2747 2748 2753 2754
6653 1 2747 2748 2753 2755
6654 1 2747 2748 2753 2756
6655 1 2748 2753 2754 2757
6656 1 2748 2753 2754 2758
6657 1 2748 2753 2754 2759
6658 1 2749 2747 2748 2751
6659 1 2749 2747 2748 2752
6660 1 2749 2747 2748 2753
6661 1 2750 2747 2748 2751
6662 1 2750 2747 2748 2752
6663 1 2750 2747 2748 2753
6664 1 2751 2748 2753 2754
6665 1 2751 2748 2753 2755
6666 1 2751 2748 2753 2756
6667 1 2752 2748 2753 2754
6668 1 2752 2748 2753 2755
6669 1 2752 2748 2753 2756
6670 1 2753 2754 2759 2760
6671 1 2753 2754 2759 2761
6672 1 2753 2754 2759 2762
6673 1 2754 2759 2760 2763
6674 1 2754 2759 2760 2764
6675 1 2754 2759 2760 2765
6676 1 2755 2753 2754 2757
6677 1 2755 2753 2754 2758
6678 1 2755 2753 2754 2759
6679 1 2756 2753 2754 2757
6680 1 2756 2753 2754 2758
6681 1 2756 2753 2754 2759
6682 1 2757 2754 2759 2760
6683 1 2757 2754 2759 2761
6684 1 2757 2754 2759 2762
6685 1 2758 2754 2759 2760
6686 1 2758 2754 2759 2761
6687 1 2758 2754 2759 2762
6688 1 2759 2760 2765 2766
6689 1 2759 2760 2765 2767
6690 1 2759 2760 2765 2768
6691 1 2760 2765 2766 2769
6692 1 2760 2765 2766 2770
6693 1 2760 2765 2766 2771
6694 1 2761 2759 2760 2763
6695 1 2761 2759 2760 2764
6696 1 2761 2759 2760 2765
6697 1 2762 2759 2760 2763
6698 1 2762 2759 2760 2764
6699 1 2762 2759 2760 2765
6700 1 2763 2760 2765 2766
6701 1 2763 2760 2765 2767
6702 1 2763 2760 2765 2768
6703 1 2764 2760 2765 2766
6704 1 2764 2760 2765 2767
6705 1 2764 2760 2765 2768
6706 1 2765 2766 2771 2772
6707 1 2765 2766 2771 2773
6708 1 2765 2766 2771 2774
6709 1 2766 2771 2772 2775
6710 1 2766 2771 2772 2776
6711 1 2767 2765 2766 2769
6712 1 2767 2765 2766 2770
6713 1 2767 2765 2766 2771
6714 1 2768 2765 2766 2769
6715 1 2768 2765 2766 2770
6716 1 2768 2765 2766 2771
6717 1 2769 2766 2771 2772
6718 1 2769 2766 2771 2773
6719 1 2769 2766 2771 2774
6720 1 2770 2766 2771 2772
6721 1 2770 2766 2771 2773
6722 1 2770 2766 2771 2774
6723 1 2773 2771 2772 2775
6724 1 2773 2771 2772 2776
6725 1 2774 2771 2772 2775
6726 1 2774 2771 2772 2776
6727 1 2780 2778 2779 2782
6728 1 2780 2778 2779 2783
6729 1 2780 2778 2779 2784
6730 1 2781 2778 2779 2782
6731 1 2781 2778 2779 2783
6732 1 2781 2778 2779 2784
6733 1 2785 2786 2778 2779
6734 1 2785 2786 2778 2780
6735 1 2785 2786 2778 2781
6736 1 2786 2778 2779 2782
6737 1 2786 2778 2779 2783
6738 1 2786 2778 2779 2784
6739 1 2787 2785 2786 2778
6740 1 2787 2785 2786 2789
6741 1 2787 2785 2786 2790
6742 1 2788 2785 2786 2778
6743 1 2788 2785 2786 2789
6744 1 2788 2785 2786 2790
6745 1 2789 2786 2778 2779
6746 1 2789 2786 2778 2780
6747 1 2789 2786 2778 2781
6748 1 2790 2786 2778 2779
6749 1 2790 2786 2778 2780
6750 1 2790 2786 2778 2781
6751 1 2791 2792 2785 2786
6752 1 2791 2792 2785 2787
6753 1 2791 2792 2785 2788
6754 1 2792 2785 2786 2778
6755 1 2792 2785 2786 2789
6756 1 2792 2785 2786 2790
6757 1 2793 2791 2792 2785
6758 1 2793 2791 2792 2795
6759 1 2793 2791 2792 2796
6760 1 2794 2791 2792 2785
6761 1 2794 2791 2792 2795
6762 1 2794 2791 2792 2796
6763 1 2795 2792 2785 2786
6764 1 2795 2792 2785 2787
6765 1 2795 2792 2785 2788
6766 1 2796 2792 2785 2786
6767 1 2796 2792 2785 2787
6768 1 2796 2792 2785 2788
6769 1 2797 2798 2791 2792
6770 1 2797 2798 2791 2793
6771 1 2797 2798 2791 2794
6772 1 2798 2791 2792 2785
6773 1 2798 2791 2792 2795
6774 1 2798 2791 2792 2796
6775 1 2799 2797 2798 2791
6776 1 2799 2797 2798 2801
6777 1 2799 2797 2798 2802
6778 1 2800 2797 2798 2791
6779 1 2800 2797 2798 2801
6780 1 2800 2797 2798 2802
6781 1 2801 2798 2791 2792
6782 1 2801 2798 2791 2793
6783 1 2801 2798 2791 2794
6784 1 2802 2798 2791 2792
6785 1 2802 2798 2791 2793
6786 1 2802 2798 2791 2794
6787 1 2803 2804 2797 2798
6788 1 2803 2804 2797 2799
6789 1 2803 2804 2797 2800
6790 1 2804 2797 2798 2791
6791 1 2804 2797 2798 2801
6792 1 2804 2797 2798 2802
6793 1 2805 2803 2804 2797
6794 1 2805 2803 2804 2807
6795 1 2805 2803 2804 2808
6796 1 2806 2803 2804 2797
6797 1 2806 2803 2804 2807
6798 1 2806 2803 2804 2808
6799 1 2807 2804 2797 2798
6800 1 2807 2804 2797 2799
6801 1 2807 2804 2797 2800
6802 1 2808 2804 2797 2798
6803 1 2808 2804 2797 2799
6804 1 2808 2804 2797 2800
6805 1 2810 2817 2818 2821
6806 1 2810 2817 2818 2822
6807 1 2810 2817 2818 2823
6808 1 2811 2810 2817 2818
6809 1 2811 2810 2817 2819
6810 1 2811 2810 2817 2820
6811 1 2812 2810 2811 2814
6812 1 2812 2810 2811 2815
6813 1 2812 2810 2811 2816
6814 1 2812 2810 2817 2818
6815 1 2812 2810 2817 2819
6816 1 2812 2810 2817 2820
6817 1 2813 2810 2811 2814
6818 1 2813 2810 2811 2815
6819 1 2813 2810 2811 2816
6820 1 2813 2810 2817 2818
6821 1 2813 2810 2817 2819
6822 1 2813 2810 2817 2820
6823 1 2817 2810 2811 2814
6824 1 2817 2810 2811 2815
6825 1 2817 2810 2811 2816
6826 1 2817 2818 2823 2824
6827 1 2817 2818 2823 2825
6828 1 2817 2818 2823 2826
6829 1 2818 2823 2824 2827
6830 1 2818 2823 2824 2828
6831 1 2818 2823 2824 2829
6832 1 2819 2817 2818 2821
6833 1 2819 2817 2818 2822
6834 1 2819 2817 2818 2823
6835 1 2820 2817 2818 2821
6836 1 2820 2817 2818 2822
6837 1 2820 2817 2818 2823
6838 1 2821 2818 2823 2824
6839 1 2821 2818 2823 2825
6840 1 2821 2818 2823 2826
6841 1 2822 2818 2823 2824
6842 1 2822 2818 2823 2825
6843 1 2822 2818 2823 2826
6844 1 2823 2824 2829 2830
6845 1 2823 2824 2829 2831
6846 1 2823 2824 2829 2832
6847 1 2824 2829 2830 2833
6848 1 2824 2829 2830 2834
6849 1 2824 2829 2830 2835
6850 1 2825 2823 2824 2827
6851 1 2825 2823 2824 2828
6852 1 2825 2823 2824 2829
6853 1 2826 2823 2824 2827
6854 1 2826 2823 2824 2828
6855 1 2826 2823 2824 2829
6856 1 2827 2824 2829 2830
6857 1 2827 2824 2829 2831
6858 1 2827 2824 2829 2832
6859 1 2828 2824 2829 2830
6860 1 2828 2824 2829 2831
6861 1 2828 2824 2829 2832
6862 1 2829 2830 2835 2836
6863 1 2829 2830 2835 2837
6864 1 2829 2830 2835 2838
6865 1 2830 2835 2836 2839
6866 1 2830 2835 2836 2840
6867 1 2831 2829 2830 2833
6868 1 2831 2829 2830 2834
6869 1 2831 2829 2830 2835
6870 1 2832 2829 2830 2833
6871 1 2832 2829 2830 2834
6872 1 2832 2829 2830 2835
6873 1 2833 2830 2835 2836
6874 1 2833 2830 2835 2837
6875 1 2833 2830 2835 2838
6876 1 2834 2830 2835 2836
6877 1 2834 2830 2835 2837
6878 1 2834 2830 2835 2838
6879 1 2837 2835 2836 2839
6880 1 2837 2835 2836 2840
6881 1 2838 2835 2836 2839
6882 1 2838 2835 2836 2840
6883 1 2842 2843 2848 2849
6884 1 2842 2843 2848 2850
6885 1 2842 2843 2848 2851
6886 1 2843 2848 2849 2852
6887 1 2843 2848 2849 2853
6888 1 2843 2848 2849 2854
6889 1 2844 2842 2843 2846
6890 1 2844 2842 2843 2847
6891 1 2844 2842 2843 2848
6892 1 2845 2842 2843 2846
6893 1 2845 2842 2843 2847
6894 1 2845 2842 2843 2848
6895 1 2846 2843 2848 2849
6896 1 2846 2843 2848 2850
6897 1 2846 2843 2848 2851
6898 1 2847 2843 2848 2849
6899 1 2847 2843 2848 2850
6900 1 2847 2843 2848 2851
6901 1 2848 2849 2854 2855
6902 1 2848 2849 2854 2856
6903 1 2848 2849 2854 2857
6904 1 2849 2854 2855 2858
6905 1 2849 2854 2855 2859
6906 1 2849 2854 2855 2860
6907 1 2850 2848 2849 2852
6908 1 2850 2848 2849 2853
6909 1 2850 2848 2849 2854
6910 1 2851 2848 2849 2852
6911 1 2851 2848 2849 2853
6912 1 2851 2848 2849 2854
6913 1 2852 2849 2854 2855
6914 1 2852 2849 2854 2856
6915 1 2852 2849 2854 2857
6916 1 2853 2849 2854 2855
6917 1 2853 2849 2854 2856
6918 1 2853 2849 2854 2857
6919 1 2854 2855 2860 2861
6920 1 2854 2855 2860 2862
6921 1 2854 2855 2860 2863
6922 1 2855 2860 2861 2864
6923 1 2855 2860 2861 2865
6924 1 2855 2860 2861 2866
6925 1 2856 2854 2855 2858
6926 1 2856 2854 2855 2859
6927 1 2856 2854 2855 2860
6928 1 2857 2854 2855 2858
6929 1 2857 2854 2855 2859
6930 1 2857 2854 2855 2860
6931 1 2858 2855 2860 2861
6932 1 2858 2855 2860 2862
6933 1 2858 2855 2860 2863
6934 1 2859 2855 2860 2861
6935 1 2859 2855 2860 2862
6936 1 2859 2855 2860 2863
6937 1 2860 2861 2866 2867
6938 1 2860 2861 2866 2868
6939 1 2860 2861 2866 2869
6940 1 2861 2866 2867 2870
6941 1 2861 2866 2867 2871
6942 1 2862 2860 2861 2864
6943 1 2862 2860 2861 2865
6944 1 2862 2860 2861 2866
6945 1 2863 2860 2861 2864
6946 1 2863 2860 2861 2865
6947 1 2863 2860 2861 2866
6948 1 2864 2861 2866 2867
6949 1 2864 2861 2866 2868
6950 1 2864 2861 2866 2869
6951 1 2865 2861 2866 2867
6952 1 2865 2861 2866 2868
6953 1 2865 2861 2866 2869
6954 1 2868 2866 2867 2870
6955 1 2868 2866 2867 2871
6956 1 2869 2866 2867 2870
6957 1 2869 2866 2867 2871
6958 1 2873 2874 2879 2880
6959 1 2873 2874 2879 2881
6960 1 2873 2874 2879 2882
6961 1 2874 2879 2880 2883
6962 1 2874 2879 2880 2884
6963 1 2874 2879 2880 2885
6964 1 2875 2873 2874 2877
6965 1 2875 2873 2874 2878
6966 1 2875 2873 2874 2879
6967 1 2876 2873 2874 2877
6968 1 2876 2873 2874 2878
6969 1 2876 2873 2874 2879
6970 1 2877 2874 2879 2880
6971 1 2877 2874 2879 2881
6972 1 2877 2874 2879 2882
6973 1 2878 2874 2879 2880
6974 1 2878 2874 2879 2881
6975 1 2878 2874 2879 2882
6976 1 2879 2880 2885 2886
6977 1 2879 2880 2885 2887
6978 1 2879 2880 2885 2888
6979 1 2880 2885 2886 2889
6980 1 2880 2885 2886 2890
6981 1 2880 2885 2886 2891
6982 1 2881 2879 2880 2883
6983 1 2881 2879 2880 2884
6984 1 2881 2879 2880 2885
6985 1 2882 2879 2880 2883
6986 1 2882 2879 2880 2884
6987 1 2882 2879 2880 2885
6988 1 2883 2880 2885 2886
6989 1 2883 2880 2885 2887
6990 1 2883 2880 2885 2888
6991 1 2884 2880 2885 2886
6992 1 2884 2880 2885 2887
6993 1 2884 2880 2885 2888
6994 1 2885 2886 2891 2892
6995 1 2885 2886 2891 2893
6996 1 2885 2886 2891 2894
6997 1 2886 2891 2892 2895
6998 1 2886 2891 2892 2896
6999 1 2886 2891 2892 2897
7000 1 2887 2885 2886 2889
7001 1 2887 2885 2886 2890
7002 1 2887 2885 2886 2891
7003 1 2888 2885 2886 2889
7004 1 2888 2885 2886 2890
7005 1 2888 2885 2886 2891
7006 1 2889 2886 2891 2892
7007 1 2889 2886 2891 2893
7008 1 2889 2886 2891 2894
7009 1 2890 2886 2891 2892
7010 1 2890 2886 2891 2893
7011 1 2890 2886 2891 2894
7012 1 2891 2892 2897 2898
7013 1 2891 2892 2897 2899
7014 1 2891 2892 2897 2900
7015 1 2892 2897 2898 2901
7016 1 2892 2897 2898 2902
7017 1 2893 2891 2892 2895
7018 1 2893 2891 2892 2896
7019 1 2893 2891 2892 2897
7020 1 2894 2891 2892 2895
7021 1 2894 2891 2892 2896
7022 1 2894 2891 2892 2897
7023 1 2895 2892 2897 2898
7024 1 2895 2892 2897 2899
7025 1 2895 2892 2897 2900
7026 1 2896 2892 2897 2898
7027 1 2896 2892 2897 2899
7028 1 2896 2892 2897 2900
7029 1 2899 2897 2898 2901
7030 1 2899 2897 2898 2902
7031 1 2900 2897 2898 2901
7032 1 2900 2897 2898 2902
7033 1 2904 2905 2910 2911
7034 1 2904 2905 2910 2912
7035 1 2904 2905 2910 2913
7036 1 2905 2910 2911 2914
7037 1 2905 2910 2911 2915
7038 1 2905 2910 2911 2916
7039 1 2906 2904 2905 2908
7040 1 2906 2904 2905 2909
7041 1 2906 2904 2905 2910
7042 1 2907 2904 2905 2908
7043 1 2907 2904 2905 2909
7044 1 2907 2904 2905 2910
7045 1 2908 2905 2910 2911
7046 1 2908 2905 2910 2912
7047 1 2908 2905 2910 2913
7048 1 2909 2905 2910 2911
7049 1 2909 2905 2910 2912
7050 1 2909 2905 2910 2913
7051 1 2910 2911 2916 2917
7052 1 2910 2911 2916 2918
7053 1 2910 2911 2916 2919
7054 1 2911 2916 2917 2920
7055 1 2911 2916 2917 2921
7056 1 2911 2916 2917 2922
7057 1 2912 2910 2911 2914
7058 1 2912 2910 2911 2915
7059 1 2912 2910 2911 2916
7060 1 2913 2910 2911 2914
7061 1 2913 2910 2911 2915
7062 1 2913 2910 2911 2916
7063 1 2914 2911 2916 2917
7064 1 2914 2911 2916 2918
7065 1 2914 2911 2916 2919
7066 1 2915 2911 2916 2917
7067 1 2915 2911 2916 2918
7068 1 2915 2911 2916 2919
7069 1 2916 2917 2922 2923
7070 1 2916 2917 2922 2924
7071 1 2916 2917 2922 2925
7072 1 2917 2922 2923 2926
7073 1 2917 2922 2923 2927
7074 1 2917 2922 2923 2928
7075 1 2918 2916 2917 2920
7076 1 2918 2916 2917 2921
7077 1 2918 2916 2917 2922
7078 1 2919 2916 2917 2920
7079 1 2919 2916 2917 2921
7080 1 2919 2916 2917 2922
7081 1 2920 2917 2922 2923
7082 1 2920 2917 2922 2924
7083 1 2920 2917 2922 2925
7084 1 2921 2917 2922 2923
7085 1 2921 2917 2922 2924
7086 1 2921 2917 2922 2925
7087 1 2922 2923 2928 2929
7088 1 2922 2923 2928 2930
7089 1 2922 2923 2928 2931
7090 1 2923 2928 2929 2932
7091 1 2923 2928 2929 2933
7092 1 2924 2922 2923 2926
7093 1 2924 2922 2923 2927
7094 1 2924 2922 2923 2928
7095 1 2925 2922 2923 2926
7096 1 2925 2922 2923 2927
7097 1 2925 2922 2923 2928
7098 1 2926 2923 2928 2929
7099 1 2926 2923 2928 2930
7100 1 2926 2923 2928 2931
7101 1 2927 2923 2928 2929
7102 1 2927 2923 2928 2930
7103 1 2927 2923 2928 2931
7104 1 2930 2928 2929 2932
7105 1 2930 2928 2929 2933
7106 1 2931 2928 2929 2932
7107 1 2931 2928 2929 2933
7108 1 2935 2936 2941 2942
7109 1 2935 2936 2941 2943
7110 1 2935 2936 2941 2944
7111 1 2936 2941 2942 2945
7112 1 2936 2941 2942 2946
7113 1 2936 2941 2942 2947
7114 1 2937 2935 2936 2939
7115 1 2937 2935 2936 2940
7116 1 2937 2935 2936 2941
7117 1 2938 2935 2936 2939
7118 1 2938 2935 2936 2940
7119 1 2938 2935 2936 2941
7120 1 2939 2936 2941 2942
7121 1 2939 2936 2941 2943
7122 1 2939 2936 2941 2944
7123 1 2940 2936 2941 2942
7124 1 2940 2936 2941 2943
7125 1 2940 2936 2941 2944
7126 1 2941 2942 2947 2948
7127 1 2941 2942 2947 2949
7128 1 2941 2942 2947 2950
7129 1 2942 2947 2948 2951
7130 1 2942 2947 2948 2952
7131 1 2942 2947 2948 2953
7132 1 2943 2941 2942 2945
7133 1 2943 2941 2942 2946
7134 1 2943 2941 2942 2947
7135 1 2944 2941 2942 2945
7136 1 2944 2941 2942 2946
7137 1 2944 2941 2942 2947
7138 1 2945 2942 2947 2948
7139 1 2945 2942 2947 2949
7140 1 2945 2942 2947 2950
7141 1 2946 2942 2947 2948
7142 1 2946 2942 2947 2949
7143 1 2946 2942 2947 2950
7144 1 2947 2948 2953 2954
7145 1 2947 2948 2953 2955
7146 1 2947 2948 2953 2956
7147 1 2948 2953 2954 2957
7148 1 2948 2953 2954 2958
7149 1 2948 2953 2954 2959
7150 1 2949 2947 2948 2951
7151 1 2949 2947 2948 2952
7152 1 2949 2947 2948 2953
7153 1 2950 2947 2948 2951
7154 1 2950 2947 2948 2952
7155 1 2950 2947 2948 2953
7156 1 2951 2948 2953 2954
7157 1 2951 2948 2953 2955
7158 1 2951 2948 2953 2956
7159 1 2952 2948 2953 2954
7160 1 2952 2948 2953 2955
7161 1 2952 2948 2953 2956
7162 1 2953 2954 2959 2960
7163 1 2953 2954 2959 2961
7164 1 2953 2954 2959 2962
7165 1 2954 2959 2960 2963
7166 1 2954 2959 2960 2964
7167 1 2955 2953 2954 2957
7168 1 2955 2953 2954 2958
7169 1 2955 2953 2954 2959
7170 1 2956 2953 2954 2957
7171 1 2956 2953 2954 2958
7172 1 2956 2953 2954 2959
7173 1 2957 2954 2959 2960
7174 1 2957 2954 2959 2961
7175 1 2957 2954 2959 2962
7176 1 2958 2954 2959 2960
7177 1 2958 2954 2959 2961
7178 1 2958 2954 2959 2962
7179 1 2961 2959 2960 2963
7180 1 2961 2959 2960 2964
7181 1 2962 2959 2960 2963
7182 1 2962 2959 2960 2964
7183 1 2966 2967 2972 2973
7184 1 2966 2967 2972 2974
7185 1 2966 2967 2972 2975
7186 1 2967 2972 2973 2976
7187 1 2967 2972 2973 2977
7188 1 2967 2972 2973 2978
7189 1 2968 2966 2967 2970
7190 1 2968 2966 2967 2971
7191 1 2968 2966 2967 2972
7192 1 2969 2966 2967 2970
7193 1 2969 2966 2967 2971
7194 1 2969 2966 2967 2972
7195 1 2970 2967 2972 2973
7196 1 2970 2967 2972 2974
7197 1 2970 2967 2972 2975
7198 1 2971 2967 2972 2973
7199 1 2971 2967 2972 2974
7200 1 2971 2967 2972 2975
7201 1 2972 2973 2978 2979
7202 1 2972 2973 2978 2980
7203 1 2972 2973 2978 2981
7204 1 2973 2978 2979 2982
7205 1 2973 2978 2979 2983
7206 1 2973 2978 2979 2984
7207 1 2974 2972 2973 2976
7208 1 2974 2972 2973 2977
7209 1 2974 2972 2973 2978
7210 1 2975 2972 2973 2976
7211 1 2975 2972 2973 2977
7212 1 2975 2972 2973 2978
7213 1 2976 2973 2978 2979
7214 1 2976 2973 2978 2980
7215 1 2976 2973 2978 2981
7216 1 2977 2973 2978 2979
7217 1 2977 2973 2978 2980
7218 1 2977 2973 2978 2981
7219 1 2978 2979 2984 2985
7220 1 2978 2979 2984 2986
7221 1 2978 2979 2984 2987
7222 1 2979 2984 2985 2988
7223 1 2979 2984 2985 2989
7224 1 2979 2984 2985 2990
7225 1 2980 2978 2979 2982
7226 1 2980 2978 2979 2983
7227 1 2980 2978 2979 2984
7228 1 2981 2978 2979 2982
7229 1 2981 2978 2979 2983
7230 1 2981 2978 2979 2984
7231 1 2982 2979 2984 2985
7232 1 2982 2979 2984 2986
7233 1 2982 2979 2984 2987
7234 1 2983 2979 2984 2985
7235 1 2983 2979 2984 2986
7236 1 2983 2979 2984 2987
7237 1 2984 2985 2990 2991
7238 1 2984 2985 2990 2992
7239 1 2984 2985 2990 2993
7240 1 2985 2990 2991 2994
7241 1 2985 2990 2991 2995
7242 1 2986 2984 2985 2988
7243 1 2986 2984 2985 2989
7244 1 2986 2984 2985 2990
7245 1 2987 2984 2985 2988
7246 1 2987 2984 2985 2989
7247 1 2987 2984 2985 2990
7248 1 2988 2985 2990 2991
7249 1 2988 2985 2990 2992
7250 1 2988 2985 2990 2993
7251 1 2989 2985 2990 2991
7252 1 2989 2985 2990 2992
7253 1 2989 2985 2990 2993
7254 1 2992 2990 2991 2994
7255 1 2992 2990 2991 2995
7256 1 2993 2990 2991 2994
7257 1 2993 2990 2991 2995
7258 1 2997 2998 3003 3004
7259 1 2997 2998 3003 3005
7260 1 2997 2998 3003 3006
7261 1 2998 3003 3004 3007
7262 1 2998 3003 3004 3008
7263 1 2998 3003 3004 3009
7264 1 2999 2997 2998 3001
7265 1 2999 2997 2998 3002
7266 1 2999 2997 2998 3003
7267 1 3000 2997 2998 3001
7268 1 3000 2997 2998 3002
7269 1 3000 2997 2998 3003
7270 1 3001 2998 3003 3004
7271 1 3001 2998 3003 3005
7272 1 3001 2998 3003 3006
7273 1 3002 2998 3003 3004
7274 1 3002 2998 3003 3005
7275 1 3002 2998 3003 3006
7276 1 3003 3004 3009 3010
7277 1 3003 3004 3009 3011
7278 1 3003 3004 3009 3012
7279 1 3004 3009 3010 3013
7280 1 3004 3009 3010 3014
7281 1 3004 3009 3010 3015
7282 1 3005 3003 3004 3007
7283 1 3005 3003 3004 3008
7284 1 3005 3003 3004 3009
7285 1 3006 3003 3004 3007
7286 1 3006 3003 3004 3008
7287 1 3006 3003 3004 3009
7288 1 3007 3004 3009 3010
7289 1 3007 3004 3009 3011
7290 1 3007 3004 3009 3012
7291 1 3008 3004 3009 3010
7292 1 3008 3004 3009 3011
7293 1 3008 3004 3009 3012
7294 1 3009 3010 3015 3016
7295 1 3009 3010 3015 3017
7296 1 3009 3010 3015 3018
7297 1 3010 3015 3016 3019
7298 1 3010 3015 3016 3020
7299 1 3010 3015 3016 3021
7300 1 3011 3009 3010 3013
7301 1 3011 3009 3010 3014
7302 1 3011 3009 3010 3015
7303 1 3012 3009 3010 3013
7304 1 3012 3009 3010 3014
7305 1 3012 3009 3010 3015
7306 1 3013 3010 3015 3016
7307 1 3013 3010 3015 3017
7308 1 3013 3010 3015 3018
7309 1 3014 3010 3015 3016
7310 1 3014 3010 3015 3017
7311 1 3014 3010 3015 3018
7312 1 3015 3016 3021 3022
7313 1 3015 3016 3021 3023
7314 1 3015 3016 3021 3024
7315 1 3016 3021 3022 3025
7316 1 3016 3021 3022 3026
7317 1 3017 3015 3016 3019
7318 1 3017 3015 3016 3020
7319 1 3017 3015 3016 3021
7320 1 3018 3015 3016 3019
7321 1 3018 3015 3016 3020
7322 1 3018 3015 3016 3021
7323 1 3019 3016 3021 3022
7324 1 3019 3016 3021 3023
7325 1 3019 3016 3021 3024
7326 1 3020 3016 3021 3022
7327 1 3020 3016 3021 3023
7328 1 3020 3016 3021 3024
7329 1 3023 3021 3022 3025
7330 1 3023 3021 3022 3026
7331 1 3024 3021 3022 3025
7332 1 3024 3021 3022 3026
7333 1 3028 3029 3034 3035
7334 1 3028 3029 3034 3036
7335 1 3028 3029 3034 3037
7336 1 3029 3034 3035 3038
7337 1 3029 3034 3035 3039
7338 1 3029 3034 3035 3040
7339 1 3030 3028 3029 3032
7340 1 3030 3028 3029 3033
7341 1 3030 3028 3029 3034
7342 1 3031 3028 3029 3032
7343 1 3031 3028 3029 3033
7344 1 3031 3028 3029 3034
7345 1 3032 3029 3034 3035
7346 1 3032 3029 3034 3036
7347 1 3032 3029 3034 3037
7348 1 3033 3029 3034 3035
7349 1 3033 3029 3034 3036
7350 1 3033 3029 3034 3037
7351 1 3034 3035 3040 3041
7352 1 3034 3035 3040 3042
7353 1 3034 3035 3040 3043
7354 1 3035 3040 3041 3044
7355 1 3035 3040 3041 3045
7356 1 3035 3040 3041 3046
7357 1 3036 3034 3035 3038
7358 1 3036 3034 3035 3039
7359 1 3036 3034 3035 3040
7360 1 3037 3034 3035 3038
7361 1 3037 3034 3035 3039
7362 1 3037 3034 3035 3040
7363 1 3038 3035 3040 3041
7364 1 3038 3035 3040 3042
7365 1 3038 3035 3040 3043
7366 1 3039 3035 3040 3041
7367 1 3039 3035 3040 3042
7368 1 3039 3035 3040 3043
7369 1 3040 3041 3046 3047
7370 1 3040 3041 3046 3048
7371 1 3040 3041 3046 3049
7372 1 3041 3046 3047 3050
7373 1 3041 3046 3047 3051
7374 1 3041 3046 3047 3052
7375 1 3042 3040 3041 3044
7376 1 3042 3040 3041 3045
7377 1 3042 3040 3041 3046
7378 1 3043 3040 3041 3044
7379 1 3043 3040 3041 3045
7380 1 3043 3040 3041 3046
7381 1 3044 3041 3046 3047
7382 1 3044 3041 3046 3048
7383 1 3044 3041 3046 3049
7384 1 3045 3041 3046 3047
7385 1 3045 3041 3046 3048
7386 1 3045 3041 3046 3049
7387 1 3046 3047 3052 3053
7388 1 3046 3047 3052 3054
7389 1 3046 3047 3052 3055
7390 1 3047 3052 3053 3056
7391 1 3047 3052 3053 3057
7392 1 3048 3046 3047 3050
7393 1 3048 3046 3047 3051
7394 1 3048 3046 3047 3052
7395 1 3049 3046 3047 3050
7396 1 3049 3046 3047 3051
7397 1 3049 3046 3047 3052
7398 1 3050 3047 3052 3053
7399 1 3050 3047 3052 3054
7400 1 3050 3047 3052 3055
7401 1 3051 3047 3052 3053
7402 1 3051 3047 3052 3054
7403 1 3051 3047 3052 3055
7404 1 3054 3052 3053 3056
7405 1 3054 3052 3053 3057
7406 1 3055 3052 3053 3056
7407 1 3055 3052 3053 3057
7408 1 3059 3060 3065 3066
7409 1 3059 3060 3065 3067
7410 1 3059 3060 3065 3068
7411 1 3060 3065 3066 3069
7412 1 3060 3065 3066 3070
7413 1 3060 3065 3066 3071
7414 1 3061 3059 3060 3063
7415 1 3061 3059 3060 3064
7416 1 3061 3059 3060 3065
7417 1 3062 3059 3060 3063
7418 1 3062 3059 3060 3064
7419 1 3062 3059 3060 3065
7420 1 3063 3060 3065 3066
7421 1 3063 3060 3065 3067
7422 1 3063 3060 3065 3068
7423 1 3064 3060 3065 3066
7424 1 3064 3060 3065 3067
7425 1 3064 3060 3065 3068
7426 1 3065 3066 3071 3072
7427 1 3065 3066 3071 3073
7428 1 3065 3066 3071 3074
7429 1 3066 3071 3072 3075
7430 1 3066 3071 3072 3076
7431 1 3066 3071 3072 3077
7432 1 3067 3065 3066 3069
7433 1 3067 3065 3066 3070
7434 1 3067 3065 3066 3071
7435 1 3068 3065 3066 3069
7436 1 3068 3065 3066 3070
7437 1 3068 3065 3066 3071
7438 1 3069 3066 3071 3072
7439 1 3069 3066 3071 3073
7440 1 3069 3066 3071 3074
7441 1 3070 3066 3071 3072
7442 1 3070 3066 3071 3073
7443 1 3070 3066 3071 3074
7444 1 3071 3072 3077 3078
7445 1 3071 3072 3077 3079
7446 1 3071 3072 3077 3080
7447 1 3072 3077 3078 3081
7448 1 3072 3077 3078 3082
7449 1 3072 3077 3078 3083
7450 1 3073 3071 3072 3075
7451 1 3073 3071 3072 3076
7452 1 3073 3071 3072 3077
7453 1 3074 3071 3072 3075
7454 1 3074 3071 3072 3076
7455 1 3074 3071 3072 3077
7456 1 3075 3072 3077 3078
7457 1 3075 3072 3077 3079
7458 1 3075 3072 3077 3080
7459 1 3076 3072 3077 3078
7460 1 3076 3072 3077 3079
7461 1 3076 3072 3077 3080
7462 1 3077 3078 3083 3084
7463 1 3077 3078 3083 3085
7464 1 3077 3078 3083 3086
7465 1 3078 3083 3084 3087
7466 1 3078 3083 3084 3088
7467 1 3079 3077 3078 3081
7468 1 3079 3077 3078 3082
7469 1 3079 3077 3078 3083
7470 1 3080 3077 3078 3081
7471 1 3080 3077 3078 3082
7472 1 3080 3077 3078 3083
7473 1 3081 3078 3083 3084
7474 1 3081 3078 3083 3085
7475 1 3081 3078 3083 3086
7476 1 3082 3078 3083 3084
7477 1 3082 3078 3083 3085
7478 1 3082 3078 3083 3086
7479 1 3085 3083 3084 3087
7480 1 3085 3083 3084 3088
7481 1 3086 3083 3084 3087
7482 1 3086 3083 3084 3088
7483 1 3092 3090 3091 3094
7484 1 3092 3090 3091 3095
7485 1 3092 3090 3091 3096
7486 1 3093 3090 3091 3094
7487 1 3093 3090 3091 3095
7488 1 3093 3090 3091 3096
7489 1 3097 3098 3090 3091
7490 1 3097 3098 3090 3092
7491 1 3097 3098 3090 3093
7492 1 3098 3090 3091 3094
7493 1 3098 3090 3091 3095
7494 1 3098 3090 3091 3096
7495 1 3099 3097 3098 3090
7496 1 3099 3097 3098 3101
7497 1 3099 3097 3098 3102
7498 1 3100 3097 3098 3090
7499 1 3100 3097 3098 3101
7500 1 3100 3097 3098 3102
7501 1 3101 3098 3090 3091
7502 1 3101 3098 3090 3092
7503 1 3101 3098 3090 3093
7504 1 3102 3098 3090 3091
7505 1 3102 3098 3090 3092
7506 1 3102 3098 3090 3093
7507 1 3103 3104 3097 3098
7508 1 3103 3104 3097 3099
7509 1 3103 3104 3097 3100
7510 1 3104 3097 3098 3090
7511 1 3104 3097 3098 3101
7512 1 3104 3097 3098 3102
7513 1 3105 3103 3104 3097
7514 1 3105 3103 3104 3107
7515 1 3105 3103 3104 3108
7516 1 3106 3103 3104 3097
7517 1 3106 3103 3104 3107
7518 1 3106 3103 3104 3108
7519 1 3107 3104 3097 3098
7520 1 3107 3104 3097 3099
7521 1 3107 3104 3097 3100
7522 1 3108 3104 3097 3098
7523 1 3108 3104 3097 3099
7524 1 3108 3104 3097 3100
7525 1 3109 3110 3103 3104
7526 1 3109 3110 3103 3105
7527 1 3109 3110 3103 3106
7528 1 3110 3103 3104 3097
7529 1 3110 3103 3104 3107
7530 1 3110 3103 3104 3108
7531 1 3111 3109 3110 3103
7532 1 3111 3109 3110 3113
7533 1 3111 3109 3110 3114
7534 1 3112 3109 3110 3103
7535 1 3112 3109 3110 3113
7536 1 3112 3109 3110 3114
7537 1 3113 3110 3103 3104
7538 1 3113 3110 3103 3105
7539 1 3113 3110 3103 3106
7540 1 3114 3110 3103 3104
7541 1 3114 3110 3103 3105
7542 1 3114 3110 3103 3106
7543 1 3115 3116 3109 3110
7544 1 3115 3116 3109 3111
7545 1 3115 3116 3109 3112
7546 1 3116 3109 3110 3103
7547 1 3116 3109 3110 3113
7548 1 3116 3109 3110 3114
7549 1 3117 3115 3116 3109
7550 1 3117 3115 3116 3119
7551 1 3117 3115 3116 3120
7552 1 3118 3115 3116 3109
7553 1 3118 3115 3116 3119
7554 1 3118 3115 3116 3120
7555 1 3119 3116 3109 3110
7556 1 3119 3116 3109 3111
7557 1 3119 3116 3109 3112
7558 1 3120 3116 3109 3110
7559 1 3120 3116 3109 3111
7560 1 3120 3116 3109 3112
7561 2 22 27 28 34
7562 2 27 28 34 35
7563 2 27 28 34 36
7564 2 27 28 34 37
7565 2 28 34 35 38
7566 2 28 34 35 39
7567 2 28 34 35 40
7568 2 29 27 28 34
7569 2 30 27 28 34
7570 2 31 28 34 35
7571 2 31 28 34 36
7572 2 31 28 34 37
7573 2 32 28 34 35
7574 2 32 28 34 36
7575 2 32 28 34 37
7576 2 53 58 59 65
7577 2 58 59 65 66
7578 2 58 59 65 67
7579 2 58 59 65 68
7580 2 59 65 66 69
7581 2 59 65 66 70
7582 2 59 65 66 71
7583 2 60 58 59 65
7584 2 61 58 59 65
7585 2 62 59 65 66
7586 2 62 59 65 67
7587 2 62 59 65 68
7588 2 63 59 65 66
7589 2 63 59 65 67
7590 2 63 59 65 68
7591 2 84 89 90 96
7592 2 89 90 96 97
7593 2 89 90 96 98
7594 2 89 90 96 99
7595 2 90 96 97 100
7596 2 90 96 97 101
7597 2 90 96 97 102
7598 2 91 89 90 96
7599 2 92 89 90 96
7600 2 93 90 96 97
7601 2 93 90 96 98
7602 2 93 90 96 99
7603 2 94 90 96 97
7604 2 94 90 96 98
7605 2 94 90 96 99
7606 2 115 120 121 127
7607 2 120 121 127 128
7608 2 120 121 127 129
7609 2 120 121 127 130
7610 2 121 127 128 131
7611 2 121 127 128 132
7612 2 121 127 128 133
7613 2 122 120 121 127
7614 2 123 120 121 127
7615 2 124 121 127 128
7616 2 124 121 127 129
7617 2 124 121 127 130
7618 2 125 121 127 128
7619 2 125 121 127 129
7620 2 125 121 127 130
7621 2 146 151 152 158
7622 2 151 152 158 159
7623 2 151 152 158 160
7624 2 151 152 158 161
7625 2 152 158 159 162
7626 2 152 158 159 163
7627 2 152 158 159 164
7628 2 153 151 152 158
7629 2 154 151 152 158
7630 2 155 152 158 159
7631 2 155 152 158 160
7632 2 155 152 158 161
7633 2 156 152 158 159
7634 2 156 152 158 160
7635 2 156 152 158 161
7636 2 177 182 183 189
7637 2 182 183 189 190
7638 2 182 183 189 191
7639 2 182 183 189 192
7640 2 183 189 190 193
7641 2 183 189 190 194
7642 2 183 189 190 195
7643 2 184 182 183 189
7644 2 185 182 183 189
7645 2 186 183 189 190
7646 2 186 183 189 191
7647 2 186 183 189 192
7648 2 187 183 189 190
7649 2 187 183 189 191
7650 2 187 183 189 192
7651 2 208 213 214 220
7652 2 213 214 220 221
7653 2 213 214 220 222
7654 2 213 214 220 223
7655 2 214 220 221 224
7656 2 214 220 221 225
7657 2 214 220 221 226
7658 2 215 213 214 220
7659 2 216 213 214 220
7660 2 217 214 220 221
7661 2 217 214 220 222
7662 2 217 214 220 223
7663 2 218 214 220 221
7664 2 218 214 220 222
7665 2 218 214 220 223
7666 2 239 244 245 251
7667 2 244 245 251 252
7668 2 244 245 251 253
7669 2 244 245 251 254
7670 2 245 251 252 255
7671 2 245 251 252 256
7672 2 245 251 252 257
7673 2 246 244 245 251
7674 2 247 244 245 251
7675 2 248 245 251 252
7676 2 248 245 251 253
7677 2 248 245 251 254
7678 2 249 245 251 252
7679 2 249 245 251 253
7680 2 249 245 251 254
7681 2 270 275 276 307
7682 2 275 276 307 308
7683 2 275 276 307 309
7684 2 275 276 307 310
7685 2 276 307 308 301
7686 2 276 307 308 311
7687 2 276 307 308 312
7688 2 277 275 276 307
7689 2 278 275 276 307
7690 2 279 276 307 308
7691 2 279 276 307 309
7692 2 279 276 307 310
7693 2 280 276 307 308
7694 2 280 276 307 309
7695 2 280 276 307 310
7696 2 334 339 340 346
7697 2 339 340 346 347
7698 2 339 340 346 348
7699 2 339 340 346 349
7700 2 340 346 347 350
7701 2 340 346 347 351
7702 2 340 346 347 352
7703 2 341 339 340 346
7704 2 342 339 340 346
7705 2 343 340 346 347
7706 2 343 340 346 348
7707 2 343 340 346 349
7708 2 344 340 346 347
7709 2 344 340 346 348
7710 2 344 340 346 349
7711 2 365 370 371 377
7712 2 370 371 377 378
7713 2 370 371 377 379
7714 2 370 371 377 380
7715 2 371 377 378 381
7716 2 371 377 378 382
7717 2 371 377 378 383
7718 2 372 370 371 377
7719 2 373 370 371 377
7720 2 374 371 377 378
7721 2 374 371 377 379
7722 2 374 371 377 380
7723 2 375 371 377 378
7724 2 375 371 377 379
7725 2 375 371 377 380
7726 2 396 401 402 408
7727 2 401 402 408 409
7728 2 401 402 408 410
7729 2 401 402 408 411
7730 2 402 408 409 412
7731 2 402 408 409 413
7732 2 402 408 409 414
7733 2 403 401 402 408
7734 2 404 401 402 408
7735 2 405 402 408 409
7736 2 405 402 408 410
7737 2 405 402 408 411
7738 2 406 402 408 409
7739 2 406 402 408 410
7740 2 406 402 408 411
7741 2 427 432 433 439
7742 2 432 433 439 440
7743 2 432 433 439 441
7744 2 432 433 439 442
7745 2 433 439 440 443
7746 2 433 439 440 444
7747 2 433 439 440 445
7748 2 434 432 433 439
7749 2 435 432 433 439
7750 2 436 433 439 440
7751 2 436 433 439 441
7752 2 436 433 439 442
7753 2 437 433 439 440
7754 2 437 433 439 441
7755 2 437 433 439 442
7756 2 458 463 464 470
7757 2 463 464 470 471
7758 2 463 464 470 472
7759 2 463 464 470 473
7760 2 464 470 471 474
7761 2 464 470 471 475
7762 2 464 470 471 476
7763 2 465 463 464 470
7764 2 466 463 464 470
7765 2 467 464 470 471
7766 2 467 464 470 472
7767 2 467 464 470 473
7768 2 468 464 470 471
7769 2 468 464 470 472
7770 2 468 464 470 473
7771 2 489 494 495 501
7772 2 494 495 501 502
7773 2 494 495 501 503
7774 2 494 495 501 504
7775 2 495 501 502 505
7776 2 495 501 502 506
7777 2 495 501 502 507
7778 2 496 494 495 501
7779 2 497 494 495 501
7780 2 498 495 501 502
7781 2 498 495 501 503
7782 2 498 495 501 504
7783 2 499 495 501 502
7784 2 499 495 501 503
7785 2 499 495 501 504
7786 2 520 525 526 532
7787 2 525 526 532 533
7788 2 525 526 532 534
7789 2 525 526 532 535
7790 2 526 532 533 536
7791 2 526 532 533 537
7792 2 526 532 533 538
7793 2 527 525 526 532
7794 2 528 525 526 532
7795 2 529 526 532 533
7796 2 529 526 532 534
7797 2 529 526 532 535
7798 2 530 526 532 533
7799 2 530 526 532 534
7800 2 530 526 532 535
7801 2 551 556 557 563
7802 2 556 557 563 564
7803 2 556 557 563 565
7804 2 556 557 563 566
7805 2 557 563 564 567
7806 2 557 563 564 568
7807 2 557 563 564 569
7808 2 558 556 557 563
7809 2 559 556 557 563
7810 2 560 557 563 564
7811 2 560 557 563 565
7812 2 560 557 563 566
7813 2 561 557 563 564
7814 2 561 557 563 565
7815 2 561 557 563 566
7816 2 582 587 588 619
7817 2 587 588 619 620
7818 2 587 588 619 621
7819 2 587 588 619 622
7820 2 588 619 620 613
7821 2 588 619 620 623
7822 2 588 619 620 624
7823 2 589 587 588 619
7824 2 590 587 588 619
7825 2 591 588 619 620
7826 2 591 588 619 621
7827 2 591 588 619 622
7828 2 592 588 619 620
7829 2 592 588 619 621
7830 2 592 588 619 622
7831 2 646 651 652 658
7832 2 651 652 658 659
7833 2 651 652 658 660
7834 2 651 652 658 661
7835 2 652 658 659 662
7836 2 652 658 659 663
7837 2 652 658 659 664
7838 2 653 651 652 658
7839 2 654 651 652 658
7840 2 655 652 658 659
7841 2 655 652 658 660
7842 2 655 652 658 661
7843 2 656 652 658 659
7844 2 656 652 658 660
7845 2 656 652 658 661
7846 2 677 682 683 689
7847 2 682 683 689 690
7848 2 682 683 689 691
7849 2 682 683 689 692
7850 2 683 689 690 693
7851 2 683 689 690 694
7852 2 683 689 690 695
7853 2 684 682 683 689
7854 2 685 682 683 689
7855 2 686 683 689 690
7856 2 686 683 689 691
7857 2 686 683 689 692
7858 2 687 683 689 690
7859 2 687 683 689 691
7860 2 687 683 689 692
7861 2 708 713 714 720
7862 2 713 714 720 721
7863 2 713 714 720 722
7864 2 713 714 720 723
7865 2 714 720 721 724
7866 2 714 720 721 725
7867 2 714 720 721 726
7868 2 715 713 714 720
7869 2 716 713 714 720
7870 2 717 714 720 721
7871 2 717 714 720 722
7872 2 717 714 720 723
7873 2 718 714 720 721
7874 2 718 714 720 722
7875 2 718 714 720 723
7876 2 739 744 745 751
7877 2 744 745 751 752
7878 2 744 745 751 753
7879 2 744 745 751 754
7880 2 745 751 752 755
7881 2 745 751 752 756
7882 2 745 751 752 757
7883 2 746 744 745 751
7884 2 747 744 745 751
7885 2 748 745 751 752
7886 2 748 745 751 753
7887 2 748 745 751 754
7888 2 749 745 751 752
7889 2 749 745 751 753
7890 2 749 745 751 754
7891 2 770 775 776 782
7892 2 775 776 782 783
7893 2 775 776 782 784
7894 2 775 776 782 785
7895 2 776 782 783 786
7896 2 776 782 783 787
7897 2 776 782 783 788
7898 2 777 775 776 782
7899 2 778 775 776 782
7900 2 779 776 782 783
7901 2 779 776 782 784
7902 2 779 776 782 785
7903 2 780 776 782 783
7904 2 780 776 782 784
7905 2 780 776 782 785
7906 2 801 806 807 813
7907 2 806 807 813 814
7908 2 806 807 813 815
7909 2 806 807 813 816
7910 2 807 813 814 817
7911 2 807 813 814 818
7912 2 807 813 814 819
7913 2 808 806 807 813
7914 2 809 806 807 813
7915 2 810 807 813 814
7916 2 810 807 813 815
7917 2 810 807 813 816
7918 2 811 807 813 814
7919 2 811 807 813 815
7920 2 811 807 813 816
7921 2 832 837 838 844
7922 2 837 838 844 845
7923 2 837 838 844 846
7924 2 837 838 844 847
7925 2 838 844 845 848
7926 2 838 844 845 849
7927 2 838 844 845 850
7928 2 839 837 838 844
7929 2 840 837 838 844
7930 2 841 838 844 845
7931 2 841 838 844 846
7932 2 841 838 844 847
7933 2 842 838 844 845
7934 2 842 838 844 846
7935 2 842 838 844 847
7936 2 863 868 869 875
7937 2 868 869 875 876
7938 2 868 869 875 877
7939 2 868 869 875 878
7940 2 869 875 876 879
7941 2 869 875 876 880
7942 2 869 875 876 881
7943 2 870 868 869 875
7944 2 871 868 869 875
7945 2 872 869 875 876
7946 2 872 869 875 877
7947 2 872 869 875 878
7948 2 873 869 875 876
7949 2 873 869 875 877
7950 2 873 869 875 878
7951 2 894 899 900 931
7952 2 899 900 931 932
7953 2 899 900 931 933
7954 2 899 900 931 934
7955 2 900 931 932 925
7956 2 900 931 932 935
7957 2 900 931 932 936
7958 2 901 899 900 931
7959 2 902 899 900 931
7960 2 903 900 931 932
7961 2 903 900 931 933
7962 2 903 900 931 934
7963 2 904 900 931 932
7964 2 904 900 931 933
7965 2 904 900 931 934
7966 2 958 963 964 970
7967 2 963 964 970 971
7968 2 963 964 970 972
7969 2 963 964 970 973
7970 2 964 970 971 974
7971 2 964 970 971 975
7972 2 964 970 971 976
7973 2 965 963 964 970
7974 2 966 963 964 970
7975 2 967 964 970 971
7976 2 967 964 970 972
7977 2 967 964 970 973
7978 2 968 964 970 971
7979 2 968 964 970 972
7980 2 968 964 970 973
7981 2 989 994 995 1001
7982 2 994 995 1001 1002
7983 2 994 995 1001 1003
7984 2 994 995 1001 1004
7985 2 995 1001 1002 1005
7986 2 995 1001 1002 1006
7987 2 995 1001 1002 1007
7988 2 996 994 995 1001
7989 2 997 994 995 1001
7990 2 998 995 1001 1002
7991 2 998 995 1001 1003
7992 2 998 995 1001 1004
7993 2 999 995 1001 1002
7994 2 999 995 1001 1003
7995 2 999 995 1001 1004
7996 2 1020 1025 1026 1032
7997 2 1025 1026 1032 1033
7998 2 1025 1026 1032 1034
7999 2 1025 1026 1032 1035
8000 2 1026 1032 1033 1036
8001 2 1026 1032 1033 1037
8002 2 1026 1032 1033 1038
8003 2 1027 1025 1026 1032
8004 2 1028 1025 1026 1032
8005 2 1029 1026 1032 1033
8006 2 1029 1026 1032 1034
8007 2 1029 1026 1032 1035
8008 2 1030 1026 1032 1033
8009 2 1030 1026 1032 1034
8010 2 1030 1026 1032 1035
8011 2 1051 1056 1057 1063
8012 2 1056 1057 1063 1064
8013 2 1056 1057 1063 1065
8014 2 1056 1057 1063 1066
8015 2 1057 1063 1064 1067
8016 2 1057 1063 1064 1068
8017 2 1057 1063 1064 1069
8018 2 1058 1056 1057 1063
8019 2 1059 1056 1057 1063
8020 2 1060 1057 1063 1064
8021 2 1060 1057 1063 1065
8022 2 1060 1057 1063 1066
8023 2 1061 1057 1063 1064
8024 2 1061 1057 1063 1065
8025 2 1061 1057 1063 1066
8026 2 1082 1087 1088 1094
8027 2 1087 1088 1094 1095
8028 2 1087 1088 1094 1096
8029 2 1087 1088 1094 1097
8030 2 1088 1094 1095 1098
8031 2 1088 1094 1095 1099
8032 2 1088 1094 1095 1100
8033 2 1089 1087 1088 1094
8034 2 1090 1087 1088 1094
8035 2 1091 1088 1094 1095
8036 2 1091 1088 1094 1096
8037 2 1091 1088 1094 1097
8038 2 1092 1088 1094 1095
8039 2 1092 1088 1094 1096
8040 2 1092 1088 1094 1097
8041 2 1113 1118 1119 1125
8042 2 1118 1119 1125 1126
8043 2 1118 1119 1125 1127
8044 2 1118 1119 1125 1128
8045 2 1119 1125 1126 1129
8046 2 1119 1125 1126 1130
8047 2 1119 1125 1126 1131
8048 2 1120 1118 1119 1125
8049 2 1121 1118 1119 1125
8050 2 1122 1119 1125 1126
8051 2 1122 1119 1125 1127
8052 2 1122 1119 1125 1128
8053 2 1123 1119 1125 1126
8054 2 1123 1119 1125 1127
8055 2 1123 1119 1125 1128
8056 2 1144 1149 1150 1156
8057 2 1149 1150 1156 1157
8058 2 1149 1150 1156 1158
8059 2 1149 1150 1156 1159
8060 2 1150 1156 1157 1160
8061 2 1150 1156 1157 1161
8062 2 1150 1156 1157 1162
8063 2 1151 1149 1150 1156
8064 2 1152 1149 1150 1156
8065 2 1153 1150 1156 1157
8066 2 1153 1150 1156 1158
8067 2 1153 1150 1156 1159
8068 2 1154 1150 1156 1157
8069 2 1154 1150 1156 1158
8070 2 1154 1150 1156 1159
8071 2 1175 1180 1181 1187
8072 2 1180 1181 1187 1188
8073 2 1180 1181 1187 1189
8074 2 1180 1181 1187 1190
8075 2 1181 1187 1188 1191
8076 2 1181 1187 1188 1192
8077 2 1181 1187 1188 1193
8078 2 1182 1180 1181 1187
8079 2 1183 1180 1181 1187
8080 2 1184 1181 1187 1188
8081 2 1184 1181 1187 1189
8082 2 1184 1181 1187 1190
8083 2 1185 1181 1187 1188
8084 2 1185 1181 1187 1189
8085 2 1185 1181 1187 1190
8086 2 1206 1211 1212 1243
8087 2 1211 1212 1243 1244
8088 2 1211 1212 1243 1245
8089 2 1211 1212 1243 1246
8090 2 1212 1243 1244 1237
8091 2 1212 1243 1244 1247
8092 2 1212 1243 1244 1248
8093 2 1213 1211 1212 1243
8094 2 1214 1211 1212 1243
8095 2 1215 1212 1243 1244
8096 2 1215 1212 1243 1245
8097 2 1215 1212 1243 1246
8098 2 1216 1212 1243 1244
8099 2 1216 1212 1243 1245
8100 2 1216 1212 1243 1246
8101 2 1270 1275 1276 1282
8102 2 1275 1276 1282 1283
8103 2 1275 1276 1282 1284
8104 2 1275 1276 1282 1285
8105 2 1276 1282 1283 1286
8106 2 1276 1282 1283 1287
8107 2 1276 1282 1283 1288
8108 2 1277 1275 1276 1282
8109 2 1278 1275 1276 1282
8110 2 1279 1276 1282 1283
8111 2 1279 1276 1282 1284
8112 2 1279 1276 1282 1285
8113 2 1280 1276 1282 1283
8114 2 1280 1276 1282 1284
8115 2 1280 1276 1282 1285
8116 2 1301 1306 1307 1313
8117 2 1306 1307 1313 1314
8118 2 1306 1307 1313 1315
8119 2 1306 1307 1313 1316
8120 2 1307 1313 1314 1317
8121 2 1307 1313 1314 1318
8122 2 1307 1313 1314 1319
8123 2 1308 1306 1307 1313
8124 2 1309 1306 1307 1313
8125 2 1310 1307 1313 1314
8126 2 1310 1307 1313 1315
8127 2 1310 1307 1313 1316
8128 2 1311 1307 1313 1314
8129 2 1311 1307 1313 1315
8130 2 1311 1307 1313 1316
8131 2 1332 1337 1338 1344
8132 2 1337 1338 1344 1345
8133 2 1337 1338 1344 1346
8134 2 1337 1338 1344 1347
8135 2 1338 1344 1345 1348
8136 2 1338 1344 1345 1349
8137 2 1338 1344 1345 1350
8138 2 1339 1337 1338 1344
8139 2 1340 1337 1338 1344
8140 2 1341 1338 1344 1345
8141 2 1341 1338 1344 1346
8142 2 1341 1338 1344 1347
8143 2 1342 1338 1344 1345
8144 2 1342 1338 1344 1346
8145 2 1342 1338 1344 1347
8146 2 1363 1368 1369 1375
8147 2 1368 1369 1375 1376
8148 2 1368 1369 1375 1377
8149 2 1368 1369 1375 1378
8150 2 1369 1375 1376 1379
8151 2 1369 1375 1376 1380
8152 2 1369 1375 1376 1381
8153 2 1370 1368 1369 1375
8154 2 1371 1368 1369 1375
8155 2 1372 1369 1375 1376
8156 2 1372 1369 1375 1377
8157 2 1372 1369 1375 1378
8158 2 1373 1369 1375 1376
8159 2 1373 1369 1375 1377
8160 2 1373 1369 1375 1378
8161 2 1394 1399 1400 1406
8162 2 1399 1400 1406 1407
8163 2 1399 1400 1406 1408
8164 2 1399 1400 1406 1409
8165 2 1400 1406 1407 1410
8166 2 1400 1406 1407 1411
8167 2 1400 1406 1407 1412
8168 2 1401 1399 1400 1406
8169 2 1402 1399 1400 1406
8170 2 1403 1400 1406 1407
8171 2 1403 1400 1406 1408
8172 2 1403 1400 1406 1409
8173 2 1404 1400 1406 1407
8174 2 1404 1400 1406 1408
8175 2 1404 1400 1406 1409
8176 2 1425 1430 1431 1437
8177 2 1430 1431 1437 1438
8178 2 1430 1431 1437 1439
8179 2 1430 1431 1437 1440
8180 2 1431 1437 1438 1441
8181 2 1431 1437 1438 1442
8182 2 1431 1437 1438 1443
8183 2 1432 1430 1431 1437
8184 2 1433 1430 1431 1437
8185 2 1434 1431 1437 1438
8186 2 1434 1431 1437 1439
8187 2 1434 1431 1437 1440
8188 2 1435 1431 1437 1438
8189 2 1435 1431 1437 1439
8190 2 1435 1431 1437 1440
8191 2 1456 1461 1462 1468
8192 2 1461 1462 1468 1469
8193 2 1461 1462 1468 1470
8194 2 1461 1462 1468 1471
8195 2 1462 1468 1469 1472
8196 2 1462 1468 1469 1473
8197 2 1462 1468 1469 1474
8198 2 1463 1461 1462 1468
8199 2 1464 1461 1462 1468
8200 2 1465 1462 1468 1469
8201 2 1465 1462 1468 1470
8202 2 1465 1462 1468 1471
8203 2 1466 1462 1468 1469
8204 2 1466 1462 1468 1470
8205 2 1466 1462 1468 1471
8206 2 1487 1492 1493 1499
8207 2 1492 1493 1499 1500
8208 2 1492 1493 1499 1501
8209 2 1492 1493 1499 1502
8210 2 1493 1499 1500 1503
8211 2 1493 1499 1500 1504
8212 2 1493 1499 1500 1505
8213 2 1494 1492 1493 1499
8214 2 1495 1492 1493 1499
8215 2 1496 1493 1499 1500
8216 2 1496 1493 1499 1501
8217 2 1496 1493 1499 1502
8218 2 1497 1493 1499 1500
8219 2 1497 1493 1499 1501
8220 2 1497 1493 1499 1502
8221 2 1518 1523 1524 1555
8222 2 1523 1524 1555 1556
8223 2 1523 1524 1555 1557
8224 2 1523 1524 1555 1558
8225 2 1524 1555 1556 1549
8226 2 1524 1555 1556 1559
8227 2 1524 1555 1556 1560
8228 2 1525 1523 1524 1555
8229 2 1526 1523 1524 1555
8230 2 1527 1524 1555 1556
8231 2 1527 1524 1555 1557
8232 2 1527 1524 1555 1558
8233 2 1528 1524 1555 1556
8234 2 1528 1524 1555 1557
8235 2 1528 1524 1555 1558
8236 2 1582 1587 1588 1594
8237 2 1587 1588 1594 1595
8238 2 1587 1588 1594 1596
8239 2 1587 1588 1594 1597
8240 2 1588 1594 1595 1598
8241 2 1588 1594 1595 1599
8242 2 1588 1594 1595 1600
8243 2 1589 1587 1588 1594
8244 2 1590 1587 1588 1594
8245 2 1591 1588 1594 1595
8246 2 1591 1588 1594 1596
8247 2 1591 1588 1594 1597
8248 2 1592 1588 1594 1595
8249 2 1592 1588 1594 1596
8250 2 1592 1588 1594 1597
8251 2 1613 1618 1619 1625
8252 2 1618 1619 1625 1626
8253 2 1618 1619 1625 1627
8254 2 1618 1619 1625 1628
8255 2 1619 1625 1626 1629
8256 2 1619 1625 1626 1630
8257 2 1619 1625 1626 1631
8258 2 1620 1618 1619 1625
8259 2 1621 1618 1619 1625
8260 2 1622 1619 1625 1626
8261 2 1622 1619 1625 1627
8262 2 1622 1619 1625 1628
8263 2 1623 1619 1625 1626
8264 2 1623 1619 1625 1627
8265 2 1623 1619 1625 1628
8266 2 1644 1649 1650 1656
8267 2 1649 1650 1656 1657
8268 2 1649 1650 1656 1658
8269 2 1649 1650 1656 1659
8270 2 1650 1656 1657 1660
8271 2 1650 1656 1657 1661
8272 2 1650 1656 1657 1662
8273 2 1651 1649 1650 1656
8274 2 1652 1649 1650 1656
8275 2 1653 1650 1656 1657
8276 2 1653 1650 1656 1658
8277 2 1653 1650 1656 1659
8278 2 1654 1650 1656 1657
8279 2 1654 1650 1656 1658
8280 2 1654 1650 1656 1659
8281 2 1675 1680 1681 1687
8282 2 1680 1681 1687 1688
8283 2 1680 1681 1687 1689
8284 2 1680 1681 1687 1690
8285 2 1681 1687 1688 1691
8286 2 1681 1687 1688 1692
8287 2 1681 1687 1688 1693
8288 2 1682 1680 1681 1687
8289 2 1683 1680 1681 1687
8290 2 1684 1681 1687 1688
8291 2 1684 1681 1687 1689
8292 2 1684 1681 1687 1690
8293 2 1685 1681 1687 1688
8294 2 1685 1681 1687 1689
8295 2 1685 1681 1687 1690
8296 2 1706 1711 1712 1718
8297 2 1711 1712 1718 1719
8298 2 1711 1712 1718 1720
8299 2 1711 1712 1718 1721
8300 2 1712 1718 1719 1722
8301 2 1712 1718 1719 1723
8302 2 1712 1718 1719 1724
8303 2 1713 1711 1712 1718
8304 2 1714 1711 1712 1718
8305 2 1715 1712 1718 1719
8306 2 1715 1712 1718 1720
8307 2 1715 1712 1718 1721
8308 2 1716 1712 1718 1719
8309 2 1716 1712 1718 1720
8310 2 1716 1712 1718 1721
8311 2 1737 1742 1743 1749
8312 2 1742 1743 1749 1750
8313 2 1742 1743 1749 1751
8314 2 1742 1743 1749 1752
8315 2 1743 1749 1750 1753
8316 2 1743 1749 1750 1754
8317 2 1743 1749 1750 1755
8318 2 1744 1742 1743 1749
8319 2 1745 1742 1743 1749
8320 2 1746 1743 1749 1750
8321 2 1746 1743 1749 1751
8322 2 1746 1743 1749 1752
8323 2 1747 1743 1749 1750
8324 2 1747 1743 1749 1751
8325 2 1747 1743 1749 1752
8326 2 1768 1773 1774 1780
8327 2 1773 1774 1780 1781
8328 2 1773 1774 1780 1782
8329 2 1773 1774 1780 1783
8330 2 1774 1780 1781 1784
8331 2 1774 1780 1781 1785
8332 2 1774 1780 1781 1786
8333 2 1775 1773 1774 1780
8334 2 1776 1773 1774 1780
8335 2 1777 1774 1780 1781
8336 2 1777 1774 1780 1782
8337 2 1777 1774 1780 1783
8338 2 1778 1774 1780 1781
8339 2 1778 1774 1780 1782
8340 2 1778 1774 1780 1783
8341 2 1799 1804 1805 1811
8342 2 1804 1805 1811 1812
8343 2 1804 1805 1811 1813
8344 2 1804 1805 1811 1814
8345 2 1805 1811 1812 1815
8346 2 1805 1811 1812 1816
8347 2 1805 1811 1812 1817
8348 2 1806 1804 1805 1811
8349 2 1807 1804 1805 1811
8350 2 1808 1805 1811 1812
8351 2 1808 1805 1811 1813
8352 2 1808 1805 1811 1814
8353 2 1809 1805 1811 1812
8354 2 1809 1805 1811 1813
8355 2 1809 1805 1811 1814
8356 2 1830 1835 1836 1867
8357 2 1835 1836 1867 1868
8358 2 1835 1836 1867 1869
8359 2 1835 1836 1867 1870
8360 2 1836 1867 1868 1861
8361 2 1836 1867 1868 1871
8362 2 1836 1867 1868 1872
8363 2 1837 1835 1836 1867
8364 2 1838 1835 1836 1867
8365 2 1839 1836 1867 1868
8366 2 1839 1836 1867 1869
8367 2 1839 1836 1867 1870
8368 2 1840 1836 1867 1868
8369 2 1840 1836 1867 1869
8370 2 1840 1836 1867 1870
8371 2 1894 1899 1900 1906
8372 2 1899 1900 1906 1907
8373 2 1899 1900 1906 1908
8374 2 1899 1900 1906 1909
8375 2 1900 1906 1907 1910
8376 2 1900 1906 1907 1911
8377 2 1900 1906 1907 1912
8378 2 1901 1899 1900 1906
8379 2 1902 1899 1900 1906
8380 2 1903 1900 1906 1907
8381 2 1903 1900 1906 1908
8382 2 1903 1900 1906 1909
8383 2 1904 1900 1906 1907
8384 2 1904 1900 1906 1908
8385 2 1904 1900 1906 1909
8386 2 1925 1930 1931 1937
8387 2 1930 1931 1937 1938
8388 2 1930 1931 1937 1939
8389 2 1930 1931 1937 1940
8390 2 1931 1937 1938 1941
8391 2 1931 1937 1938 1942
8392 2 1931 1937 1938 1943
8393 2 1932 1930 1931 1937
8394 2 1933 1930 1931 1937
8395 2 1934 1931 1937 1938
8396 2 1934 1931 1937 1939
8397 2 1934 1931 1937 1940
8398 2 1935 1931 1937 1938
8399 2 1935 1931 1937 1939
8400 2 1935 1931 1937 1940
8401 2 1956 1961 1962 1968
8402 2 1961 1962 1968 1969
8403 2 1961 1962 1968 1970
8404 2 1961 1962 1968 1971
8405 2 1962 1968 1969 1972
8406 2 1962 1968 1969 1973
8407 2 1962 1968 1969 1974
8408 2 1963 1961 1962 1968
8409 2 1964 1961 1962 1968
8410 2 1965 1962 1968 1969
8411 2 1965 1962 1968 1970
8412 2 1965 1962 1968 1971
8413 2 1966 1962 1968 1969
8414 2 1966 1962 1968 1970
8415 2 1966 1962 1968 1971
8416 2 1987 1992 1993 1999
8417 2 1992 1993 1999 2000
8418 2 1992 1993 1999 2001
8419 2 1992 1993 1999 2002
8420 2 1993 1999 2000 2003
8421 2 1993 1999 2000 2004
8422 2 1993 1999 2000 2005
8423 2 1994 1992 1993 1999
8424 2 1995 1992 1993 1999
8425 2 1996 1993 1999 2000
8426 2 1996 1993 1999 2001
8427 2 1996 1993 1999 2002
8428 2 1997 1993 1999 2000
8429 2 1997 1993 1999 2001
8430 2 1997 1993 1999 2002
8431 2 2018 2023 2024 2030
8432 2 2023 2024 2030 2031
8433 2 2023 2024 2030 2032
8434 2 2023 2024 2030 2033
8435 2 2024 2030 2031 2034
8436 2 2024 2030 2031 2035
8437 2 2024 2030 2031 2036
8438 2 2025 2023 2024 2030
8439 2 2026 2023 2024 2030
8440 2 2027 2024 2030 2031
8441 2 2027 2024 2030 2032
8442 2 2027 2024 2030 2033
8443 2 2028 2024 2030 2031
8444 2 2028 2024 2030 2032
8445 2 2028 2024 2030 2033
8446 2 2049 2054 2055 2061
8447 2 2054 2055 2061 2062
8448 2 2054 2055 2061 2063
8449 2 2054 2055 2061 2064
8450 2 2055 2061 2062 2065
8451 2 2055 2061 2062 2066
8452 2 2055 2061 2062 2067
8453 2 2056 2054 2055 2061
8454 2 2057 2054 2055 2061
8455 2 2058 2055 2061 2062
8456 2 2058 2055 2061 2063
8457 2 2058 2055 2061 2064
8458 2 2059 2055 2061 2062
8459 2 2059 2055 2061 2063
8460 2 2059 2055 2061 2064
8461 2 2080 2085 2086 2092
8462 2 2085 2086 2092 2093
8463 2 2085 2086 2092 2094
8464 2 2085 2086 2092 2095
8465 2 2086 2092 2093 2096
8466 2 2086 2092 2093 2097
8467 2 2086 2092 2093 2098
8468 2 2087 2085 2086 2092
8469 2 2088 2085 2086 2092
8470 2 2089 2086 2092 2093
8471 2 2089 2086 2092 2094
8472 2 2089 2086 2092 2095
8473 2 2090 2086 2092 2093
8474 2 2090 2086 2092 2094
8475 2 2090 2086 2092 2095
8476 2 2111 2116 2117 2123
8477 2 2116 2117 2123 2124
8478 2 2116 2117 2123 2125
8479 2 2116 2117 2123 2126
8480 2 2117 2123 2124 2127
8481 2 2117 2123 2124 2128
8482 2 2117 2123 2124 2129
8483 2 2118 2116 2117 2123
8484 2 2119 2116 2117 2123
8485 2 2120 2117 2123 2124
8486 2 2120 2117 2123 2125
8487 2 2120 2117 2123 2126
8488 2 2121 2117 2123 2124
8489 2 2121 2117 2123 2125
8490 2 2121 2117 2123 2126
8491 2 2142 2147 2148 2179
8492 2 2147 2148 2179 2180
8493 2 2147 2148 2179 2181
8494 2 2147 2148 2179 2182
8495 2 2148 2179 2180 2173
8496 2 2148 2179 2180 2183
8497 2 2148 2179 2180 2184
8498 2 2149 2147 2148 2179
8499 2 2150 2147 2148 2179
8500 2 2151 2148 2179 2180
8501 2 2151 2148 2179 2181
8502 2 2151 2148 2179 2182
8503 2 2152 2148 2179 2180
8504 2 2152 2148 2179 2181
8505 2 2152 2148 2179 2182
8506 2 2206 2211 2212 2218
8507 2 2211 2212 2218 2219
8508 2 2211 2212 2218 2220
8509 2 2211 2212 2218 2221
8510 2 2212 2218 2219 2222
8511 2 2212 2218 2219 2223
8512 2 2212 2218 2219 2224
8513 2 2213 2211 2212 2218
8514 2 2214 2211 2212 2218
8515 2 2215 2212 2218 2219
8516 2 2215 2212 2218 2220
8517 2 2215 2212 2218 2221
8518 2 2216 2212 2218 2219
8519 2 2216 2212 2218 2220
8520 2 2216 2212 2218 2221
8521 2 2237 2242 2243 2249
8522 2 2242 2243 2249 2250
8523 2 2242 2243 2249 2251
8524 2 2242 2243 2249 2252
8525 2 2243 2249 2250 2253
8526 2 2243 2249 2250 2254
8527 2 2243 2249 2250 2255
8528 2 2244 2242 2243 2249
8529 2 2245 2242 2243 2249
8530 2 2246 2243 2249 2250
8531 2 2246 2243 2249 2251
8532 2 2246 2243 2249 2252
8533 2 2247 2243 2249 2250
8534 2 2247 2243 2249 2251
8535 2 2247 2243 2249 2252
8536 2 2268 2273 2274 2280
8537 2 2273 2274 2280 2281
8538 2 2273 2274 2280 2282
8539 2 2273 2274 2280 2283
8540 2 2274 2280 2281 2284
8541 2 2274 2280 2281 2285
8542 2 2274 2280 2281 2286
8543 2 2275 2273 2274 2280
8544 2 2276 2273 2274 2280
8545 2 2277 2274 2280 2281
8546 2 2277 2274 2280 2282
8547 2 2277 2274 2280 2283
8548 2 2278 2274 2280 2281
8549 2 2278 2274 2280 2282
8550 2 2278 2274 2280 2283
8551 2 2299 2304 2305 2311
8552 2 2304 2305 2311 2312
8553 2 2304 2305 2311 2313
8554 2 2304 2305 2311 2314
8555 2 2305 2311 2312 2315
8556 2 2305 2311 2312 2316
8557 2 2305 2311 2312 2317
8558 2 2306 2304 2305 2311
8559 2 2307 2304 2305 2311
8560 2 2308 2305 2311 2312
8561 2 2308 2305 2311 2313
8562 2 2308 2305 2311 2314
8563 2 2309 2305 2311 2312
8564 2 2309 2305 2311 2313
8565 2 2309 2305 2311 2314
8566 2 2330 2335 2336 2342
8567 2 2335 2336 2342 2343
8568 2 2335 2336 2342 2344
8569 2 2335 2336 2342 2345
8570 2 2336 2342 2343 2346
8571 2 2336 2342 2343 2347
8572 2 2336 2342 2343 2348
8573 2 2337 2335 2336 2342
8574 2 2338 2335 2336 2342
8575 2 2339 2336 2342 2343
8576 2 2339 2336 2342 2344
8577 2 2339 2336 2342 2345
8578 2 2340 2336 2342 2343
8579 2 2340 2336 2342 2344
8580 2 2340 2336 2342 2345
8581 2 2361 2366 2367 2373
8582 2 2366 2367 2373 2374
8583 2 2366 2367 2373 2375
8584 2 2366 2367 2373 2376
8585 2 2367 2373 2374 2377
8586 2 2367 2373 2374 2378
8587 2 2367 2373 2374 2379
8588 2 2368 2366 2367 2373
8589 2 2369 2366 2367 2373
8590 2 2370 2367 2373 2374
8591 2 2370 2367 2373 2375
8592 2 2370 2367 2373 2376
8593 2 2371 2367 2373 2374
8594 2 2371 2367 2373 2375
8595 2 2371 2367 2373 2376
8596 2 2392 2397 2398 2404
8597 2 2397 2398 2404 2405
8598 2 2397 2398 2404 2406
8599 2 2397 2398 2404 2407
8600 2 2398 2404 2405 2408
8601 2 2398 2404 2405 2409
8602 2 2398 2404 2405 2410
8603 2 2399 2397 2398 2404
8604 2 2400 2397 2398 2404
8605 2 2401 2398 2404 2405
8606 2 2401 2398 2404 2406
8607 2 2401 2398 2404 2407
8608 2 2402 2398 2404 2405
8609 2 2402 2398 2404 2406
8610 2 2402 2398 2404 2407
8611 2 2423 2428 2429 2435
8612 2 2428 2429 2435 2436
8613 2 2428 2429 2435 2437
8614 2 2428 2429 2435 2438
8615 2 2429 2435 2436 2439
8616 2 2429 2435 2436 2440
8617 2 2429 2435 2436 2441
8618 2 2430 2428 2429 2435
8619 2 2431 2428 2429 2435
8620 2 2432 2429 2435 2436
8621 2 2432 2429 2435 2437
8622 2 2432 2429 2435 2438
8623 2 2433 2429 2435 2436
8624 2 2433 2429 2435 2437
8625 2 2433 2429 2435 2438
8626 2 2454 2459 2460 2491
8627 2 2459 2460 2491 2492
8628 2 2459 2460 2491 2493
8629 2 2459 2460 2491 2494
8630 2 2460 2491 2492 2485
8631 2 2460 2491 2492 2495
8632 2 2460 2491 2492 2496
8633 2 2461 2459 2460 2491
8634 2 2462 2459 2460 2491
8635 2 2463 2460 2491 2492
8636 2 2463 2460 2491 2493
8637 2 2463 2460 2491 2494
8638 2 2464 2460 2491 2492
8639 2 2464 2460 2491 2493
8640 2 2464 2460 2491 2494
8641 2 2518 2523 2524 2530
8642 2 2523 2524 2530 2531
8643 2 2523 2524 2530 2532
8644 2 2523 2524 2530 2533
8645 2 2524 2530 2531 2534
8646 2 2524 2530 2531 2535
8647 2 2524 2530 2531 2536
8648 2 2525 2523 2524 2530
8649 2 2526 2523 2524 2530
8650 2 2527 2524 2530 2531
8651 2 2527 2524 2530 2532
8652 2 2527 2524 2530 2533
8653 2 2528 2524 2530 2531
8654 2 2528 2524 2530 2532
8655 2 2528 2524 2530 2533
8656 2 2549 2554 2555 2561
8657 2 2554 2555 2561 2562
8658 2 2554 2555 2561 2563
8659 2 2554 2555 2561 2564
8660 2 2555 2561 2562 2565
8661 2 2555 2561 2562 2566
8662 2 2555 2561 2562 2567
8663 2 2556 2554 2555 2561
8664 2 2557 2554 2555 2561
8665 2 2558 2555 2561 2562
8666 2 2558 2555 2561 2563
8667 2 2558 2555 2561 2564
8668 2 2559 2555 2561 2562
8669 2 2559 2555 2561 2563
8670 2 2559 2555 2561 2564
8671 2 2580 2585 2586 2592
8672 2 2585 2586 2592 2593
8673 2 2585 2586 2592 2594
8674 2 2585 2586 2592 2595
8675 2 2586 2592 2593 2596
8676 2 2586 2592 2593 2597
8677 2 2586 2592 2593 2598
8678 2 2587 2585 2586 2592
8679 2 2588 2585 2586 2592
8680 2 2589 2586 2592 2593
8681 2 2589 2586 2592 2594
8682 2 2589 2586 2592 2595
8683 2 2590 2586 2592 2593
8684 2 2590 2586 2592 2594
8685 2 2590 2586 2592 2595
8686 2 2611 2616 2617 2623
8687 2 2616 2617 2623 2624
8688 2 2616 2617 2623 2625
8689 2 2616 2617 2623 2626
8690 2 2617 2623 2624 2627
8691 2 2617 2623 2624 2628
8692 2 2617 2623 2624 2629
8693 2 2618 2616 2617 2623
8694 2 2619 2616 2617 2623
8695 2 2620 2617 2623 2624
8696 2 2620 2617 2623 2625
8697 2 2620 2617 2623 2626
8698 2 2621 2617 2623 2624
8699 2 2621 2617 2623 2625
8700 2 2621 2617 2623 2626
8701 2 2642 2647 2648 2654
8702 2 2647 2648 2654 2655
8703 2 2647 2648 2654 2656
8704 2 2647 2648 2654 2657
8705 2 2648 2654 2655 2658
8706 2 2648 2654 2655 2659
8707 2 2648 2654 2655 2660
8708 2 2649 2647 2648 2654
8709 2 2650 2647 2648 2654
8710 2 2651 2648 2654 2655
8711 2 2651 2648 2654 2656
8712 2 2651 2648 2654 2657
8713 2 2652 2648 2654 2655
8714 2 2652 2648 2654 2656
8715 2 2652 2648 2654 2657
8716 2 2673 2678 2679 2685
8717 2 2678 2679 2685 2686
8718 2 2678 2679 2685 2687
8719 2 2678 2679 2685 2688
8720 2 2679 2685 2686 2689
8721 2 2679 2685 2686 2690
8722 2 2679 2685 2686 2691
8723 2 2680 2678 2679 2685
8724 2 2681 2678 2679 2685
8725 2 2682 2679 2685 2686
8726 2 2682 2679 2685 2687
8727 2 2682 2679 2685 2688
8728 2 2683 2679 2685 2686
8729 2 2683 2679 2685 2687
8730 2 2683 2679 2685 2688
8731 2 2704 2709 2710 2716
8732 2 2709 2710 2716 2717
8733 2 2709 2710 2716 2718
8734 2 2709 2710 2716 2719
8735 2 2710 2716 2717 2720
8736 2 2710 2716 2717 2721
8737 2 2710 2716 2717 2722
8738 2 2711 2709 2710 2716
8739 2 2712 2709 2710 2716
8740 2 2713 2710 2716 2717
8741 2 2713 2710 2716 2718
8742 2 2713 2710 2716 2719
8743 2 2714 2710 2716 2717
8744 2 2714 2710 2716 2718
8745 2 2714 2710 2716 2719
8746 2 2735 2740 2741 2747
8747 2 2740 2741 2747 2748
8748 2 2740 2741 2747 2749
8749 2 2740 2741 2747 2750
8750 2 2741 2747 2748 2751
8751 2 2741 2747 2748 2752
8752 2 2741 2747 2748 2753
8753 2 2742 2740 2741 2747
8754 2 2743 2740 2741 2747
8755 2 2744 2741 2747 2748
8756 2 2744 2741 2747 2749
8757 2 2744 2741 2747 2750
8758 2 2745 2741 2747 2748
8759 2 2745 2741 2747 2749
8760 2 2745 2741 2747 2750
8761 2 2766 2771 2772 2803
8762 2 2771 2772 2803 2804
8763 2 2771 2772 2803 2805
8764 2 2771 2772 2803 2806
8765 2 2772 2803 2804 2797
8766 2 2772 2803 2804 2807
8767 2 2772 2803 2804 2808
8768 2 2773 2771 2772 2803
8769 2 2774 2771 2772 2803
8770 2 2775 2772 2803 2804
8771 2 2775 2772 2803 2805
8772 2 2775 2772 2803 2806
8773 2 2776 2772 2803 2804
8774 2 2776 2772 2803 2805
8775 2 2776 2772 2803 2806
8776 2 2830 2835 2836 2842
8777 2 2835 2836 2842 2843
8778 2 2835 2836 2842 2844
8779 2 2835 2836 2842 2845
8780 2 2836 2842 2843 2846
8781 2 2836 2842 2843 2847
8782 2 2836 2842 2843 2848
8783 2 2837 2835 2836 2842
8784 2 2838 2835 2836 2842
8785 2 2839 2836 2842 2843
8786 2 2839 2836 2842 2844
8787 2 2839 2836 2842 2845
8788 2 2840 2836 2842 2843
8789 2 2840 2836 2842 2844
8790 2 2840 2836 2842 2845
8791 2 2861 2866 2867 2873
8792 2 2866 2867 2873 2874
8793 2 2866 2867 2873 2875
8794 2 2866 2867 2873 2876
8795 2 2867 2873 2874 2877
8796 2 2867 2873 2874 2878
8797 2 2867 2873 2874 2879
8798 2 2868 2866 2867 2873
8799 2 2869 2866 2867 2873
8800 2 2870 2867 2873 2874
8801 2 2870 2867 2873 2875
8802 2 2870 2867 2873 2876
8803 2 2871 2867 2873 2874
8804 2 2871 2867 2873 2875
8805 2 2871 2867 2873 2876
8806 2 2892 2897 2898 2904
8807 2 2897 2898 2904 2905
8808 2 2897 2898 2904 2906
8809 2 2897 2898 2904 2907
8810 2 2898 2904 2905 2908
8811 2 2898 2904 2905 2909
8812 2 2898 2904 2905 2910
8813 2 2899 2897 2898 2904
8814 2 2900 2897 2898 2904
8815 2 2901 2898 2904 2905
8816 2 2901 2898 2904 2906
8817 2 2901 2898 2904 2907
8818 2 2902 2898 2904 2905
8819 2 2902 2898 2904 2906
8820 2 2902 2898 2904 2907
8821 2 2923 2928 2929 2935
8822 2 2928 2929 2935 2936
8823 2 2928 2929 2935 2937
8824 2 2928 2929 2935 2938
8825 2 2929 2935 2936 2939
8826 2 2929 2935 2936 2940
8827 2 2929 2935 2936 2941
8828 2 2930 2928 2929 2935
8829 2 2931 2928 2929 2935
8830 2 2932 2929 2935 2936
8831 2 2932 2929 2935 2937
8832 2 2932 2929 2935 2938
8833 2 2933 2929 2935 2936
8834 2 2933 2929 2935 2937
8835 2 2933 2929 2935 2938
8836 2 2954 2959 2960 2966
8837 2 2959 2960 2966 2967
8838 2 2959 2960 2966 2968
8839 2 2959 2960 2966 2969
8840 2 2960 2966 2967 2970
8841 2 2960 2966 2967 2971
8842 2 2960 2966 2967 2972
8843 2 2961 2959 2960 2966
8844 2 2962 2959 2960 2966
8845 2 2963 2960 2966 2967
8846 2 2963 2960 2966 2968
8847 2 2963 2960 2966 2969
8848 2 2964 2960 2966 2967
8849 2 2964 2960 2966 2968
8850 2 2964 2960 2966 2969
8851 2 2985 2990 2991 2997
8852 2 2990 2991 2997 2998
8853 2 2990 2991 2997 2999
8854 2 2990 2991 2997 3000
8855 2 2991 2997 2998 3001
8856 2 2991 2997 2998 3002
8857 2 2991 2997 2998 3003
8858 2 2992 2990 2991 2997
8859 2 2993 2990 2991 2997
8860 2 2994 2991 2997 2998
8861 2 2994 2991 2997 2999
8862 2 2994 2991 2997 3000
8863 2 2995 2991 2997 2998
8864 2 2995 2991 2997 2999
8865 2 2995 2991 2997 3000
8866 2 3016 3021 3022 3028
8867 2 3021 3022 3028 3029
8868 2 3021 3022 3028 3030
8869 2 3021 3022 3028 3031
8870 2 3022 3028 3029 3032
8871 2 3022 3028 3029 3033
8872 2 3022 3028 3029 3034
8873 2 3023 3021 3022 3028
8874 2 3024 3021 3022 3028
8875 2 3025 3022 3028 3029
8876 2 3025 3022 3028 3030
8877 2 3025 3022 3028 3031
8878 2 3026 3022 3028 3029
8879 2 3026 3022 3028 3030
8880 2 3026 3022 3028 3031
8881 2 3047 3052 3053 3059
8882 2 3052 3053 3059 3060
8883 2 3052 3053 3059 3061
8884 2 3052 3053 3059 3062
8885 2 3053 3059 3060 3063
8886 2 3053 3059 3060 3064
8887 2 3053 3059 3060 3065
8888 2 3054 3052 3053 3059
8889 2 3055 3052 3053 3059
8890 2 3056 3053 3059 3060
8891 2 3056 3053 3059 3061
8892 2 3056 3053 3059 3062
8893 2 3057 3053 3059 3060
8894 2 3057 3053 3059 3061
8895 2 3057 3053 3059 3062
8896 2 3078 3083 3084 3115
8897 2 3083 3084 3115 3116
8898 2 3083 3084 3115 3117
8899 2 3083 3084 3115 3118
8900 2 3084 3115 3116 3109
8901 2 3084 3115 3116 3119
8902 2 3084 3115 3116 3120
8903 2 3085 3083 3084 3115
8904 2 3086 3083 3084 3115
8905 2 3087 3084 3115 3116
8906 2 3087 3084 3115 3117
8907 2 3087 3084 3115 3118
8908 2 3088 3084 3115 3116
8909 2 3088 3084 3115 3117
8910 2 3088 3084 3115 3118
