# AT-only force field for pet_at.data -- generated by backmap-prep, do not edit.
# Same force field as the hybrid at lambda = 1; 1-4 terms via special_bonds.

pair_style lj/cut/coul/cut 12 9
pair_coeff 1 1 0.066 3.5
pair_coeff 1 2 0.04449719092 2.958039892
pair_coeff 1 3 0.1059245014 3.304542328
pair_coeff 1 4 0 0
pair_coeff 1 5 0.1059245014 3.240370349
pair_coeff 1 6 0.08324662155 3.622844187
pair_coeff 1 7 0.1177285012 3.218695388
pair_coeff 1 8 0.06797058187 3.524911346
pair_coeff 1 9 0.04449719092 2.910326442
pair_coeff 1 10 0 0
pair_coeff 1 11 0.1012739172 3.328587538
pair_coeff 1 12 0 0
pair_coeff 2 2 0.03 2.5
pair_coeff 2 3 0.07141428429 2.792848009
pair_coeff 2 4 0 0
pair_coeff 2 5 0.07141428429 2.738612788
pair_coeff 2 6 0.0561248608 3.061862178
pair_coeff 2 7 0.07937253933 2.720294102
pair_coeff 2 8 0.04582575695 2.979093822
pair_coeff 2 9 0.03 2.459674775
pair_coeff 2 10 0 0
pair_coeff 2 11 0.06827886106 2.81316992
pair_coeff 2 12 0 0
pair_coeff 3 3 0.17 3.12
pair_coeff 3 4 0 0
pair_coeff 3 5 0.17 3.059411708
pair_coeff 3 6 0.1336038922 3.420526275
pair_coeff 3 7 0.1889444363 3.038947186
pair_coeff 3 8 0.1090871211 3.328062499
pair_coeff 3 9 0.07141428429 2.747799119
pair_coeff 3 10 0 0
pair_coeff 3 11 0.1625361998 3.142702404
pair_coeff 3 12 0 0
pair_coeff 4 4 0 0
pair_coeff 4 5 0 0
pair_coeff 4 6 0 0
pair_coeff 4 7 0 0
pair_coeff 4 8 0 0
pair_coeff 4 9 0 0
pair_coeff 4 10 0 0
pair_coeff 4 11 0 0
pair_coeff 4 12 0 0
pair_coeff 5 5 0.17 3
pair_coeff 5 6 0.1336038922 3.354101966
pair_coeff 5 7 0.1889444363 2.979932885
pair_coeff 5 8 0.1090871211 3.263433774
pair_coeff 5 9 0.07141428429 2.694438717
pair_coeff 5 10 0 0
pair_coeff 5 11 0.1625361998 3.081673247
pair_coeff 5 12 0 0
pair_coeff 6 6 0.105 3.75
pair_coeff 6 7 0.148492424 3.33166625
pair_coeff 6 8 0.085732141 3.64862988
pair_coeff 6 9 0.0561248608 3.012474066
pair_coeff 6 10 0 0
pair_coeff 6 11 0.1277380524 3.445415432
pair_coeff 6 12 0 0
pair_coeff 7 7 0.21 2.96
pair_coeff 7 8 0.1212435565 3.241604541
pair_coeff 7 9 0.07937253933 2.676415513
pair_coeff 7 10 0 0
pair_coeff 7 11 0.1806488862 3.061059816
pair_coeff 7 12 0 0
pair_coeff 8 8 0.07 3.55
pair_coeff 8 9 0.04582575695 2.931040771
pair_coeff 8 10 0 0
pair_coeff 8 11 0.1042976831 3.352278852
pair_coeff 8 12 0 0
pair_coeff 9 9 0.03 2.42
pair_coeff 9 10 0 0
pair_coeff 9 11 0.06827886106 2.767793236
pair_coeff 9 12 0 0
pair_coeff 10 10 0 0
pair_coeff 10 11 0 0
pair_coeff 10 12 0 0
pair_coeff 11 11 0.1554000956 3.16557
pair_coeff 11 12 0 0
pair_coeff 12 12 0 0

bond_style harmonic
bond_coeff 1 268 1.52
bond_coeff 2 340 1.1
bond_coeff 3 340 1.09
bond_coeff 4 320 1.42
bond_coeff 5 553 0.97
bond_coeff 6 450 1.35
bond_coeff 7 570 1.22
bond_coeff 8 469 1.4
bond_coeff 9 367 1.09
bond_coeff 10 469 1.41
bond_coeff 11 367 1.08
bond_coeff 12 553 0.98
bond_coeff 13 412.2848948 1
bond_coeff 14 320 1.41
bond_coeff 15 400 1.48
bond_coeff 16 400 1.5

angle_style harmonic
angle_coeff 1 37.5 110.407
angle_coeff 2 37.5 110.388
angle_coeff 3 37.5 110.414
angle_coeff 4 37.5 110.421
angle_coeff 5 33 107.666
angle_coeff 6 33 107.614
angle_coeff 7 50 110.105
angle_coeff 8 55 106.623
angle_coeff 9 35 109.156
angle_coeff 10 35 109.118
angle_coeff 11 50 110.092
angle_coeff 12 35 109.122
angle_coeff 13 35 109.074
angle_coeff 14 55 106.633
angle_coeff 15 23.90057361 121.379
angle_coeff 16 63 120.103
angle_coeff 17 35 120.435
angle_coeff 18 63 120.572
angle_coeff 19 35 120.342
angle_coeff 20 63 119.337
angle_coeff 21 63 121.007
angle_coeff 22 35 118.841
angle_coeff 23 35 119.461
angle_coeff 24 63 118.63
angle_coeff 25 35 120.151
angle_coeff 26 63 120.35
angle_coeff 27 35 122.874
angle_coeff 28 35 119.086
angle_coeff 29 35 116.776
angle_coeff 30 23.90057361 121.475
angle_coeff 31 35 103.735
angle_coeff 32 35 118.166
angle_coeff 33 45.76959847 109.47
angle_coeff 34 70 112.704
angle_coeff 35 85 118.464
angle_coeff 36 85 122.199
angle_coeff 37 80 125.917
angle_coeff 38 85 116.784
angle_coeff 39 70 116.727
angle_coeff 40 80 121.798
angle_coeff 41 85 124.585

dihedral_style hybrid harmonic ryckaert
dihedral_coeff 1 ryckaert 0.15 -0.45 0 0.6 0 -0
dihedral_coeff 2 ryckaert -0.105999044 -0.916001434 0.173998566 0.983998566 0 -0
dihedral_coeff 3 ryckaert 0.233998566 -0.701998088 0 0.935999044 0 -0
dihedral_coeff 4 ryckaert 0.225 -0.675 0 0.9 0 -0
dihedral_coeff 5 ryckaert 4.532999522 4.532999522 0 -0 0 -0
dihedral_coeff 6 ryckaert 7.25 -0 -7.25 -0 0 -0
dihedral_coeff 7 harmonic 1.1 -1 2
dihedral_coeff 8 ryckaert 5 -0 -5 -0 0 -0
dihedral_coeff 9 ryckaert 2.1 -0 -2.1 -0 0 -0
dihedral_coeff 10 harmonic 10.5 -1 2
dihedral_coeff 11 ryckaert 7 2 -5 -0 0 -0

special_bonds lj 0.0 0.0 0.5 coul 0.0 0.0 0.5

neigh_modify delay 0 every 1 check yes
