# Force field for pet.data -- generated by backmap-prep, do not edit

comm_modify cutoff 15.00

pair_style backmap 12.00 lj/cut/coul/cut 12.00 9.00 14.00 table linear 1000
pair_coeff 1 1 cg table_E_E.table ENTRY
pair_coeff 1 2 none
pair_coeff 1 3 none
pair_coeff 1 4 none
pair_coeff 1 5 none
pair_coeff 1 6 cg table_D_E.table ENTRY
pair_coeff 1 7 cg table_C_E.table ENTRY
pair_coeff 1 8 none
pair_coeff 1 9 none
pair_coeff 1 10 none
pair_coeff 1 11 cg table_B_E.table ENTRY
pair_coeff 1 12 none
pair_coeff 1 13 none
pair_coeff 1 14 cg table_A_E.table ENTRY
pair_coeff 1 15 none
pair_coeff 1 16 cg table_E_W.table ENTRY
pair_coeff 1 17 none
pair_coeff 1 18 none
pair_coeff 2 2 atomistic 0.066 3.5
pair_coeff 2 3 atomistic 0.04449719092 2.958039892
pair_coeff 2 4 atomistic 0.1059245014 3.304542328
pair_coeff 2 5 atomistic 0 0
pair_coeff 2 6 none
pair_coeff 2 7 none
pair_coeff 2 8 atomistic 0.1059245014 3.240370349
pair_coeff 2 9 atomistic 0.08324662155 3.622844187
pair_coeff 2 10 atomistic 0.1177285012 3.218695388
pair_coeff 2 11 none
pair_coeff 2 12 atomistic 0.06797058187 3.524911346
pair_coeff 2 13 atomistic 0.04449719092 2.910326442
pair_coeff 2 14 none
pair_coeff 2 15 atomistic 0 0
pair_coeff 2 16 none
pair_coeff 2 17 atomistic 0.1012739172 3.328587538
pair_coeff 2 18 atomistic 0 0
pair_coeff 3 3 atomistic 0.03 2.5
pair_coeff 3 4 atomistic 0.07141428429 2.792848009
pair_coeff 3 5 atomistic 0 0
pair_coeff 3 6 none
pair_coeff 3 7 none
pair_coeff 3 8 atomistic 0.07141428429 2.738612788
pair_coeff 3 9 atomistic 0.0561248608 3.061862178
pair_coeff 3 10 atomistic 0.07937253933 2.720294102
pair_coeff 3 11 none
pair_coeff 3 12 atomistic 0.04582575695 2.979093822
pair_coeff 3 13 atomistic 0.03 2.459674775
pair_coeff 3 14 none
pair_coeff 3 15 atomistic 0 0
pair_coeff 3 16 none
pair_coeff 3 17 atomistic 0.06827886106 2.81316992
pair_coeff 3 18 atomistic 0 0
pair_coeff 4 4 atomistic 0.17 3.12
pair_coeff 4 5 atomistic 0 0
pair_coeff 4 6 none
pair_coeff 4 7 none
pair_coeff 4 8 atomistic 0.17 3.059411708
pair_coeff 4 9 atomistic 0.1336038922 3.420526275
pair_coeff 4 10 atomistic 0.1889444363 3.038947186
pair_coeff 4 11 none
pair_coeff 4 12 atomistic 0.1090871211 3.328062499
pair_coeff 4 13 atomistic 0.07141428429 2.747799119
pair_coeff 4 14 none
pair_coeff 4 15 atomistic 0 0
pair_coeff 4 16 none
pair_coeff 4 17 atomistic 0.1625361998 3.142702404
pair_coeff 4 18 atomistic 0 0
pair_coeff 5 5 atomistic 0 0
pair_coeff 5 6 none
pair_coeff 5 7 none
pair_coeff 5 8 atomistic 0 0
pair_coeff 5 9 atomistic 0 0
pair_coeff 5 10 atomistic 0 0
pair_coeff 5 11 none
pair_coeff 5 12 atomistic 0 0
pair_coeff 5 13 atomistic 0 0
pair_coeff 5 14 none
pair_coeff 5 15 atomistic 0 0
pair_coeff 5 16 none
pair_coeff 5 17 atomistic 0 0
pair_coeff 5 18 atomistic 0 0
pair_coeff 6 6 cg table_D_D.table ENTRY
pair_coeff 6 7 cg table_C_D.table ENTRY
pair_coeff 6 8 none
pair_coeff 6 9 none
pair_coeff 6 10 none
pair_coeff 6 11 cg table_B_D.table ENTRY
pair_coeff 6 12 none
pair_coeff 6 13 none
pair_coeff 6 14 cg table_A_D.table ENTRY
pair_coeff 6 15 none
pair_coeff 6 16 cg table_D_W.table ENTRY
pair_coeff 6 17 none
pair_coeff 6 18 none
pair_coeff 7 7 cg table_C_C.table ENTRY
pair_coeff 7 8 none
pair_coeff 7 9 none
pair_coeff 7 10 none
pair_coeff 7 11 cg table_B_C.table ENTRY
pair_coeff 7 12 none
pair_coeff 7 13 none
pair_coeff 7 14 cg table_A_C.table ENTRY
pair_coeff 7 15 none
pair_coeff 7 16 cg table_C_W.table ENTRY
pair_coeff 7 17 none
pair_coeff 7 18 none
pair_coeff 8 8 atomistic 0.17 3
pair_coeff 8 9 atomistic 0.1336038922 3.354101966
pair_coeff 8 10 atomistic 0.1889444363 2.979932885
pair_coeff 8 11 none
pair_coeff 8 12 atomistic 0.1090871211 3.263433774
pair_coeff 8 13 atomistic 0.07141428429 2.694438717
pair_coeff 8 14 none
pair_coeff 8 15 atomistic 0 0
pair_coeff 8 16 none
pair_coeff 8 17 atomistic 0.1625361998 3.081673247
pair_coeff 8 18 atomistic 0 0
pair_coeff 9 9 atomistic 0.105 3.75
pair_coeff 9 10 atomistic 0.148492424 3.33166625
pair_coeff 9 11 none
pair_coeff 9 12 atomistic 0.085732141 3.64862988
pair_coeff 9 13 atomistic 0.0561248608 3.012474066
pair_coeff 9 14 none
pair_coeff 9 15 atomistic 0 0
pair_coeff 9 16 none
pair_coeff 9 17 atomistic 0.1277380524 3.445415432
pair_coeff 9 18 atomistic 0 0
pair_coeff 10 10 atomistic 0.21 2.96
pair_coeff 10 11 none
pair_coeff 10 12 atomistic 0.1212435565 3.241604541
pair_coeff 10 13 atomistic 0.07937253933 2.676415513
pair_coeff 10 14 none
pair_coeff 10 15 atomistic 0 0
pair_coeff 10 16 none
pair_coeff 10 17 atomistic 0.1806488862 3.061059816
pair_coeff 10 18 atomistic 0 0
pair_coeff 11 11 cg table_B_B.table ENTRY
pair_coeff 11 12 none
pair_coeff 11 13 none
pair_coeff 11 14 cg table_A_B.table ENTRY
pair_coeff 11 15 none
pair_coeff 11 16 cg table_B_W.table ENTRY
pair_coeff 11 17 none
pair_coeff 11 18 none
pair_coeff 12 12 atomistic 0.07 3.55
pair_coeff 12 13 atomistic 0.04582575695 2.931040771
pair_coeff 12 14 none
pair_coeff 12 15 atomistic 0 0
pair_coeff 12 16 none
pair_coeff 12 17 atomistic 0.1042976831 3.352278852
pair_coeff 12 18 atomistic 0 0
pair_coeff 13 13 atomistic 0.03 2.42
pair_coeff 13 14 none
pair_coeff 13 15 atomistic 0 0
pair_coeff 13 16 none
pair_coeff 13 17 atomistic 0.06827886106 2.767793236
pair_coeff 13 18 atomistic 0 0
pair_coeff 14 14 cg table_A_A.table ENTRY
pair_coeff 14 15 none
pair_coeff 14 16 cg table_A_W.table ENTRY
pair_coeff 14 17 none
pair_coeff 14 18 none
pair_coeff 15 15 atomistic 0 0
pair_coeff 15 16 none
pair_coeff 15 17 atomistic 0 0
pair_coeff 15 18 atomistic 0 0
pair_coeff 16 16 cg table_W_W.table ENTRY
pair_coeff 16 17 none
pair_coeff 16 18 none
pair_coeff 17 17 atomistic 0.1554000956 3.16557
pair_coeff 17 18 atomistic 0 0
pair_coeff 18 18 atomistic 0 0

bond_style backmap/harmonic
bond_coeff 1 at 268 1.52
bond_coeff 2 at 340 1.1
bond_coeff 3 at 340 1.09
bond_coeff 4 at 320 1.42
bond_coeff 5 at 553 0.97
bond_coeff 6 at 450 1.35
bond_coeff 7 at 570 1.22
bond_coeff 8 at 469 1.4
bond_coeff 9 at 367 1.09
bond_coeff 10 at 469 1.41
bond_coeff 11 at 367 1.08
bond_coeff 12 at 553 0.98
bond_coeff 13 at 412.2848948 1
bond_coeff 14 cg 32.55807839 2.56395
bond_coeff 15 at 320 1.41
bond_coeff 16 cg 46.99330784 3.3874
bond_coeff 17 at 400 1.48
bond_coeff 18 at 400 1.5
bond_coeff 19 cg 37.04648662 3.4479

angle_style hybrid backmap/harmonic backmap/table linear 1000
angle_coeff 1 backmap/harmonic at 37.5 110.4070
angle_coeff 2 backmap/harmonic at 37.5 110.3880
angle_coeff 3 backmap/harmonic at 37.5 110.4140
angle_coeff 4 backmap/harmonic at 37.5 110.4210
angle_coeff 5 backmap/harmonic at 33 107.6660
angle_coeff 6 backmap/harmonic at 33 107.6140
angle_coeff 7 backmap/harmonic at 50 110.1050
angle_coeff 8 backmap/harmonic at 55 106.6230
angle_coeff 9 backmap/harmonic at 35 109.1560
angle_coeff 10 backmap/harmonic at 35 109.1180
angle_coeff 11 backmap/harmonic at 50 110.0920
angle_coeff 12 backmap/harmonic at 35 109.1220
angle_coeff 13 backmap/harmonic at 35 109.0740
angle_coeff 14 backmap/harmonic at 55 106.6330
angle_coeff 15 backmap/harmonic at 23.90057361 121.3790
angle_coeff 16 backmap/harmonic at 63 120.1030
angle_coeff 17 backmap/harmonic at 35 120.4350
angle_coeff 18 backmap/harmonic at 63 120.5720
angle_coeff 19 backmap/harmonic at 35 120.3420
angle_coeff 20 backmap/harmonic at 63 119.3370
angle_coeff 21 backmap/harmonic at 63 121.0070
angle_coeff 22 backmap/harmonic at 35 118.8410
angle_coeff 23 backmap/harmonic at 35 119.4610
angle_coeff 24 backmap/harmonic at 63 118.6300
angle_coeff 25 backmap/harmonic at 35 120.1510
angle_coeff 26 backmap/harmonic at 63 120.3500
angle_coeff 27 backmap/harmonic at 35 122.8740
angle_coeff 28 backmap/harmonic at 35 119.0860
angle_coeff 29 backmap/harmonic at 35 116.7760
angle_coeff 30 backmap/harmonic at 23.90057361 121.4750
angle_coeff 31 backmap/harmonic at 35 103.7350
angle_coeff 32 backmap/harmonic at 35 118.1660
angle_coeff 33 backmap/harmonic at 45.76959847 109.4700
angle_coeff 34 backmap/table cg table_a2.table ENTRY
angle_coeff 35 backmap/table cg table_a3.table ENTRY
angle_coeff 36 backmap/table cg table_a0.table ENTRY
angle_coeff 37 backmap/harmonic at 70 112.7040
angle_coeff 38 backmap/harmonic at 85 118.4640
angle_coeff 39 backmap/harmonic at 85 122.1990
angle_coeff 40 backmap/harmonic at 80 125.9170
angle_coeff 41 backmap/harmonic at 85 116.7840
angle_coeff 42 backmap/harmonic at 70 116.7270
angle_coeff 43 backmap/harmonic at 80 121.7980
angle_coeff 44 backmap/harmonic at 85 124.5850
angle_coeff 45 backmap/table cg table_a1.table ENTRY

dihedral_style hybrid ryckaert harmonic backmap/ryckaert backmap/harmonic backmap/table linear 1000
dihedral_coeff 1 ryckaert 0.15 -0.45 0 0.6 0 -0
dihedral_coeff 2 ryckaert -0.105999044 -0.916001434 0.173998566 0.983998566 0 -0
dihedral_coeff 3 ryckaert 0.233998566 -0.701998088 0 0.935999044 0 -0
dihedral_coeff 4 ryckaert 0.225 -0.675 0 0.9 0 -0
dihedral_coeff 5 ryckaert 4.532999522 4.532999522 0 -0 0 -0
dihedral_coeff 6 ryckaert 7.25 -0 -7.25 -0 0 -0
dihedral_coeff 7 harmonic 1.1 -1 2
dihedral_coeff 8 ryckaert 5 -0 -5 -0 0 -0
dihedral_coeff 9 backmap/table cg table_d0.table ENTRY
dihedral_coeff 10 backmap/table cg table_d1.table ENTRY
dihedral_coeff 11 backmap/ryckaert at 2.1 -0 -2.1 -0 0 -0
dihedral_coeff 12 backmap/harmonic at 10.5 -1 2
dihedral_coeff 13 backmap/ryckaert at 7.25 -0 -7.25 -0 0 -0
dihedral_coeff 14 backmap/harmonic at 1.1 -1 2
dihedral_coeff 15 backmap/ryckaert at 7 2 -5 -0 0 -0

special_bonds lj 0.0 0.0 0.0 coul 0.0 0.0 0.0

group at_atoms type 2 3 4 5 8 9 10 12 13 15 17 18
group cg_atoms type 1 6 7 11 14 16

neigh_modify delay 0 every 1 check yes
