# AT-only force field for pe_at.data -- generated by backmap-prep, do not edit.
# Same force field as the hybrid at lambda = 1; 1-4 terms via special_bonds.

pair_style lj/cut/coul/cut 14 9
pair_coeff 1 1 0.2072657744 3.748
pair_coeff 1 2 0.1563865945 3.8265
pair_coeff 2 2 0.1179971319 3.905

bond_style harmonic
bond_coeff 1 316.6826004 1.53

angle_style harmonic
angle_coeff 1 62.1414914 111

dihedral_style ryckaert
dihedral_coeff 1 2.217710325 -2.905282027 -3.135779159 0.7312858509 6.271582218 3.225382409

special_bonds lj 0.0 0.0 0 coul 0.0 0.0 0

neigh_modify delay 0 every 1 check yes
