LAMMPS data file for backmapping — generated by backmap-prep

1500 atoms
1480 bonds
980 angles
970 dihedrals
0 impropers

4 atom types
4 bond types
3 angle types
2 dihedral types
0 improper types

0.0 60.185500 xlo xhi
0.0 60.185500 ylo yhi
0.0 60.185500 zlo zhi

Masses

1 29.062000 # 1 (CG)
2 28.054000 # 2 (CG)
3 15.035000 # AT1
4 14.027000 # AT2

Atoms # full

1 1 1 0.000000 27.140000 15.210000 53.010000 0 0 0
2 1 2 0.000000 28.490000 15.600000 50.950000 0 0 0
3 1 2 0.000000 27.610000 15.790000 48.760000 0 0 0
4 1 2 0.000000 26.730000 15.240000 46.600000 0 0 0
5 1 2 0.000000 25.170000 13.360000 46.270000 0 0 0
6 1 2 0.000000 25.420000 11.430000 45.020000 0 0 0
7 1 2 0.000000 24.130000 9.640000 43.920000 0 0 0
8 1 2 0.000000 22.570000 8.590000 45.340000 0 0 0
9 1 2 0.000000 23.120000 7.680000 47.460000 0 0 0
10 1 2 0.000000 23.380000 7.380000 49.970000 0 0 0
11 1 2 0.000000 21.190000 7.050000 51.170000 0 0 0
12 1 2 0.000000 19.530000 6.460000 52.780000 0 0 0
13 1 2 0.000000 18.610000 5.030000 54.690000 0 0 0
14 1 2 0.000000 20.390000 4.490000 56.130000 0 0 0
15 1 2 0.000000 22.200000 2.960000 55.460000 0 0 0
16 1 2 0.000000 21.490000 0.980000 54.220000 0 0 0
17 1 2 0.000000 22.310000 58.750000 54.400000 0 -1 0
18 1 2 0.000000 20.760000 57.550000 55.820000 0 -1 0
19 1 2 0.000000 19.800000 56.620000 57.960000 0 -1 0
20 1 2 0.000000 19.380000 55.240000 59.870000 0 -1 0
21 1 2 0.000000 17.570000 54.390000 1.040000 0 -1 1
22 1 2 0.000000 15.900000 56.040000 0.350000 0 -1 1
23 1 2 0.000000 14.570000 56.110000 58.370000 0 -1 0
24 1 2 0.000000 13.870000 57.710000 56.650000 0 -1 0
25 1 2 0.000000 15.190000 59.530000 56.040000 0 -1 0
26 1 2 0.000000 16.690000 0.760000 56.970000 0 0 0
27 1 2 0.000000 18.860000 0.580000 58.080000 0 0 0
28 1 2 0.000000 20.710000 0.610000 59.630000 0 0 0
29 1 2 0.000000 21.540000 2.910000 59.900000 0 0 0
30 1 2 0.000000 20.500000 4.510000 1.150000 0 0 1
31 1 2 0.000000 21.440000 6.590000 2.070000 0 0 1
32 1 2 0.000000 20.830000 8.590000 0.720000 0 0 1
33 1 2 0.000000 19.770000 10.550000 1.390000 0 0 1
34 1 2 0.000000 17.680000 10.940000 2.590000 0 0 1
35 1 2 0.000000 15.440000 11.220000 3.490000 0 0 1
36 1 2 0.000000 14.150000 9.250000 4.070000 0 0 1
37 1 2 0.000000 13.230000 8.530000 6.170000 0 0 1
38 1 2 0.000000 11.940000 9.320000 7.980000 0 0 1
39 1 2 0.000000 11.170000 8.650000 10.400000 0 0 1
40 1 2 0.000000 9.410000 9.800000 11.390000 0 0 1
41 1 2 0.000000 7.250000 10.580000 12.250000 0 0 1
42 1 2 0.000000 4.850000 10.790000 11.230000 0 0 1
43 1 2 0.000000 2.770000 9.420000 11.830000 0 0 1
44 1 2 0.000000 0.750000 9.700000 10.500000 0 0 1
45 1 2 0.000000 58.980000 8.590000 10.200000 -1 0 1
46 1 2 0.000000 56.550000 8.390000 9.320000 -1 0 1
47 1 2 0.000000 54.410000 9.580000 8.990000 -1 0 1
48 1 2 0.000000 52.970000 9.030000 6.850000 -1 0 1
49 1 2 0.000000 50.610000 9.560000 6.330000 -1 0 1
50 1 1 0.000000 49.070000 10.450000 7.980000 -1 0 1
51 1 3 0.000000 27.140000 15.210000 53.010000 0 0 0
52 1 4 0.000000 28.430000 15.670000 52.320000 0 0 0
53 1 4 0.000000 31.070000 16.520000 49.570000 0 0 0
54 1 4 0.000000 32.340000 16.980000 48.870000 0 0 0
55 1 4 0.000000 32.730000 17.650000 45.960000 0 0 0
56 1 4 0.000000 33.970000 18.150000 45.220000 0 0 0
57 1 4 0.000000 34.300000 18.130000 42.290000 0 0 0
58 1 4 0.000000 35.480000 18.690000 41.500000 0 0 0
59 1 4 0.000000 35.070000 17.410000 40.360000 0 0 0
60 1 4 0.000000 36.200000 18.050000 39.560000 0 0 0
61 1 4 0.000000 37.580000 16.790000 37.520000 0 0 0
62 1 4 0.000000 38.730000 17.460000 36.770000 0 0 0
63 1 4 0.000000 38.630000 16.330000 34.980000 0 0 0
64 1 4 0.000000 39.880000 16.930000 34.350000 0 0 0
65 1 4 0.000000 39.640000 16.410000 35.210000 0 0 0
66 1 4 0.000000 41.020000 16.810000 34.710000 0 0 0
67 1 4 0.000000 42.990000 16.170000 36.350000 0 0 0
68 1 4 0.000000 44.430000 16.300000 35.860000 0 0 0
69 1 4 0.000000 46.110000 16.010000 37.810000 0 0 0
70 1 4 0.000000 47.470000 15.970000 37.120000 0 0 0
71 1 4 0.000000 46.540000 15.620000 37.460000 0 0 0
72 1 4 0.000000 47.670000 15.710000 36.440000 0 0 0
73 1 4 0.000000 46.960000 15.400000 36.900000 0 0 0
74 1 4 0.000000 47.740000 15.950000 35.720000 0 0 0
75 1 4 0.000000 47.450000 15.360000 36.520000 0 0 0
76 1 4 0.000000 48.010000 16.450000 35.610000 0 0 0
77 1 4 0.000000 50.360000 17.170000 36.420000 0 0 0
78 1 4 0.000000 51.080000 18.480000 36.120000 0 0 0
79 1 4 0.000000 53.830000 18.140000 35.460000 0 0 0
80 1 4 0.000000 55.040000 19.040000 35.690000 0 0 0
81 1 4 0.000000 55.740000 17.530000 34.750000 0 0 0
82 1 4 0.000000 57.250000 17.520000 34.940000 0 0 0
83 1 4 0.000000 59.530000 14.704500 35.020000 0 0 0
84 1 4 0.000000 0.644500 14.084500 34.520000 1 0 0
85 1 4 0.000000 0.164500 12.304500 35.040000 1 0 0
86 1 4 0.000000 1.014500 11.964500 33.830000 1 0 0
87 1 4 0.000000 0.734500 11.124500 34.610000 1 0 0
88 1 4 0.000000 1.354500 11.644500 33.330000 1 0 0
89 1 4 0.000000 1.634500 11.114500 34.200000 1 0 0
90 1 4 0.000000 2.504500 12.104500 33.460000 1 0 0
91 1 4 0.000000 1.794500 12.174500 34.325500 1 0 0
92 1 4 0.000000 3.094500 12.864500 33.965500 1 0 0
93 1 4 0.000000 2.824500 14.914500 32.865500 1 0 0
94 1 4 0.000000 4.214500 15.094500 32.285500 1 0 0
95 1 4 0.000000 4.154500 15.274500 29.300000 1 0 0
96 1 4 0.000000 5.254500 15.524500 28.280000 1 0 0
97 1 4 0.000000 5.474500 17.654500 25.490000 1 0 0
98 1 4 0.000000 6.294500 18.524500 24.550000 1 1 0
99 1 4 0.000000 8.404500 21.464500 23.310000 1 1 0
100 1 4 0.000000 9.294500 22.674500 23.070000 1 1 0
101 1 4 0.000000 11.874500 25.150000 24.120000 1 1 0
102 1 4 0.000000 13.164500 25.870000 24.450000 1 1 0
103 1 4 0.000000 16.804500 25.930000 25.900000 1 1 0
104 1 4 0.000000 18.294500 25.680000 26.000000 1 1 0
105 1 4 0.000000 21.504500 25.090000 27.240000 1 1 0
106 1 4 0.000000 22.554500 24.330000 26.450000 1 1 -1
107 1 4 0.000000 24.084500 26.000000 25.530000 1 1 -1
108 1 4 0.000000 24.454500 25.710000 24.080000 1 1 -1
109 1 4 0.000000 23.574500 27.510000 24.005500 1 1 -1
110 1 4 0.000000 23.694500 28.210000 22.665500 1 1 0
111 1 4 0.000000 24.884500 31.390000 22.565500 1 1 0
112 1 4 0.000000 25.424500 32.700000 21.995500 1 1 0
113 1 4 0.000000 25.684500 35.940000 20.525500 1 1 0
114 1 4 0.000000 26.874500 36.870000 20.735500 1 1 0
115 1 4 0.000000 27.214500 39.310000 21.755500 1 1 0
116 1 4 0.000000 28.714500 39.360000 22.005500 1 0 0
117 1 4 0.000000 28.124500 39.500000 23.185500 1 0 0
118 1 4 0.000000 29.544500 39.150000 22.765500 1 0 0
119 1 4 0.000000 28.544500 39.200000 22.815500 1 0 0
120 1 4 0.000000 29.514500 39.290000 21.655500 1 0 0
121 1 4 0.000000 28.864500 37.860000 20.965500 1 0 0
122 1 4 0.000000 29.254500 38.780000 19.815500 1 0 0
123 1 4 0.000000 28.614500 39.260000 21.025500 1 0 0
124 1 4 0.000000 28.964500 40.590000 20.385500 1 0 -1
125 1 4 0.000000 28.294500 42.700000 21.745500 1 0 -1
126 1 4 0.000000 29.294500 43.810000 21.425500 1 0 -1
127 1 4 0.000000 29.864500 43.800000 23.575500 1 0 -1
128 1 4 0.000000 31.354500 43.860000 23.305500 1 0 -1
129 1 4 0.000000 31.004500 44.530000 24.005500 1 0 -1
130 1 4 0.000000 32.234500 43.690000 23.655500 1 0 -1
131 1 4 0.000000 31.164500 43.490000 24.105500 1 0 -1
132 1 4 0.000000 32.254500 42.550000 23.595500 1 0 -1
133 1 4 0.000000 31.064500 42.060000 21.965500 1 0 -1
134 1 4 0.000000 32.404500 41.830000 21.295500 1 0 -1
135 1 4 0.000000 31.654500 40.840000 21.255500 1 0 -1
136 1 4 0.000000 32.704500 41.820000 20.765500 1 0 -1
137 1 4 0.000000 31.334500 43.440000 19.115500 1 0 -1
138 1 4 0.000000 31.634500 44.920000 18.895500 1 0 -1
139 1 4 0.000000 29.799000 45.310000 18.365500 1 0 -1
140 1 4 0.000000 29.919000 46.780000 18.005500 1 0 -1
141 1 4 0.000000 27.839000 47.950000 16.555500 1 0 -1
142 1 4 0.000000 28.529000 49.050000 15.765500 1 0 -1
143 1 4 0.000000 27.429000 50.910000 14.555500 1 0 -1
144 1 4 0.000000 28.699000 51.090000 13.735500 1 0 -1
145 1 4 0.000000 28.599000 50.330000 10.915500 1 0 -1
146 1 4 0.000000 29.939000 49.920000 10.325500 1 0 -1
147 1 4 0.000000 28.909000 49.990000 9.225500 1 0 -1
148 1 4 0.000000 30.199000 49.600000 8.515500 1 0 -1
149 1 4 0.000000 29.879000 50.280000 9.275500 1 0 -1
150 1 3 0.000000 30.939000 50.290000 8.185500 1 0 -1
151 2 1 0.000000 31.150000 0.134500 52.110000 0 1 0
152 2 2 0.000000 32.720000 1.590000 52.940000 0 1 0
153 2 2 0.000000 32.100000 1.970000 55.340000 0 1 0
154 2 2 0.000000 32.160000 1.070000 57.610000 0 1 0
155 2 2 0.000000 32.620000 58.990000 57.060000 0 0 0
156 2 2 0.000000 32.370000 57.200000 55.530000 0 0 0
157 2 2 0.000000 29.930000 56.890000 54.960000 0 0 0
158 2 2 0.000000 28.330000 57.810000 56.390000 0 0 0
159 2 2 0.000000 27.230000 58.670000 58.440000 0 0 0
160 2 2 0.000000 28.920000 58.420000 60.150000 0 0 0
161 2 2 0.000000 29.600000 58.480000 2.190000 0 0 1
162 2 2 0.000000 30.020000 58.620000 4.700000 0 0 1
163 2 2 0.000000 30.980000 0.544500 5.590000 0 1 1
164 2 2 0.000000 31.830000 2.090000 7.320000 0 1 1
165 2 2 0.000000 32.850000 3.670000 8.850000 0 1 1
166 2 2 0.000000 34.890000 4.710000 9.860000 0 1 1
167 2 2 0.000000 37.090000 4.920000 8.980000 0 1 1
168 2 2 0.000000 37.640000 6.310000 6.920000 0 1 1
169 2 2 0.000000 39.900000 6.610000 6.090000 0 1 1
170 2 2 0.000000 41.330000 7.380000 4.430000 0 1 1
171 2 2 0.000000 41.550000 5.970000 2.580000 0 1 1
172 2 2 0.000000 43.140000 5.660000 0.870000 0 1 1
173 2 2 0.000000 45.430000 4.740000 1.070000 0 1 1
174 2 2 0.000000 46.540000 5.110000 59.210000 0 1 0
175 2 2 0.000000 47.310000 4.210000 57.160000 0 1 0
176 2 2 0.000000 49.510000 3.350000 57.450000 0 1 0
177 2 2 0.000000 50.100000 2.330000 59.540000 0 1 0
178 2 2 0.000000 52.140000 0.920000 59.970000 0 1 0
179 2 2 0.000000 53.460000 2.210000 1.230000 0 1 1
180 2 2 0.000000 54.840000 4.050000 2.040000 0 1 1
181 2 2 0.000000 56.820000 5.510000 1.510000 0 1 1
182 2 2 0.000000 57.850000 6.950000 0.030000 0 1 1
183 2 2 0.000000 56.490000 8.560000 59.110000 0 1 0
184 2 2 0.000000 55.690000 10.260000 57.420000 0 1 0
185 2 2 0.000000 54.140000 12.160000 58.100000 0 1 0
186 2 2 0.000000 51.800000 12.500000 58.940000 0 1 0
187 2 2 0.000000 49.820000 12.200000 0.074500 0 1 1
188 2 2 0.000000 48.130000 12.410000 1.840000 0 1 1
189 2 2 0.000000 49.230000 13.330000 3.810000 0 1 1
190 2 2 0.000000 49.000000 15.180000 5.270000 0 1 1
191 2 2 0.000000 47.390000 14.800000 6.940000 0 1 1
192 2 2 0.000000 44.920000 14.690000 7.360000 0 1 1
193 2 2 0.000000 42.790000 14.170000 6.650000 0 1 1
194 2 2 0.000000 40.820000 12.780000 7.580000 0 1 1
195 2 2 0.000000 39.120000 11.770000 5.940000 0 1 1
196 2 2 0.000000 37.070000 10.760000 6.430000 0 1 1
197 2 2 0.000000 35.020000 9.500000 6.180000 0 1 1
198 2 2 0.000000 34.750000 8.700000 8.560000 0 1 1
199 2 2 0.000000 34.110000 10.220000 10.660000 0 1 1
200 2 1 0.000000 34.640000 9.660000 12.940000 0 1 1
201 2 3 0.000000 31.150000 0.134500 52.110000 0 1 0
202 2 4 0.000000 32.440000 0.594500 51.420000 0 1 0
203 2 4 0.000000 35.300000 2.510000 51.560000 0 1 0
204 2 4 0.000000 36.570000 2.970000 50.860000 0 1 0
205 2 4 0.000000 37.220000 3.830000 52.540000 0 1 0
206 2 4 0.000000 38.460000 4.330000 51.800000 0 1 0
207 2 4 0.000000 39.730000 3.960000 53.300000 0 1 0
208 2 4 0.000000 40.910000 4.520000 52.510000 0 1 0
209 2 4 0.000000 42.520000 2.854500 51.150000 0 1 0
210 2 4 0.000000 43.650000 3.494500 50.350000 0 1 0
211 2 4 0.000000 44.530000 2.374500 48.030000 0 1 0
212 2 4 0.000000 45.680000 3.044500 47.280000 0 1 0
213 2 4 0.000000 44.430000 3.394500 46.020000 0 1 0
214 2 4 0.000000 45.680000 3.994500 45.390000 0 1 0
215 2 4 0.000000 45.400000 5.444500 46.260000 0 1 0
216 2 4 0.000000 46.780000 5.844500 45.760000 0 1 0
217 2 4 0.000000 47.100000 6.974500 47.330000 0 1 0
218 2 4 0.000000 48.540000 7.104500 46.840000 0 0 0
219 2 4 0.000000 51.650000 6.864500 47.990000 0 0 0
220 2 4 0.000000 53.010000 6.824500 47.300000 0 0 0
221 2 4 0.000000 54.950000 6.864500 48.665500 0 0 0
222 2 4 0.000000 56.080000 6.954500 47.645500 0 0 0
223 2 4 0.000000 57.450000 7.374500 49.005500 0 0 0
224 2 4 0.000000 58.230000 7.924500 47.825500 0 1 0
225 2 4 0.000000 59.820000 10.874500 47.605500 0 1 0
226 2 4 0.000000 0.194500 11.964500 46.695500 1 1 0
227 2 4 0.000000 1.614500 14.770000 47.795500 1 1 0
228 2 4 0.000000 2.334500 16.080000 47.495500 1 1 0
229 2 4 0.000000 4.294500 18.850000 49.035500 1 1 0
230 2 4 0.000000 5.504500 19.750000 49.265500 1 1 0
231 2 4 0.000000 8.954500 21.260000 50.575500 1 1 0
232 2 4 0.000000 10.464500 21.250000 50.765500 1 1 0
233 2 4 0.000000 14.124500 21.060000 49.785500 1 1 0
234 2 4 0.000000 15.424500 20.440000 49.285500 1 1 0
235 2 4 0.000000 17.044500 21.250000 46.325500 1 1 0
236 2 4 0.000000 17.894500 20.910000 45.115500 1 1 -1
237 2 4 0.000000 20.834500 21.300000 42.925500 1 1 -1
238 2 4 0.000000 21.454500 21.820000 41.645500 1 1 -1
239 2 4 0.000000 23.584500 23.440000 38.945500 1 1 -1
240 2 4 0.000000 24.454500 24.430000 38.205500 1 1 -1
241 2 4 0.000000 25.774500 23.940000 35.865500 1 1 -1
242 2 4 0.000000 27.074500 24.630000 35.505500 1 0 -1
243 2 4 0.000000 30.064500 24.720000 33.385500 1 0 -1
244 2 4 0.000000 31.454500 24.900000 32.805500 1 0 -1
245 2 4 0.000000 35.014500 24.090000 32.185500 1 0 -1
246 2 4 0.000000 36.114500 24.340000 31.165500 1 0 -1
247 2 4 0.000000 38.144500 25.240000 28.050000 1 0 -1
248 2 4 0.000000 38.964500 26.110000 27.110000 1 0 -1
249 2 4 0.000000 40.524500 26.330000 24.430000 1 0 -1
250 2 4 0.000000 41.414500 27.540000 24.190000 1 0 -1
251 2 4 0.000000 44.694500 27.740000 24.600000 1 0 -1
252 2 4 0.000000 45.984500 28.460000 24.930000 1 0 -1
253 2 4 0.000000 48.044500 27.680000 27.360000 1 0 -1
254 2 4 0.000000 49.534500 27.430000 27.460000 1 0 -1
255 2 4 0.000000 52.934500 25.400000 27.580000 1 0 -1
256 2 4 0.000000 53.984500 24.640000 26.790000 1 0 -1
257 2 4 0.000000 56.004500 25.300000 27.045500 1 0 -1
258 2 4 0.000000 56.374500 25.010000 25.595500 1 0 -1
259 2 4 0.000000 57.914500 27.050000 24.895500 1 0 -1
260 2 4 0.000000 58.034500 27.750000 23.555500 1 0 -1
261 2 4 0.000000 0.079000 30.310000 22.005500 2 0 -1
262 2 4 0.000000 0.619000 31.620000 21.435500 2 0 0
263 2 4 0.000000 2.519000 34.300000 19.835500 2 0 0
264 2 4 0.000000 3.709000 35.230000 20.045500 2 0 0
265 2 4 0.000000 3.749000 37.320000 19.290000 2 0 0
266 2 4 0.000000 5.249000 37.370000 19.540000 2 0 0
267 2 4 0.000000 5.949000 38.820000 17.830000 2 0 0
268 2 4 0.000000 7.369000 38.470000 17.410000 2 0 0
269 2 4 0.000000 7.059000 40.140000 17.240000 2 0 0
270 2 4 0.000000 8.029000 40.230000 16.080000 2 0 0
271 2 4 0.000000 6.329000 41.110000 15.650000 2 0 0
272 2 4 0.000000 6.719000 42.030000 14.500000 2 0 -1
273 2 4 0.000000 5.019000 42.930000 14.930000 2 0 -1
274 2 4 0.000000 5.369000 44.260000 14.290000 2 0 -1
275 2 4 0.000000 4.299000 45.790000 15.605500 2 0 -1
276 2 4 0.000000 5.299000 46.900000 15.285500 2 0 -1
277 2 4 0.000000 7.739000 48.480000 16.985500 2 0 -1
278 2 4 0.000000 9.229000 48.540000 16.715500 2 0 -1
279 2 4 0.000000 10.409000 49.910000 17.885500 2 0 -1
280 2 4 0.000000 11.639000 49.070000 17.535500 2 0 0
281 2 4 0.000000 11.119000 47.710000 18.795500 2 0 0
282 2 4 0.000000 12.209000 46.770000 18.285500 2 0 0
283 2 4 0.000000 10.949000 45.960000 18.095500 2 0 0
284 2 4 0.000000 12.289000 45.730000 17.425500 2 0 0
285 2 4 0.000000 11.489000 45.590000 16.075500 2 0 0
286 2 4 0.000000 12.539000 46.570000 15.585500 2 0 0
287 2 4 0.000000 11.219000 46.520000 16.195500 2 0 0
288 2 4 0.000000 11.519000 48.000000 15.975500 2 0 0
289 2 4 0.000000 9.939000 48.490000 14.105500 2 0 0
290 2 4 0.000000 10.059000 49.960000 13.745500 2 0 -1
291 2 4 0.000000 8.359000 50.320000 13.665500 2 0 -1
292 2 4 0.000000 9.049000 51.420000 12.875500 2 0 -1
293 2 4 0.000000 8.039000 50.830000 11.745500 2 0 -1
294 2 4 0.000000 9.309000 51.010000 10.925500 2 0 -1
295 2 4 0.000000 10.379000 50.000000 12.625500 2 0 -1
296 2 4 0.000000 11.719000 49.590000 12.035500 2 0 -1
297 2 4 0.000000 12.409000 50.650000 13.555500 2 0 -1
298 2 4 0.000000 13.699000 50.260000 12.845500 2 0 -1
299 2 4 0.000000 15.449000 49.490000 14.235500 2 0 -1
300 2 3 0.000000 16.509000 49.500000 13.145500 2 0 -1
301 3 1 0.000000 59.090000 23.990000 12.600000 0 0 0
302 3 2 0.000000 57.520000 24.920000 11.110000 0 0 0
303 3 2 0.000000 55.000000 24.240000 10.990000 0 0 0
304 3 2 0.000000 53.090000 23.690000 12.430000 0 0 0
305 3 2 0.000000 51.360000 22.910000 14.120000 0 0 0
306 3 2 0.000000 49.950000 20.990000 14.600000 0 0 0
307 3 2 0.000000 48.890000 19.920000 16.660000 0 0 0
308 3 2 0.000000 46.760000 18.960000 17.270000 0 0 0
309 3 2 0.000000 47.900000 17.000000 18.290000 0 0 0
310 3 2 0.000000 48.120000 14.630000 18.030000 0 0 0
311 3 2 0.000000 49.440000 12.840000 17.160000 0 0 0
312 3 2 0.000000 51.650000 12.840000 18.000000 0 0 0
313 3 2 0.000000 52.540000 12.000000 20.060000 0 0 0
314 3 2 0.000000 54.500000 12.700000 21.160000 0 0 0
315 3 2 0.000000 55.640000 13.330000 23.300000 0 0 0
316 3 2 0.000000 55.210000 15.690000 23.920000 0 0 0
317 3 2 0.000000 54.350000 16.940000 25.820000 0 0 0
318 3 2 0.000000 55.420000 17.530000 28.060000 0 0 0
319 3 2 0.000000 55.950000 19.840000 28.810000 0 0 0
320 3 2 0.000000 56.660000 21.800000 30.330000 0 0 0
321 3 2 0.000000 55.550000 23.760000 29.710000 0 0 0
322 3 2 0.000000 54.730000 24.630000 27.560000 0 0 0
323 3 2 0.000000 54.570000 22.500000 26.210000 0 0 0
324 3 2 0.000000 55.910000 21.970000 24.310000 0 0 0
325 3 2 0.000000 55.950000 20.180000 22.610000 0 0 0
326 3 2 0.000000 54.920000 19.610000 20.300000 0 0 0
327 3 2 0.000000 54.770000 17.490000 19.440000 0 0 0
328 3 2 0.000000 56.160000 15.820000 18.970000 0 0 0
329 3 2 0.000000 57.310000 13.910000 18.160000 0 0 0
330 3 2 0.000000 58.930000 13.080000 19.740000 0 0 0
331 3 2 0.000000 0.830000 11.880000 19.950000 1 0 0
332 3 2 0.000000 0.810000 10.710000 22.070000 1 0 0
333 3 2 0.000000 1.580000 11.050000 24.530000 1 0 0
334 3 2 0.000000 2.810000 11.070000 26.570000 1 0 0
335 3 2 0.000000 3.540000 13.490000 26.750000 1 0 0
336 3 2 0.000000 5.280000 14.860000 27.610000 1 0 0
337 3 2 0.000000 7.260000 15.240000 26.420000 1 0 0
338 3 2 0.000000 9.160000 16.590000 27.160000 1 0 0
339 3 2 0.000000 11.610000 17.000000 26.830000 1 0 0
340 3 2 0.000000 13.450000 16.230000 28.360000 1 0 0
341 3 2 0.000000 15.770000 16.850000 28.610000 1 0 0
342 3 2 0.000000 16.470000 19.260000 29.590000 1 0 0
343 3 2 0.000000 18.660000 19.860000 29.090000 1 0 0
344 3 2 0.000000 20.240000 20.890000 30.470000 1 0 0
345 3 2 0.000000 21.150000 22.320000 32.150000 1 0 0
346 3 2 0.000000 23.270000 22.560000 33.140000 1 0 0
347 3 2 0.000000 24.600000 21.590000 34.960000 1 0 0
348 3 2 0.000000 25.640000 20.480000 36.580000 1 0 0
349 3 2 0.000000 25.700000 18.490000 37.880000 1 0 0
350 3 1 0.000000 24.220000 18.620000 39.680000 1 0 0
351 3 3 0.000000 59.090000 23.990000 12.600000 0 0 0
352 3 4 0.000000 0.194500 24.450000 11.910000 1 0 0
353 3 4 0.000000 60.100000 25.840000 9.730000 0 0 0
354 3 4 0.000000 1.184500 26.300000 9.030000 1 0 0
355 3 4 0.000000 60.120000 26.100000 8.190000 0 0 0
356 3 4 0.000000 1.174500 26.600000 7.450000 1 0 0
357 3 4 0.000000 0.474500 26.580000 8.120000 1 0 0
358 3 4 0.000000 1.654500 27.140000 7.330000 1 0 0
359 3 4 0.000000 1.074500 26.960000 8.210000 1 0 0
360 3 4 0.000000 2.204500 27.600000 7.410000 1 0 0
361 3 4 0.000000 1.924500 26.350000 7.100000 1 0 0
362 3 4 0.000000 3.074500 27.020000 6.350000 1 0 0
363 3 4 0.000000 3.204500 26.610000 7.720000 1 0 0
364 3 4 0.000000 4.454500 27.210000 7.090000 1 0 0
365 3 4 0.000000 3.644500 26.780000 7.140000 1 0 0
366 3 4 0.000000 5.024500 27.180000 6.640000 1 0 0
367 3 4 0.000000 7.584500 25.490000 7.180000 1 0 0
368 3 4 0.000000 9.024500 25.620000 6.690000 1 0 0
369 3 4 0.000000 10.664500 23.260000 5.870000 1 0 0
370 3 4 0.000000 12.024500 23.220000 5.180000 1 0 0
371 3 4 0.000000 14.604500 21.410000 3.450000 1 0 0
372 3 4 0.000000 15.734500 21.500000 2.430000 1 0 0
373 3 4 0.000000 18.894500 21.780000 2.120000 1 0 0
374 3 4 0.000000 19.674500 22.330000 0.940000 1 0 0
375 3 4 0.000000 21.194500 22.330000 1.890000 1 0 0
376 3 4 0.000000 21.754500 23.420000 0.980000 1 0 0
377 3 4 0.000000 24.284500 25.380000 1.450000 1 0 0
378 3 4 0.000000 25.004500 26.690000 1.150000 1 0 0
379 3 4 0.000000 27.084500 28.510000 3.300000 1 0 0
380 3 4 0.000000 28.294500 29.410000 3.530000 1 0 0
381 3 4 0.000000 29.274500 32.240000 4.450000 1 0 0
382 3 4 0.000000 30.784500 32.230000 4.640000 1 0 0
383 3 4 0.000000 31.384500 33.080000 6.440000 1 0 0
384 3 4 0.000000 32.684500 32.460000 5.940000 1 0 0
385 3 4 0.000000 34.824500 32.470000 7.280000 1 0 0
386 3 4 0.000000 35.674500 32.130000 6.070000 1 0 0
387 3 4 0.000000 36.884500 34.530000 5.460000 1 0 0
388 3 4 0.000000 37.504500 35.050000 4.180000 1 0 0
389 3 4 0.000000 38.914500 37.860000 4.660000 1 0 0
390 3 4 0.000000 39.784500 38.850000 3.920000 1 0 0
391 3 4 0.000000 39.774500 41.730000 2.810000 1 0 0
392 3 4 0.000000 41.074500 42.420000 2.450000 1 0 0
393 3 4 0.000000 41.654500 43.690000 60.075500 1 0 -1
394 3 4 0.000000 43.044500 43.870000 59.495500 1 0 -1
395 3 4 0.000000 44.154500 41.850000 57.325500 1 0 -1
396 3 4 0.000000 45.254500 42.100000 56.305500 1 0 -1
397 3 4 0.000000 47.514500 42.100000 53.335500 1 0 -1
398 3 4 0.000000 48.334500 42.970000 52.395500 1 0 -1
399 3 4 0.000000 49.164500 42.300000 50.065500 1 0 -1
400 3 4 0.000000 50.054500 43.510000 49.825500 1 0 -1
401 3 4 0.000000 50.104500 44.000000 47.635500 1 0 -1
402 3 4 0.000000 51.394500 44.720000 47.965500 1 0 -1
403 3 4 0.000000 52.714500 42.840000 47.445500 1 0 -1
404 3 4 0.000000 54.204500 42.590000 47.545500 1 0 -1
405 3 4 0.000000 56.954500 40.300000 46.765500 1 0 -1
406 3 4 0.000000 58.004500 39.540000 45.975500 1 0 -1
407 3 4 0.000000 59.854500 37.000000 43.975500 1 0 -1
408 3 4 0.000000 0.039000 36.710000 42.525500 2 0 -1
409 3 4 0.000000 1.819000 36.080000 42.595500 2 0 -1
410 3 4 0.000000 1.939000 36.780000 41.255500 2 0 -1
411 3 4 0.000000 4.274500 36.680000 40.445500 2 0 -1
412 3 4 0.000000 4.814500 37.990000 39.875500 2 0 -1
413 3 4 0.000000 5.664500 38.060000 41.875500 2 0 -1
414 3 4 0.000000 6.854500 38.990000 42.085500 2 0 -1
415 3 4 0.000000 9.024500 39.810000 44.895500 2 0 -1
416 3 4 0.000000 10.524500 39.860000 45.145500 2 0 -1
417 3 4 0.000000 13.254500 39.630000 47.165500 2 0 -1
418 3 4 0.000000 14.674500 39.280000 46.745500 2 0 -1
419 3 4 0.000000 16.644500 41.470000 46.075500 2 0 -1
420 3 4 0.000000 17.614500 41.560000 44.915500 2 0 -1
421 3 4 0.000000 19.994500 43.470000 44.505500 2 0 -1
422 3 4 0.000000 20.384500 44.390000 43.355500 2 0 -1
423 3 4 0.000000 22.644500 45.970000 41.275500 2 0 -1
424 3 4 0.000000 22.994500 47.300000 40.635500 2 0 -1
425 3 4 0.000000 25.514500 49.970000 40.925500 2 0 -1
426 3 4 0.000000 26.514500 51.080000 40.605500 1 0 -1
427 3 4 0.000000 30.304500 52.150000 40.005500 1 0 -1
428 3 4 0.000000 31.794500 52.210000 39.735500 1 0 -1
429 3 4 0.000000 35.044500 50.960000 40.975500 1 0 -1
430 3 4 0.000000 36.274500 50.120000 40.625500 1 0 -1
431 3 4 0.000000 39.684500 49.760000 40.465500 1 0 -1
432 3 4 0.000000 40.774500 48.820000 39.955500 1 0 -1
433 3 4 0.000000 42.684500 50.530000 40.325500 1 0 -1
434 3 4 0.000000 44.024500 50.300000 39.655500 1 0 -1
435 3 4 0.000000 47.544500 51.280000 38.515500 1 0 -1
436 3 4 0.000000 48.594500 52.260000 38.025500 1 0 -1
437 3 4 0.000000 50.824500 54.630000 39.085500 1 0 -1
438 3 4 0.000000 51.124500 56.110000 38.865500 1 0 -1
439 3 4 0.000000 52.154500 59.040000 40.315500 1 0 -1
440 3 4 0.000000 52.274500 0.324500 39.955500 1 1 -1
441 3 4 0.000000 54.744500 1.934500 40.375500 1 1 -1
442 3 4 0.000000 55.434500 3.034500 39.585500 1 1 -1
443 3 4 0.000000 57.804500 2.734500 40.525500 1 1 -1
444 3 4 0.000000 59.074500 2.914500 39.705500 1 1 -1
445 3 4 0.000000 1.269000 1.594500 40.645500 2 1 -1
446 3 4 0.000000 2.609000 1.184500 40.055500 2 1 -1
447 3 4 0.000000 3.999000 58.920000 40.775500 2 0 -1
448 3 4 0.000000 5.289000 58.530000 40.065500 2 0 -1
449 3 4 0.000000 5.029000 58.450000 40.975500 2 0 -1
450 3 3 0.000000 6.089000 58.460000 39.885500 2 0 -1
451 4 1 0.000000 17.260000 60.010000 15.160000 0 0 0
452 4 2 0.000000 17.320000 1.700000 13.410000 0 1 0
453 4 2 0.000000 16.150000 1.710000 11.410000 0 1 0
454 4 2 0.000000 14.920000 3.240000 9.940000 0 1 0
455 4 2 0.000000 14.200000 4.840000 8.240000 0 1 0
456 4 2 0.000000 12.760000 3.600000 6.840000 0 1 0
457 4 2 0.000000 12.860000 3.960000 4.490000 0 1 0
458 4 2 0.000000 10.530000 3.460000 3.700000 0 1 0
459 4 2 0.000000 8.230000 4.380000 3.790000 0 1 0
460 4 2 0.000000 5.990000 4.310000 3.010000 0 1 0
461 4 2 0.000000 3.700000 5.100000 2.950000 0 1 0
462 4 2 0.000000 1.420000 5.190000 2.880000 0 1 0
463 4 2 0.000000 0.230000 3.080000 3.150000 0 1 0
464 4 2 0.000000 58.810000 1.410000 4.200000 -1 1 0
465 4 2 0.000000 57.220000 0.300000 5.910000 -1 1 0
466 4 2 0.000000 55.910000 0.560000 7.960000 -1 1 0
467 4 2 0.000000 54.690000 59.350000 9.580000 -1 0 0
468 4 2 0.000000 52.620000 59.830000 10.580000 -1 0 0
469 4 2 0.000000 50.490000 58.530000 11.580000 -1 0 0
470 4 2 0.000000 49.470000 59.910000 13.270000 -1 0 0
471 4 2 0.000000 47.780000 1.600000 13.150000 -1 1 0
472 4 2 0.000000 47.940000 2.680000 11.020000 -1 1 0
473 4 2 0.000000 48.210000 1.240000 9.200000 -1 1 0
474 4 2 0.000000 48.290000 0.084500 7.230000 -1 1 0
475 4 2 0.000000 50.020000 58.640000 6.580000 -1 0 0
476 4 2 0.000000 50.070000 56.620000 8.110000 -1 0 0
477 4 2 0.000000 51.040000 54.930000 9.670000 -1 0 0
478 4 2 0.000000 50.000000 52.600000 10.340000 -1 0 0
479 4 2 0.000000 50.320000 51.810000 12.600000 -1 0 0
480 4 2 0.000000 51.220000 49.660000 12.180000 -1 0 0
481 4 2 0.000000 51.270000 47.480000 10.940000 -1 0 0
482 4 2 0.000000 52.470000 47.190000 9.090000 -1 0 0
483 4 2 0.000000 52.530000 47.520000 6.690000 -1 0 0
484 4 2 0.000000 53.890000 47.610000 4.420000 -1 0 0
485 4 2 0.000000 53.730000 49.310000 2.670000 -1 0 0
486 4 2 0.000000 55.370000 49.710000 1.120000 -1 0 0
487 4 2 0.000000 55.640000 51.470000 59.760000 -1 0 -1
488 4 2 0.000000 56.060000 53.700000 60.005500 -1 0 -1
489 4 2 0.000000 57.940000 54.680000 0.850000 -1 0 0
490 4 2 0.000000 58.290000 53.840000 3.020000 -1 0 0
491 4 2 0.000000 57.340000 53.350000 5.150000 -1 0 0
492 4 2 0.000000 59.130000 52.170000 6.420000 -1 0 0
493 4 2 0.000000 60.010000 49.860000 6.130000 -1 0 0
494 4 2 0.000000 59.520000 47.520000 6.180000 -1 0 0
495 4 2 0.000000 58.250000 45.730000 5.100000 -1 0 0
496 4 2 0.000000 57.200000 44.910000 7.110000 -1 0 0
497 4 2 0.000000 55.340000 43.600000 7.440000 -1 0 0
498 4 2 0.000000 55.580000 41.320000 6.580000 -1 0 0
499 4 2 0.000000 55.900000 38.980000 5.990000 -1 0 0
500 4 1 0.000000 56.820000 37.930000 4.150000 -1 0 0
501 4 3 0.000000 17.260000 60.010000 15.160000 0 0 0
502 4 4 0.000000 18.550000 0.284500 14.470000 0 1 0
503 4 4 0.000000 19.900000 2.620000 12.030000 0 1 0
504 4 4 0.000000 21.170000 3.080000 11.330000 0 1 0
505 4 4 0.000000 21.270000 3.570000 8.610000 0 1 0
506 4 4 0.000000 22.510000 4.070000 7.870000 0 1 0
507 4 4 0.000000 22.490000 6.130000 5.630000 0 1 0
508 4 4 0.000000 23.670000 6.690000 4.840000 0 1 0
509 4 4 0.000000 24.100000 8.890000 2.330000 0 1 0
510 4 4 0.000000 25.230000 9.530000 1.530000 0 1 0
511 4 4 0.000000 24.920000 8.960000 59.525500 0 1 -1
512 4 4 0.000000 26.070000 9.630000 58.775500 0 1 -1
513 4 4 0.000000 27.360000 10.650000 55.735500 0 1 -1
514 4 4 0.000000 28.610000 11.250000 55.105500 0 1 -1
515 4 4 0.000000 27.600000 11.280000 53.755500 0 1 -1
516 4 4 0.000000 28.980000 11.680000 53.255500 0 1 -1
517 4 4 0.000000 28.100000 12.870000 52.865500 0 1 -1
518 4 4 0.000000 29.540000 13.000000 52.375500 0 0 -1
519 4 4 0.000000 28.720000 12.940000 51.035500 0 0 -1
520 4 4 0.000000 30.080000 12.900000 50.345500 0 0 -1
521 4 4 0.000000 29.050000 13.670000 49.425500 0 0 -1
522 4 4 0.000000 30.180000 13.760000 48.405500 0 0 -1
523 4 4 0.000000 28.850000 14.130000 47.185500 0 0 -1
524 4 4 0.000000 29.630000 14.680000 46.005500 0 0 -1
525 4 4 0.000000 29.070000 13.410000 45.165500 0 0 -1
526 4 4 0.000000 29.630000 14.500000 44.255500 0 0 -1
527 4 4 0.000000 28.594500 14.090000 44.675500 0 0 -1
528 4 4 0.000000 29.314500 15.400000 44.375500 0 0 -1
529 4 4 0.000000 28.664500 15.480000 46.095500 0 0 -1
530 4 4 0.000000 29.874500 16.380000 46.325500 0 0 -1
531 4 4 0.000000 29.974500 17.110000 48.675500 0 0 -1
532 4 4 0.000000 31.484500 17.100000 48.865500 0 0 -1
533 4 4 0.000000 31.724500 15.304500 50.385500 0 0 -1
534 4 4 0.000000 33.024500 14.684500 49.885500 0 0 -1
535 4 4 0.000000 32.024500 14.584500 49.985500 0 0 -1
536 4 4 0.000000 32.874500 14.244500 48.775500 0 0 -1
537 4 4 0.000000 31.424500 13.034500 48.415500 0 0 -1
538 4 4 0.000000 32.044500 13.554500 47.135500 0 0 -1
539 4 4 0.000000 31.724500 15.784500 47.785500 0 0 -1
540 4 4 0.000000 32.594500 16.774500 47.045500 0 0 -1
541 4 4 0.000000 32.004500 19.570000 46.435500 0 0 -1
542 4 4 0.000000 33.304500 20.260000 46.075500 1 0 -1
543 4 4 0.000000 34.864500 21.740000 43.535500 1 0 -1
544 4 4 0.000000 36.254500 21.920000 42.955500 1 0 -1
545 4 4 0.000000 37.794500 20.590000 40.315500 1 0 -1
546 4 4 0.000000 38.894500 20.840000 39.295500 1 0 -1
547 4 4 0.000000 39.894500 20.214500 36.255500 1 0 -1
548 4 4 0.000000 40.714500 21.084500 35.315500 1 1 -1
549 4 4 0.000000 43.234500 20.574500 34.035500 1 1 -1
550 4 4 0.000000 44.124500 21.784500 33.795500 1 1 -1
551 4 4 0.000000 45.254500 20.824500 35.445500 1 1 -1
552 4 4 0.000000 46.544500 21.544500 35.775500 1 1 -1
553 4 4 0.000000 48.984500 20.094500 37.675500 1 1 -1
554 4 4 0.000000 50.474500 19.844500 37.775500 1 1 -1
555 4 4 0.000000 50.794500 16.894500 38.135500 1 1 -1
556 4 4 0.000000 51.844500 16.134500 37.345500 1 0 -1
557 4 4 0.000000 52.864500 14.714500 38.415500 1 0 -1
558 4 4 0.000000 53.234500 14.424500 36.965500 1 0 -1
559 4 4 0.000000 54.294500 12.474500 35.035500 1 0 -1
560 4 4 0.000000 54.414500 13.174500 33.695500 1 0 -1
561 4 4 0.000000 54.714500 12.094500 31.435500 1 0 -1
562 4 4 0.000000 55.254500 13.404500 30.865500 1 1 -1
563 4 4 0.000000 57.324500 14.354500 28.895500 1 1 -1
564 4 4 0.000000 58.514500 15.284500 29.105500 1 1 -1
565 4 4 0.000000 59.974500 16.094500 27.055500 1 1 -1
566 4 4 0.000000 1.289000 16.144500 27.305500 2 1 -1
567 4 4 0.000000 4.149000 15.984500 25.015500 2 1 -1
568 4 4 0.000000 5.569000 15.634500 24.595500 2 1 -1
569 4 4 0.000000 6.649000 17.104500 21.995500 2 1 -1
570 4 4 0.000000 7.619000 17.194500 20.835500 2 1 -1
571 4 4 0.000000 9.899000 18.134500 18.015500 2 1 -1
572 4 4 0.000000 10.289000 19.054500 16.865500 2 1 -1
573 4 4 0.000000 10.839000 22.014500 14.430000 2 1 -1
574 4 4 0.000000 11.189000 23.344500 13.790000 2 1 -1
575 4 4 0.000000 12.229000 26.894500 13.585500 2 1 -1
576 4 4 0.000000 13.229000 28.004500 13.265500 2 1 -1
577 4 4 0.000000 16.449000 29.644500 14.025500 2 1 -1
578 4 4 0.000000 17.939000 29.704500 13.755500 2 1 -1
579 4 4 0.000000 19.699000 28.384500 15.635500 2 1 -1
580 4 4 0.000000 20.929000 27.544500 15.285500 2 1 -1
581 4 4 0.000000 21.069000 26.074500 17.005500 2 1 -1
582 4 4 0.000000 22.159000 25.134500 16.495500 2 1 -1
583 4 4 0.000000 25.159000 23.254500 17.155500 2 1 -1
584 4 4 0.000000 26.499000 23.024500 16.485500 2 1 -1
585 4 4 0.000000 28.709000 21.094500 15.555500 2 1 -1
586 4 4 0.000000 29.759000 22.074500 15.065500 2 1 -1
587 4 4 0.000000 29.919000 21.074500 14.795500 2 1 -1
588 4 4 0.000000 30.219000 22.554500 14.575500 2 1 0
589 4 4 0.000000 29.069000 22.264500 13.265500 2 1 0
590 4 4 0.000000 29.189000 23.734500 12.905500 2 1 -1
591 4 4 0.000000 28.489000 24.284500 14.345500 2 1 -1
592 4 4 0.000000 29.179000 25.384500 13.555500 2 1 -1
593 4 4 0.000000 28.359000 24.744500 13.005500 2 1 -1
594 4 4 0.000000 29.629000 24.924500 12.185500 2 1 -1
595 4 4 0.000000 31.209000 22.434500 10.645500 2 1 -1
596 4 4 0.000000 32.549000 22.024500 10.055500 2 1 -1
597 4 4 0.000000 34.199000 19.224500 8.885500 2 1 -1
598 4 4 0.000000 35.489000 18.834500 8.175500 2 1 -1
599 4 4 0.000000 37.629000 17.574500 5.445500 2 1 -1
600 4 3 0.000000 38.689000 17.584500 4.355500 2 1 -1
601 5 1 0.000000 33.320000 8.740000 32.990000 0 0 0
602 5 2 0.000000 35.060000 8.950000 34.720000 0 0 0
603 5 2 0.000000 36.810000 8.230000 36.320000 0 0 0
604 5 2 0.000000 38.270000 9.130000 37.980000 0 0 0
605 5 2 0.000000 38.980000 8.840000 40.330000 0 0 0
606 5 2 0.000000 40.210000 9.500000 42.280000 0 0 0
607 5 2 0.000000 40.790000 10.410000 44.560000 0 0 0
608 5 2 0.000000 40.330000 9.410000 46.740000 0 0 0
609 5 2 0.000000 39.860000 9.850000 49.020000 0 0 0
610 5 2 0.000000 39.770000 8.830000 51.120000 0 0 0
611 5 2 0.000000 41.410000 9.050000 53.010000 0 0 0
612 5 2 0.000000 41.330000 10.880000 54.830000 0 0 0
613 5 2 0.000000 41.220000 11.990000 56.940000 0 0 0
614 5 2 0.000000 42.280000 10.140000 58.590000 0 0 0
615 5 2 0.000000 43.190000 10.300000 0.680000 0 0 1
616 5 2 0.000000 41.490000 10.460000 2.200000 0 0 1
617 5 2 0.000000 39.660000 12.360000 2.090000 0 0 1
618 5 2 0.000000 38.860000 14.650000 2.640000 0 0 1
619 5 2 0.000000 36.970000 16.170000 2.820000 0 0 1
620 5 2 0.000000 34.960000 14.860000 3.170000 0 0 1
621 5 2 0.000000 32.860000 13.810000 4.010000 0 0 1
622 5 2 0.000000 31.340000 12.640000 5.640000 0 0 1
623 5 2 0.000000 29.260000 11.590000 5.470000 0 0 1
624 5 2 0.000000 27.920000 12.610000 7.380000 0 0 1
625 5 2 0.000000 25.630000 13.570000 7.830000 0 0 1
626 5 2 0.000000 25.780000 13.810000 10.140000 0 0 1
627 5 2 0.000000 25.480000 11.940000 11.900000 0 0 1
628 5 2 0.000000 27.140000 12.360000 13.570000 0 0 1
629 5 2 0.000000 29.190000 11.170000 13.930000 0 0 1
630 5 2 0.000000 31.160000 9.650000 14.550000 0 0 1
631 5 2 0.000000 30.830000 7.600000 13.340000 0 0 1
632 5 2 0.000000 29.740000 7.010000 11.150000 0 0 1
633 5 2 0.000000 30.330000 7.660000 8.970000 0 0 1
634 5 2 0.000000 29.150000 7.950000 6.840000 0 0 1
635 5 2 0.000000 29.990000 6.270000 5.170000 0 0 1
636 5 2 0.000000 28.480000 4.390000 4.770000 0 0 1
637 5 2 0.000000 27.440000 3.130000 2.950000 0 0 1
638 5 2 0.000000 26.460000 3.440000 0.660000 0 0 1
639 5 2 0.000000 25.790000 5.010000 59.150000 0 0 0
640 5 2 0.000000 26.140000 4.840000 56.750000 0 0 0
641 5 2 0.000000 26.580000 4.840000 54.450000 0 0 0
642 5 2 0.000000 28.310000 4.330000 52.900000 0 0 0
643 5 2 0.000000 29.310000 3.900000 50.650000 0 0 0
644 5 2 0.000000 27.810000 4.450000 48.730000 0 0 0
645 5 2 0.000000 27.230000 4.770000 46.540000 0 0 0
646 5 2 0.000000 26.650000 4.420000 44.260000 0 0 0
647 5 2 0.000000 24.440000 3.470000 43.450000 0 0 0
648 5 2 0.000000 22.360000 3.740000 42.320000 0 0 0
649 5 2 0.000000 20.230000 3.010000 43.470000 0 0 0
650 5 1 0.000000 18.340000 3.030000 41.810000 0 0 0
651 5 3 0.000000 33.320000 8.740000 32.990000 0 0 0
652 5 4 0.000000 34.610000 9.200000 32.300000 0 0 0
653 5 4 0.000000 37.640000 9.870000 33.340000 0 0 0
654 5 4 0.000000 38.910000 10.330000 32.640000 0 0 0
655 5 4 0.000000 41.930000 10.090000 33.520000 0 0 0
656 5 4 0.000000 43.170000 10.590000 32.780000 0 0 0
657 5 4 0.000000 45.840000 12.020000 33.670000 0 0 0
658 5 4 0.000000 47.020000 12.580000 32.880000 0 0 0
659 5 4 0.000000 48.880000 12.890000 34.420000 0 0 0
660 5 4 0.000000 50.010000 13.530000 33.620000 0 0 0
661 5 4 0.000000 52.370000 14.860000 34.780000 0 0 0
662 5 4 0.000000 53.520000 15.530000 34.030000 0 0 0
663 5 4 0.000000 55.290000 17.100000 35.620000 0 0 0
664 5 4 0.000000 56.540000 17.700000 34.990000 0 0 0
665 5 4 0.000000 57.400000 17.230000 36.610000 0 0 0
666 5 4 0.000000 58.780000 17.630000 36.110000 0 0 0
667 5 4 0.000000 59.730000 18.340000 37.910000 0 0 0
668 5 4 0.000000 0.984500 18.470000 37.420000 1 0 0
669 5 4 0.000000 2.314500 17.460000 38.960000 1 0 0
670 5 4 0.000000 3.674500 17.420000 38.270000 1 0 0
671 5 4 0.000000 6.574500 17.620000 39.300000 1 0 0
672 5 4 0.000000 7.704500 17.710000 38.280000 1 0 0
673 5 4 0.000000 8.574500 19.820000 38.950000 1 0 0
674 5 4 0.000000 9.354500 20.370000 37.770000 1 0 0
675 5 4 0.000000 9.874500 22.320000 38.770000 1 0 0
676 5 4 0.000000 10.434500 23.410000 37.860000 1 0 0
677 5 4 0.000000 12.064500 22.820000 38.880000 1 0 0
678 5 4 0.000000 12.784500 24.130000 38.580000 1 0 0
679 5 4 0.000000 14.634500 25.480000 40.865500 1 0 0
680 5 4 0.000000 15.844500 26.380000 41.095500 1 0 0
681 5 4 0.000000 15.554500 27.010000 42.915500 1 0 0
682 5 4 0.000000 17.064500 27.000000 43.105500 1 0 0
683 5 4 0.000000 16.694500 28.500000 42.895500 1 0 0
684 5 4 0.000000 17.994500 27.880000 42.395500 1 0 0
685 5 4 0.000000 18.264500 29.590000 42.045500 1 0 0
686 5 4 0.000000 19.114500 29.250000 40.835500 1 0 0
687 5 4 0.000000 17.904500 30.860000 39.655500 1 0 0
688 5 4 0.000000 18.524500 31.380000 38.375500 1 0 0
689 5 4 0.000000 17.214500 30.920000 37.685500 1 0 0
690 5 4 0.000000 18.084500 31.910000 36.945500 1 0 0
691 5 4 0.000000 17.084500 31.780000 37.295500 1 0 0
692 5 4 0.000000 18.384500 32.470000 36.935500 1 0 0
693 5 4 0.000000 18.264500 31.700000 38.155500 1 0 0
694 5 4 0.000000 19.654500 31.880000 37.575500 1 0 -1
695 5 4 0.000000 18.844500 30.940000 36.585500 1 0 -1
696 5 4 0.000000 19.944500 31.190000 35.565500 1 0 -1
697 5 4 0.000000 19.524500 32.740000 36.405500 1 0 -1
698 5 4 0.000000 20.344500 33.610000 35.465500 1 0 -1
699 5 4 0.000000 18.844500 35.690000 35.285500 1 0 -1
700 5 4 0.000000 19.734500 36.900000 35.045500 1 0 -1
701 5 4 0.000000 20.964500 38.200000 37.475500 1 0 -1
702 5 4 0.000000 22.254500 38.920000 37.805500 1 0 -1
703 5 4 0.000000 23.424500 37.290000 39.905500 1 0 -1
704 5 4 0.000000 24.914500 37.040000 40.005500 1 0 -1
705 5 4 0.000000 27.934500 36.840000 41.365500 1 0 -1
706 5 4 0.000000 28.984500 36.080000 40.575500 1 0 -1
707 5 4 0.000000 31.734500 34.260000 39.745500 1 0 -1
708 5 4 0.000000 32.104500 33.970000 38.295500 1 0 -1
709 5 4 0.000000 34.234500 32.650000 37.405500 1 0 -1
710 5 4 0.000000 34.354500 33.350000 36.065500 1 0 -1
711 5 4 0.000000 34.274500 32.400000 33.835500 1 0 -1
712 5 4 0.000000 34.814500 33.710000 33.265500 1 0 -1
713 5 4 0.000000 34.594500 34.360000 30.955500 1 0 -1
714 5 4 0.000000 35.784500 35.290000 31.165500 1 0 -1
715 5 4 0.000000 37.774500 36.420000 29.335500 1 0 -1
716 5 4 0.000000 39.274500 36.470000 29.585500 1 0 -1
717 5 4 0.000000 39.594500 36.510000 27.435500 1 0 -1
718 5 4 0.000000 41.014500 36.160000 27.015500 1 0 -1
719 5 4 0.000000 43.094500 34.250000 24.495500 1 0 -1
720 5 4 0.000000 44.064500 34.340000 23.335500 1 0 -1
721 5 4 0.000000 43.194500 33.000000 21.665500 1 0 -1
722 5 4 0.000000 43.584500 33.920000 20.515500 1 0 -1
723 5 4 0.000000 42.824500 33.860000 17.805500 1 0 -1
724 5 4 0.000000 43.174500 35.190000 17.165500 1 0 -1
725 5 4 0.000000 42.814500 36.820000 14.425500 1 0 -1
726 5 4 0.000000 43.814500 37.930000 14.105500 1 0 -1
727 5 4 0.000000 44.484500 40.160000 12.140000 1 0 -1
728 5 4 0.000000 45.974500 40.220000 11.870000 1 0 -1
729 5 4 0.000000 47.734500 39.570000 9.180000 1 0 -1
730 5 4 0.000000 48.964500 38.730000 8.830000 1 0 -1
731 5 4 0.000000 50.494500 37.750000 6.120000 1 0 -1
732 5 4 0.000000 51.584500 36.810000 5.610000 1 0 -1
733 5 4 0.000000 54.524500 35.600000 3.450000 1 0 -1
734 5 4 0.000000 55.864500 35.370000 2.780000 1 0 -1
735 5 4 0.000000 58.194500 35.320000 60.075500 1 0 -2
736 5 4 0.000000 59.244500 36.300000 59.585500 1 0 -2
737 5 4 0.000000 58.394500 38.190000 57.345500 1 0 -2
738 5 4 0.000000 58.694500 39.670000 57.125500 1 0 -2
739 5 4 0.000000 58.234500 41.490000 54.705500 1 0 -2
740 5 4 0.000000 58.354500 42.960000 54.345500 1 0 -2
741 5 4 0.000000 58.124500 43.980000 51.495500 1 0 -2
742 5 4 0.000000 58.814500 45.080000 50.705500 1 0 -1
743 5 4 0.000000 57.644500 44.800000 49.015500 1 0 -1
744 5 4 0.000000 58.914500 44.980000 48.195500 1 0 -1
745 5 4 0.000000 58.174500 45.040000 46.385500 1 0 -1
746 5 4 0.000000 59.514500 44.630000 45.795500 1 0 -1
747 5 4 0.000000 58.714500 43.440000 46.365500 1 0 -1
748 5 4 0.000000 60.004500 43.050000 45.655500 1 0 -1
749 5 4 0.000000 59.334500 42.860000 43.105500 1 0 -1
750 5 3 0.000000 0.209000 42.870000 42.015500 2 0 -1
751 6 1 0.000000 49.120000 31.810000 53.360000 0 0 0
752 6 2 0.000000 50.580000 32.850000 51.680000 0 0 0
753 6 2 0.000000 52.360000 33.530000 49.790000 0 0 0
754 6 2 0.000000 52.640000 34.280000 47.370000 0 0 0
755 6 2 0.000000 52.320000 33.630000 44.820000 0 0 0
756 6 2 0.000000 50.830000 33.800000 43.000000 0 0 0
757 6 2 0.000000 48.850000 32.630000 43.860000 0 0 0
758 6 2 0.000000 47.810000 30.390000 43.800000 0 0 0
759 6 2 0.000000 45.750000 29.540000 43.040000 0 0 0
760 6 2 0.000000 44.980000 27.200000 43.020000 0 0 0
761 6 2 0.000000 44.660000 24.990000 43.690000 0 0 0
762 6 2 0.000000 45.870000 23.040000 43.670000 0 0 0
763 6 2 0.000000 47.690000 21.780000 44.950000 0 0 0
764 6 2 0.000000 49.870000 21.350000 45.970000 0 0 0
765 6 2 0.000000 51.450000 20.320000 44.340000 0 0 0
766 6 2 0.000000 52.580000 18.410000 44.490000 0 0 0
767 6 2 0.000000 53.320000 16.190000 44.310000 0 0 0
768 6 2 0.000000 55.730000 16.070000 44.350000 0 0 0
769 6 2 0.000000 56.960000 17.850000 45.440000 0 0 0
770 6 2 0.000000 59.180000 17.760000 45.230000 0 0 0
771 6 2 0.000000 0.360000 16.900000 43.570000 1 0 0
772 6 2 0.000000 59.220000 14.650000 42.870000 0 0 0
773 6 2 0.000000 58.310000 14.140000 40.540000 0 0 0
774 6 2 0.000000 56.560000 15.360000 39.740000 0 0 0
775 6 2 0.000000 54.830000 16.530000 38.810000 0 0 0
776 6 2 0.000000 52.850000 17.100000 37.330000 0 0 0
777 6 2 0.000000 52.450000 16.410000 35.000000 0 0 0
778 6 2 0.000000 51.650000 16.530000 32.690000 0 0 0
779 6 2 0.000000 52.760000 14.730000 31.300000 0 0 0
780 6 2 0.000000 54.280000 13.410000 32.450000 0 0 0
781 6 2 0.000000 56.010000 12.920000 34.030000 0 0 0
782 6 2 0.000000 58.220000 12.710000 35.080000 0 0 0
783 6 2 0.000000 60.090000 12.470000 36.280000 0 0 0
784 6 2 0.000000 1.670000 13.810000 37.360000 1 0 0
785 6 2 0.000000 2.190000 14.820000 39.450000 1 0 0
786 6 2 0.000000 4.120000 16.110000 39.890000 1 0 0
787 6 2 0.000000 6.060000 17.060000 40.880000 1 0 0
788 6 2 0.000000 7.010000 19.260000 39.960000 1 0 0
789 6 2 0.000000 8.300000 20.780000 41.250000 1 0 0
790 6 2 0.000000 9.980000 19.700000 42.590000 1 0 0
791 6 2 0.000000 12.250000 20.570000 41.830000 1 0 0
792 6 2 0.000000 13.040000 22.320000 40.260000 1 0 0
793 6 2 0.000000 12.750000 21.700000 37.870000 1 0 0
794 6 2 0.000000 11.430000 19.740000 37.390000 1 0 0
795 6 2 0.000000 10.200000 20.100000 35.340000 1 0 0
796 6 2 0.000000 9.950000 22.280000 34.400000 1 0 0
797 6 2 0.000000 11.400000 23.870000 33.650000 1 0 0
798 6 2 0.000000 11.080000 26.150000 32.840000 1 0 0
799 6 2 0.000000 12.160000 27.800000 31.200000 1 0 0
800 6 1 0.000000 13.670000 27.560000 29.410000 1 0 0
801 6 3 0.000000 49.120000 31.810000 53.360000 0 0 0
802 6 4 0.000000 50.410000 32.270000 52.670000 0 0 0
803 6 4 0.000000 53.160000 33.770000 50.300000 0 0 0
804 6 4 0.000000 54.430000 34.230000 49.600000 0 0 0
805 6 4 0.000000 57.480000 35.390000 46.990000 0 0 0
806 6 4 0.000000 58.720000 35.890000 46.250000 0 0 0
807 6 4 0.000000 0.024500 37.170000 43.060000 1 0 0
808 6 4 0.000000 1.204500 37.730000 42.270000 1 0 0
809 6 4 0.000000 2.034500 37.680000 38.910000 1 0 0
810 6 4 0.000000 3.164500 38.320000 38.110000 1 0 0
811 6 4 0.000000 2.804500 39.160000 35.500000 1 0 0
812 6 4 0.000000 3.954500 39.830000 34.750000 1 0 0
813 6 4 0.000000 3.164500 39.320000 34.920000 1 0 0
814 6 4 0.000000 4.414500 39.920000 34.290000 1 0 0
815 6 4 0.000000 4.694500 38.210000 33.670000 1 0 0
816 6 4 0.000000 6.074500 38.610000 33.170000 1 0 0
817 6 4 0.000000 5.434500 38.030000 31.930000 1 0 0
818 6 4 0.000000 6.874500 38.160000 31.440000 1 0 0
819 6 4 0.000000 7.524500 35.830000 30.860000 1 0 0
820 6 4 0.000000 8.884500 35.790000 30.170000 1 0 0
821 6 4 0.000000 9.824500 33.560000 29.980000 1 0 0
822 6 4 0.000000 10.954500 33.650000 28.960000 1 0 0
823 6 4 0.000000 13.114500 31.980000 27.790000 1 0 0
824 6 4 0.000000 13.894500 32.530000 26.610000 1 0 0
825 6 4 0.000000 16.344500 32.110000 26.780000 1 0 0
826 6 4 0.000000 16.904500 33.200000 25.870000 1 0 0
827 6 4 0.000000 19.654500 34.030000 26.260000 1 0 0
828 6 4 0.000000 20.374500 35.340000 25.960000 1 0 0
829 6 4 0.000000 22.894500 35.500000 24.340000 1 0 0
830 6 4 0.000000 24.104500 36.400000 24.570000 1 0 0
831 6 4 0.000000 26.644500 34.960000 25.020000 1 0 0
832 6 4 0.000000 28.154500 34.950000 25.210000 1 0 0
833 6 4 0.000000 30.354500 32.330000 24.930000 1 0 0
834 6 4 0.000000 31.654500 31.710000 24.430000 1 0 0
835 6 4 0.000000 35.134500 31.010000 23.570000 1 0 0
836 6 4 0.000000 35.984500 30.670000 22.360000 1 0 0
837 6 4 0.000000 37.894500 32.540000 22.090000 1 0 0
838 6 4 0.000000 38.514500 33.060000 20.810000 1 0 0
839 6 4 0.000000 41.434500 33.820000 19.560000 1 0 0
840 6 4 0.000000 42.304500 34.810000 18.820000 1 0 0
841 6 4 0.000000 44.770000 34.870000 16.670000 1 0 0
842 6 4 0.000000 46.070000 35.560000 16.310000 1 0 0
843 6 4 0.000000 46.144500 33.710000 15.200000 1 0 0
844 6 4 0.000000 47.534500 33.890000 14.620000 1 0 0
845 6 4 0.000000 47.894500 33.490000 11.470000 1 0 0
846 6 4 0.000000 48.994500 33.740000 10.450000 1 0 0
847 6 4 0.000000 48.164500 35.490000 8.580000 1 0 0
848 6 4 0.000000 48.984500 36.360000 7.640000 1 0 0
849 6 4 0.000000 48.044500 38.650000 6.080000 1 0 0
850 6 4 0.000000 48.934500 39.860000 5.840000 1 0 0
851 6 4 0.000000 48.034500 41.490000 4.480000 1 0 0
852 6 4 0.000000 49.324500 42.210000 4.810000 1 0 0
853 6 4 0.000000 50.394500 41.760000 2.820000 1 0 0
854 6 4 0.000000 51.884500 41.510000 2.920000 1 0 0
855 6 4 0.000000 52.444500 41.010000 0.300000 1 0 0
856 6 4 0.000000 53.494500 40.250000 59.695500 0 0 -1
857 6 4 0.000000 55.304500 37.820000 57.115500 0 0 -1
858 6 4 0.000000 55.674500 37.530000 55.665500 1 0 -1
859 6 4 0.000000 57.354500 36.410000 55.305500 1 0 -1
860 6 4 0.000000 57.474500 37.110000 53.965500 1 0 -1
861 6 4 0.000000 59.454500 37.720000 54.525500 1 0 -1
862 6 4 0.000000 59.994500 39.030000 53.955500 1 0 -1
863 6 4 0.000000 2.889000 40.060000 54.885500 2 0 -1
864 6 4 0.000000 4.079000 40.990000 55.095500 2 0 -1
865 6 4 0.000000 7.349000 41.230000 56.645500 2 0 -1
866 6 4 0.000000 8.849000 41.280000 56.895500 2 0 -1
867 6 4 0.000000 12.114500 42.370000 57.955500 2 0 -1
868 6 4 0.000000 13.534500 42.020000 57.535500 2 0 -1
869 6 4 0.000000 15.294500 42.800000 58.775500 2 0 -1
870 6 4 0.000000 16.264500 42.890000 57.615500 2 0 -1
871 6 4 0.000000 18.834500 44.720000 56.785500 2 0 -1
872 6 4 0.000000 19.224500 45.640000 55.635500 2 0 -1
873 6 4 0.000000 21.444500 47.790000 55.735500 2 0 -1
874 6 4 0.000000 21.794500 49.120000 55.095500 2 0 -1
875 6 4 0.000000 23.364500 52.640000 53.725500 2 0 -1
876 6 4 0.000000 24.364500 53.750000 53.405500 2 0 -1
877 6 4 0.000000 26.994500 55.930000 54.425500 2 0 -1
878 6 4 0.000000 28.484500 55.990000 54.155500 2 0 -1
879 6 4 0.000000 31.574500 54.430000 55.205500 2 0 -1
880 6 4 0.000000 32.804500 53.590000 54.855500 2 0 -1
881 6 4 0.000000 36.164500 53.480000 53.685500 2 0 -1
882 6 4 0.000000 37.254500 52.540000 53.175500 1 0 -1
883 6 4 0.000000 39.254500 53.590000 50.995500 1 0 -1
884 6 4 0.000000 40.594500 53.360000 50.325500 1 0 -1
885 6 4 0.000000 41.634500 53.120000 47.295500 1 0 -1
886 6 4 0.000000 42.684500 54.100000 46.805500 1 0 -1
887 6 4 0.000000 42.014500 53.480000 46.005500 1 0 -1
888 6 4 0.000000 42.314500 54.960000 45.785500 1 0 -1
889 6 4 0.000000 41.204500 56.820000 43.505500 1 0 -1
890 6 4 0.000000 41.324500 58.290000 43.145500 1 0 -1
891 6 4 0.000000 41.424500 1.654500 41.635500 1 1 -1
892 6 4 0.000000 42.114500 2.754500 40.845500 1 1 -1
893 6 4 0.000000 44.604500 5.014500 39.215500 1 1 -1
894 6 4 0.000000 45.874500 5.194500 38.395500 1 1 -1
895 6 4 0.000000 46.894500 7.264500 36.905500 1 1 -1
896 6 4 0.000000 48.234500 6.854500 36.315500 1 1 -1
897 6 4 0.000000 50.644500 8.044500 34.095500 1 1 -1
898 6 4 0.000000 51.934500 7.654500 33.385500 1 1 -1
899 6 4 0.000000 54.664500 7.204500 30.705500 1 1 -1
900 6 3 0.000000 55.724500 7.214500 29.615500 1 1 -1
901 7 1 0.000000 7.130000 33.390000 59.440000 0 0 0
902 7 2 0.000000 4.950000 32.980000 0.350000 0 0 1
903 7 2 0.000000 3.220000 32.070000 59.250000 0 0 0
904 7 2 0.000000 0.780000 32.050000 58.570000 0 0 0
905 7 2 0.000000 59.745500 33.390000 56.850000 -1 0 0
906 7 2 0.000000 57.460000 33.810000 57.340000 -1 0 0
907 7 2 0.000000 55.750000 34.990000 58.540000 -1 0 0
908 7 2 0.000000 53.590000 34.100000 58.830000 -1 0 0
909 7 2 0.000000 53.000000 32.500000 0.274500 -1 0 1
910 7 2 0.000000 53.690000 33.140000 2.490000 -1 0 1
911 7 2 0.000000 53.130000 35.280000 3.500000 -1 0 1
912 7 2 0.000000 51.080000 35.830000 2.260000 -1 0 1
913 7 2 0.000000 48.960000 35.590000 1.090000 -1 0 1
914 7 2 0.000000 46.750000 35.970000 1.610000 -1 0 1
915 7 2 0.000000 46.230000 34.200000 3.000000 -1 0 1
916 7 2 0.000000 45.680000 31.760000 3.250000 -1 0 1
917 7 2 0.000000 43.960000 30.510000 4.070000 -1 0 1
918 7 2 0.000000 41.940000 29.540000 4.660000 -1 0 1
919 7 2 0.000000 41.190000 30.220000 7.060000 -1 0 1
920 7 2 0.000000 40.450000 32.500000 7.040000 -1 0 1
921 7 2 0.000000 38.060000 32.760000 6.930000 -1 0 1
922 7 2 0.000000 37.200000 34.880000 7.460000 -1 0 1
923 7 2 0.000000 37.640000 36.400000 5.720000 -1 0 1
924 7 2 0.000000 39.810000 37.040000 5.420000 -1 0 1
925 7 2 0.000000 40.700000 38.670000 4.010000 -1 0 1
926 7 2 0.000000 40.730000 39.810000 1.950000 -1 0 1
927 7 2 0.000000 42.790000 41.020000 1.270000 -1 0 1
928 7 2 0.000000 44.990000 40.530000 1.860000 -1 0 1
929 7 2 0.000000 45.980000 40.820000 3.930000 -1 0 1
930 7 2 0.000000 46.230000 42.730000 5.290000 -1 0 1
931 7 2 0.000000 47.660000 43.160000 7.020000 -1 0 1
932 7 2 0.000000 48.830000 43.930000 8.890000 -1 0 1
933 7 2 0.000000 48.480000 42.930000 11.090000 -1 0 1
934 7 2 0.000000 46.660000 42.900000 12.460000 -1 0 1
935 7 2 0.000000 45.900000 41.680000 14.250000 -1 0 1
936 7 2 0.000000 43.610000 42.290000 15.150000 -1 0 1
937 7 2 0.000000 42.360000 41.550000 17.240000 -1 0 1
938 7 2 0.000000 43.620000 41.040000 19.090000 -1 0 1
939 7 2 0.000000 44.120000 39.190000 20.740000 -1 0 1
940 7 2 0.000000 45.130000 37.040000 20.100000 -1 0 1
941 7 2 0.000000 44.150000 34.840000 20.770000 -1 0 1
942 7 2 0.000000 44.050000 32.480000 21.250000 -1 0 1
943 7 2 0.000000 46.370000 31.320000 21.420000 -1 0 1
944 7 2 0.000000 47.030000 29.170000 20.320000 -1 0 1
945 7 2 0.000000 49.380000 29.340000 20.020000 -1 0 1
946 7 2 0.000000 51.770000 29.890000 19.760000 -1 0 1
947 7 2 0.000000 53.770000 28.810000 20.700000 -1 0 1
948 7 2 0.000000 55.260000 27.100000 21.310000 -1 0 1
949 7 2 0.000000 54.300000 26.470000 23.280000 -1 0 1
950 7 1 0.000000 52.190000 25.990000 24.420000 -1 0 1
951 7 3 0.000000 7.130000 33.390000 59.440000 0 0 0
952 7 4 0.000000 8.420000 33.850000 58.750000 0 0 0
953 7 4 0.000000 7.530000 33.900000 59.155500 0 0 0
954 7 4 0.000000 8.800000 34.360000 58.455500 0 0 0
955 7 4 0.000000 8.340000 33.930000 56.450000 0 0 0
956 7 4 0.000000 9.580000 34.430000 55.710000 0 0 0
957 7 4 0.000000 8.350000 34.940000 54.260000 0 0 0
958 7 4 0.000000 9.530000 35.500000 53.470000 0 0 0
959 7 4 0.000000 9.460000 37.440000 50.940000 0 0 0
960 7 4 0.000000 10.590000 38.080000 50.140000 0 0 0
961 7 4 0.000000 9.434500 39.170000 49.840000 0 0 0
962 7 4 0.000000 10.584500 39.840000 49.090000 0 0 0
963 7 4 0.000000 10.064500 41.680000 49.600000 0 0 0
964 7 4 0.000000 11.314500 42.280000 48.970000 0 0 0
965 7 4 0.000000 10.474500 41.920000 48.700000 0 0 0
966 7 4 0.000000 11.854500 42.320000 48.200000 0 0 0
967 7 4 0.000000 12.684500 40.990000 49.350000 0 0 0
968 7 4 0.000000 14.124500 41.120000 48.860000 0 0 -1
969 7 4 0.000000 16.234500 41.770000 50.515500 0 0 -1
970 7 4 0.000000 17.594500 41.730000 49.825500 0 0 0
971 7 4 0.000000 18.294500 43.850000 49.975500 0 0 0
972 7 4 0.000000 19.424500 43.940000 48.955500 0 0 0
973 7 4 0.000000 18.324500 44.770000 46.565500 0 0 0
974 7 4 0.000000 19.104500 45.320000 45.385500 0 0 0
975 7 4 0.000000 17.614500 45.920000 43.105500 0 0 0
976 7 4 0.000000 18.174500 47.010000 42.195500 1 0 0
977 7 4 0.000000 16.534500 48.650000 42.085500 1 0 0
978 7 4 0.000000 17.254500 49.960000 41.785500 1 0 0
979 7 4 0.000000 17.674500 49.380000 43.185500 1 0 0
980 7 4 0.000000 18.884500 50.280000 43.415500 1 0 0
981 7 4 0.000000 19.744500 48.310000 43.965500 1 0 0
982 7 4 0.000000 21.254500 48.300000 44.155500 1 0 0
983 7 4 0.000000 20.994500 46.650000 44.875500 1 0 0
984 7 4 0.000000 22.294500 46.030000 44.375500 1 0 -1
985 7 4 0.000000 21.344500 44.480000 44.065500 1 0 -1
986 7 4 0.000000 22.194500 44.140000 42.855500 1 0 -1
987 7 4 0.000000 22.124500 44.910000 43.895500 1 0 -1
988 7 4 0.000000 22.744500 45.430000 42.615500 1 0 -1
989 7 4 0.000000 22.704500 48.560000 41.555500 1 0 -1
990 7 4 0.000000 23.574500 49.550000 40.815500 1 0 -1
991 7 4 0.000000 22.284500 50.730000 40.215500 1 0 -1
992 7 4 0.000000 23.584500 51.420000 39.855500 1 0 -1
993 7 4 0.000000 24.124500 53.940000 39.975500 1 0 -1
994 7 4 0.000000 25.514500 54.120000 39.395500 1 0 -1
995 7 4 0.000000 27.224500 55.750000 36.835500 1 0 -1
996 7 4 0.000000 28.324500 56.000000 35.815500 1 0 -1
997 7 4 0.000000 31.414500 57.170000 34.445500 1 0 -1
998 7 4 0.000000 32.234500 58.040000 33.505500 1 0 -1
999 7 4 0.000000 33.914500 0.604500 31.465500 1 1 -1
1000 7 4 0.000000 34.804500 1.814500 31.225500 1 1 -1
1001 7 4 0.000000 35.914500 4.014500 29.285500 1 1 -1
1002 7 4 0.000000 37.204500 4.734500 29.615500 1 1 -1
1003 7 4 0.000000 40.734500 6.184500 29.275500 1 1 -1
1004 7 4 0.000000 42.224500 5.934500 29.375500 1 1 -1
1005 7 4 0.000000 45.784500 4.824500 29.655500 1 1 -1
1006 7 4 0.000000 46.834500 4.064500 28.865500 1 1 -1
1007 7 4 0.000000 48.524500 3.724500 29.745500 1 1 -1
1008 7 4 0.000000 48.894500 3.434500 28.295500 1 1 -1
1009 7 4 0.000000 49.304500 5.544500 28.145500 1 1 -1
1010 7 4 0.000000 49.424500 6.244500 26.805500 1 1 -1
1011 7 4 0.000000 51.104500 7.774500 27.515500 1 1 -1
1012 7 4 0.000000 51.644500 9.084500 26.945500 1 1 -1
1013 7 4 0.000000 53.684500 11.094500 28.695500 1 1 -1
1014 7 4 0.000000 54.874500 12.024500 28.905500 1 1 -1
1015 7 4 0.000000 55.924500 11.504500 31.455500 1 1 -1
1016 7 4 0.000000 57.424500 11.554500 31.705500 1 1 -1
1017 7 4 0.000000 57.104500 11.274500 33.055500 1 1 -1
1018 7 4 0.000000 58.524500 10.924500 32.635500 1 1 -1
1019 7 4 0.000000 59.004500 9.474500 33.575500 1 1 -1
1020 7 4 0.000000 59.974500 9.564500 32.415500 1 1 -1
1021 7 4 0.000000 58.324500 10.714500 32.045500 1 1 -1
1022 7 4 0.000000 58.714500 11.634500 30.895500 1 1 -1
1023 7 4 0.000000 57.744500 12.094500 32.095500 1 1 -1
1024 7 4 0.000000 58.094500 13.424500 31.455500 1 1 -1
1025 7 4 0.000000 59.974500 14.234500 32.855500 1 1 -1
1026 7 4 0.000000 0.789000 15.344500 32.535500 2 1 -1
1027 7 4 0.000000 2.629000 14.154500 33.915500 2 1 -1
1028 7 4 0.000000 4.119000 14.214500 33.645500 2 1 -1
1029 7 4 0.000000 6.539000 11.584500 32.715500 2 1 -1
1030 7 4 0.000000 7.769000 10.744500 32.365500 2 1 -1
1031 7 4 0.000000 7.879000 7.564500 32.625500 2 1 -1
1032 7 4 0.000000 8.969000 6.624500 32.115500 2 1 -1
1033 7 4 0.000000 10.079000 3.564500 31.985500 2 1 -1
1034 7 4 0.000000 11.419000 3.334500 31.315500 2 1 -1
1035 7 4 0.000000 15.069000 2.554500 30.845500 2 1 -1
1036 7 4 0.000000 16.119000 3.534500 30.355500 2 1 -1
1037 7 4 0.000000 17.429000 2.724500 28.935500 2 1 -1
1038 7 4 0.000000 17.729000 4.204500 28.715500 2 1 -1
1039 7 4 0.000000 20.199000 5.874500 28.185500 2 1 -1
1040 7 4 0.000000 20.319000 7.344500 27.825500 2 1 -1
1041 7 4 0.000000 23.059000 9.264500 26.995500 2 1 -1
1042 7 4 0.000000 23.749000 10.364500 26.205500 2 1 -1
1043 7 4 0.000000 26.789000 9.954500 26.265500 2 1 -1
1044 7 4 0.000000 28.059000 10.134500 25.445500 2 1 -1
1045 7 4 0.000000 30.889000 8.214500 25.375500 2 1 -1
1046 7 4 0.000000 32.229000 7.804500 24.785500 2 1 -1
1047 7 4 0.000000 32.599000 6.714500 26.175500 2 1 -1
1048 7 4 0.000000 33.889000 6.324500 25.465500 2 1 -1
1049 7 4 0.000000 32.999000 5.634500 25.715500 2 1 -1
1050 7 3 0.000000 34.059000 5.644500 24.625500 2 1 -1
1051 8 1 0.000000 32.010000 14.420000 14.730000 0 0 0
1052 8 2 0.000000 33.470000 12.400000 15.510000 0 0 0
1053 8 2 0.000000 34.730000 12.680000 17.650000 0 0 0
1054 8 2 0.000000 34.740000 14.310000 19.360000 0 0 0
1055 8 2 0.000000 35.160000 16.400000 20.710000 0 0 0
1056 8 2 0.000000 34.660000 18.610000 19.610000 0 0 0
1057 8 2 0.000000 36.480000 19.260000 18.070000 0 0 0
1058 8 2 0.000000 37.900000 20.990000 17.050000 0 0 0
1059 8 2 0.000000 37.020000 21.420000 14.960000 0 0 0
1060 8 2 0.000000 37.360000 20.780000 12.670000 0 0 0
1061 8 2 0.000000 35.620000 21.170000 11.150000 0 0 0
1062 8 2 0.000000 33.430000 21.300000 10.240000 0 0 0
1063 8 2 0.000000 31.440000 22.440000 10.150000 0 0 0
1064 8 2 0.000000 29.980000 22.640000 11.990000 0 0 0
1065 8 2 0.000000 27.580000 22.640000 11.080000 0 0 0
1066 8 2 0.000000 25.260000 23.140000 11.250000 0 0 0
1067 8 2 0.000000 24.950000 24.570000 9.210000 0 0 0
1068 8 2 0.000000 25.210000 26.860000 8.860000 0 0 0
1069 8 2 0.000000 23.370000 28.530000 9.460000 0 0 0
1070 8 2 0.000000 20.950000 28.760000 9.620000 0 0 0
1071 8 2 0.000000 18.580000 28.040000 9.860000 0 0 0
1072 8 2 0.000000 17.670000 28.670000 11.980000 0 0 0
1073 8 2 0.000000 15.830000 28.060000 13.350000 0 0 0
1074 8 2 0.000000 15.630000 27.950000 15.700000 0 0 0
1075 8 2 0.000000 14.190000 26.490000 16.860000 0 0 0
1076 8 2 0.000000 12.460000 25.850000 15.340000 0 0 0
1077 8 2 0.000000 11.490000 25.960000 13.050000 0 0 0
1078 8 2 0.000000 10.850000 27.580000 11.490000 0 0 0
1079 8 2 0.000000 10.240000 29.200000 9.900000 0 0 0
1080 8 2 0.000000 11.960000 30.800000 10.370000 0 0 0
1081 8 2 0.000000 12.480000 32.130000 12.270000 0 0 0
1082 8 2 0.000000 14.050000 34.000000 13.120000 0 0 0
1083 8 2 0.000000 13.410000 36.220000 13.700000 0 0 0
1084 8 2 0.000000 14.860000 38.020000 14.420000 0 0 0
1085 8 2 0.000000 13.340000 39.730000 15.320000 0 0 0
1086 8 2 0.000000 11.260000 39.720000 13.930000 0 0 0
1087 8 2 0.000000 10.160000 39.660000 11.920000 0 0 0
1088 8 2 0.000000 7.810000 40.080000 11.020000 0 0 0
1089 8 2 0.000000 6.080000 38.720000 12.000000 0 0 0
1090 8 2 0.000000 5.880000 36.710000 10.750000 0 0 0
1091 8 2 0.000000 5.360000 34.660000 9.400000 0 0 0
1092 8 2 0.000000 5.140000 34.170000 7.120000 0 0 0
1093 8 2 0.000000 3.780000 34.570000 5.220000 0 0 0
1094 8 2 0.000000 2.450000 35.020000 3.280000 0 0 0
1095 8 2 0.000000 0.710000 35.020000 1.630000 0 0 0
1096 8 2 0.000000 1.460000 36.880000 0.340000 0 0 0
1097 8 2 0.000000 1.160000 39.370000 0.240000 0 0 0
1098 8 2 0.000000 0.900000 41.670000 0.840000 0 0 0
1099 8 2 0.000000 59.580000 43.240000 1.650000 -1 0 0
1100 8 1 0.000000 57.490000 44.170000 0.940000 -1 0 0
1101 8 3 0.000000 32.010000 14.420000 14.730000 0 0 0
1102 8 4 0.000000 33.300000 14.880000 14.040000 0 0 0
1103 8 4 0.000000 36.050000 13.320000 14.130000 0 0 0
1104 8 4 0.000000 37.320000 13.780000 13.430000 0 0 0
1105 8 4 0.000000 39.850000 14.540000 14.850000 0 0 0
1106 8 4 0.000000 41.090000 15.040000 14.110000 0 0 0
1107 8 4 0.000000 42.310000 17.200000 15.050000 0 0 0
1108 8 4 0.000000 43.490000 17.760000 14.260000 0 0 0
1109 8 4 0.000000 45.060000 20.450000 14.800000 0 0 0
1110 8 4 0.000000 46.190000 21.090000 14.000000 0 0 0
1111 8 4 0.000000 46.820000 23.970000 12.110000 0 0 0
1112 8 4 0.000000 47.970000 24.640000 11.360000 0 0 0
1113 8 4 0.000000 50.980000 25.950000 9.130000 0 0 0
1114 8 4 0.000000 52.230000 26.550000 8.500000 0 0 0
1115 8 4 0.000000 54.970000 28.810000 6.920000 0 0 0
1116 8 4 0.000000 56.350000 29.210000 6.420000 0 0 0
1117 8 4 0.000000 56.890000 29.910000 3.850000 0 0 0
1118 8 4 0.000000 58.330000 30.040000 3.360000 0 0 0
1119 8 4 0.000000 60.090000 29.410000 0.510000 0 0 0
1120 8 4 0.000000 1.264500 29.370000 60.005500 1 0 -1
1121 8 4 0.000000 0.784500 29.740000 57.625500 1 0 -1
1122 8 4 0.000000 1.914500 29.830000 56.605500 1 0 -1
1123 8 4 0.000000 0.674500 30.240000 54.545500 1 0 -1
1124 8 4 0.000000 1.454500 30.790000 53.365500 1 0 -1
1125 8 4 0.000000 0.094500 32.770000 52.165500 1 0 -1
1126 8 4 0.000000 0.654500 33.860000 51.255500 1 0 -1
1127 8 4 0.000000 59.950000 35.320000 52.465500 0 0 -1
1128 8 4 0.000000 0.484500 36.630000 52.165500 1 0 -1
1129 8 4 0.000000 59.210000 37.820000 51.265500 0 0 -1
1130 8 4 0.000000 0.234500 38.720000 51.495500 1 0 -1
1131 8 4 0.000000 59.510000 39.690000 51.965500 0 0 -1
1132 8 4 0.000000 0.834500 39.680000 52.155500 1 0 -1
1133 8 4 0.000000 1.984500 40.710000 50.015500 1 0 -1
1134 8 4 0.000000 3.284500 40.090000 49.515500 1 0 -1
1135 8 4 0.000000 4.614500 41.800000 48.265500 1 0 -1
1136 8 4 0.000000 5.464500 41.460000 47.055500 1 0 -1
1137 8 4 0.000000 4.304500 43.220000 46.295500 1 0 -1
1138 8 4 0.000000 4.924500 43.740000 45.015500 1 0 -1
1139 8 4 0.000000 3.204500 44.820000 44.135500 1 0 -1
1140 8 4 0.000000 4.074500 45.810000 43.395500 1 0 -1
1141 8 4 0.000000 2.804500 46.010000 43.145500 1 0 -1
1142 8 4 0.000000 4.104500 46.700000 42.785500 1 0 -1
1143 8 4 0.000000 4.594500 47.730000 44.495500 1 0 -1
1144 8 4 0.000000 5.984500 47.910000 43.915500 1 0 -1
1145 8 4 0.000000 5.414500 47.410000 44.465500 1 0 -1
1146 8 4 0.000000 6.514500 47.660000 43.445500 1 0 -1
1147 8 4 0.000000 7.234500 48.080000 44.725500 1 0 -1
1148 8 4 0.000000 8.054500 48.950000 43.785500 1 0 -1
1149 8 4 0.000000 7.404500 48.610000 44.315500 1 0 -1
1150 8 4 0.000000 8.294500 49.820000 44.075500 1 0 -1
1151 8 4 0.000000 7.644500 50.240000 42.675500 1 0 -1
1152 8 4 0.000000 8.934500 50.960000 43.005500 1 0 -1
1153 8 4 0.000000 9.434500 51.310000 41.055500 1 0 -1
1154 8 4 0.000000 10.924500 51.060000 41.155500 1 0 -1
1155 8 4 0.000000 11.644500 52.060000 39.285500 1 0 -1
1156 8 4 0.000000 12.694500 51.300000 38.495500 1 0 -1
1157 8 4 0.000000 12.784500 52.290000 35.715500 1 0 -1
1158 8 4 0.000000 13.154500 52.000000 34.265500 1 0 -1
1159 8 4 0.000000 15.034500 53.800000 33.225500 1 0 -1
1160 8 4 0.000000 15.154500 54.500000 31.885500 1 0 -1
1161 8 4 0.000000 15.924500 56.930000 32.765500 1 0 -1
1162 8 4 0.000000 16.464500 58.240000 32.195500 1 0 -1
1163 8 4 0.000000 18.904500 1.164500 32.925500 1 1 -1
1164 8 4 0.000000 20.094500 2.094500 33.135500 1 1 -1
1165 8 4 0.000000 20.854500 4.794500 34.065500 1 1 -1
1166 8 4 0.000000 22.354500 4.844500 34.315500 1 1 -1
1167 8 4 0.000000 25.304500 6.394500 35.015500 1 1 -1
1168 8 4 0.000000 26.724500 6.044500 34.595500 1 1 -1
1169 8 4 0.000000 26.444500 7.524500 34.645500 1 1 -1
1170 8 4 0.000000 27.414500 7.614500 33.485500 1 1 -1
1171 8 4 0.000000 25.974500 8.144500 30.825500 1 1 -1
1172 8 4 0.000000 26.364500 9.064500 29.675500 1 1 -1
1173 8 4 0.000000 25.544500 10.204500 26.775500 1 1 -1
1174 8 4 0.000000 25.894500 11.534500 26.135500 1 1 -1
1175 8 4 0.000000 24.164500 13.274500 24.785500 1 1 -1
1176 8 4 0.000000 25.164500 14.384500 24.465500 1 1 -1
1177 8 4 0.000000 24.774500 13.684500 25.175500 1 1 -1
1178 8 4 0.000000 26.264500 13.744500 24.905500 1 1 -1
1179 8 4 0.000000 27.474500 11.254500 23.365500 1 1 -1
1180 8 4 0.000000 28.704500 10.414500 23.015500 1 1 -1
1181 8 4 0.000000 29.274500 7.384500 21.255500 1 1 -1
1182 8 4 0.000000 30.364500 6.444500 20.745500 1 1 -1
1183 8 4 0.000000 31.354500 5.254500 17.855500 1 1 -1
1184 8 4 0.000000 32.694500 5.024500 17.185500 1 1 -1
1185 8 4 0.000000 32.664500 5.804500 14.645500 1 1 -1
1186 8 4 0.000000 33.714500 6.784500 14.155500 1 1 -1
1187 8 4 0.000000 33.034500 8.574500 11.895500 1 1 -1
1188 8 4 0.000000 33.334500 10.054500 11.675500 1 1 -1
1189 8 4 0.000000 31.714500 11.554500 9.795500 1 1 -1
1190 8 4 0.000000 31.834500 13.024500 9.435500 1 1 -1
1191 8 4 0.000000 32.934500 16.254500 7.575500 1 1 -1
1192 8 4 0.000000 33.624500 17.354500 6.785500 1 1 -1
1193 8 4 0.000000 34.364500 20.514500 5.805500 1 1 -1
1194 8 4 0.000000 35.634500 20.694500 4.985500 1 1 -1
1195 8 4 0.000000 36.714500 22.784500 4.905500 1 1 -1
1196 8 4 0.000000 38.054500 22.374500 4.315500 1 1 -1
1197 8 4 0.000000 37.879000 23.484500 4.545500 1 1 -1
1198 8 4 0.000000 39.169000 23.094500 3.835500 1 1 -1
1199 8 4 0.000000 38.299000 23.814500 2.235500 1 1 -1
1200 8 3 0.000000 39.359000 23.824500 1.145500 1 1 -1
1201 9 1 0.000000 44.190000 9.270000 6.540000 0 0 0
1202 9 2 0.000000 43.670000 9.740000 8.860000 0 0 0
1203 9 2 0.000000 44.780000 9.970000 10.930000 0 0 0
1204 9 2 0.000000 44.440000 11.790000 12.360000 0 0 0
1205 9 2 0.000000 46.760000 12.080000 12.970000 0 0 0
1206 9 2 0.000000 48.500000 13.280000 11.470000 0 0 0
1207 9 2 0.000000 49.860000 14.990000 10.580000 0 0 0
1208 9 2 0.000000 51.270000 16.790000 10.710000 0 0 0
1209 9 2 0.000000 53.040000 16.730000 12.400000 0 0 0
1210 9 2 0.000000 53.370000 17.960000 14.520000 0 0 0
1211 9 2 0.000000 55.720000 18.800000 13.850000 0 0 0
1212 9 2 0.000000 57.450000 19.180000 12.170000 0 0 0
1213 9 2 0.000000 59.570000 18.700000 11.320000 0 0 0
1214 9 2 0.000000 1.580000 18.100000 11.510000 1 0 0
1215 9 2 0.000000 3.690000 18.600000 11.190000 1 0 0
1216 9 2 0.000000 4.410000 20.670000 12.490000 1 0 0
1217 9 2 0.000000 2.940000 21.860000 14.050000 1 0 0
1218 9 2 0.000000 3.930000 22.440000 16.400000 1 0 0
1219 9 2 0.000000 2.700000 23.700000 18.000000 1 0 0
1220 9 2 0.000000 0.970000 25.140000 17.160000 1 0 0
1221 9 2 0.000000 58.670000 24.720000 16.680000 0 0 0
1222 9 2 0.000000 57.130000 23.700000 18.060000 0 0 0
1223 9 2 0.000000 54.710000 23.830000 17.930000 0 0 0
1224 9 2 0.000000 52.620000 23.980000 18.850000 0 0 0
1225 9 2 0.000000 50.290000 24.090000 18.920000 0 0 0
1226 9 2 0.000000 48.370000 24.970000 18.000000 0 0 0
1227 9 2 0.000000 46.360000 25.090000 16.690000 0 0 0
1228 9 2 0.000000 45.100000 24.090000 14.880000 0 0 0
1229 9 2 0.000000 42.750000 25.040000 14.490000 0 0 0
1230 9 2 0.000000 42.480000 26.670000 16.200000 0 0 0
1231 9 2 0.000000 42.890000 28.430000 18.130000 0 0 0
1232 9 2 0.000000 43.640000 30.590000 17.300000 0 0 0
1233 9 2 0.000000 45.930000 31.540000 16.570000 0 0 0
1234 9 2 0.000000 47.020000 29.660000 15.490000 0 0 0
1235 9 2 0.000000 47.470000 29.610000 12.920000 0 0 0
1236 9 2 0.000000 46.310000 31.280000 11.810000 0 0 0
1237 9 2 0.000000 45.430000 33.040000 10.520000 0 0 0
1238 9 2 0.000000 45.110000 34.000000 8.310000 0 0 0
1239 9 2 0.000000 44.630000 35.840000 6.760000 0 0 0
1240 9 2 0.000000 45.360000 37.980000 7.010000 0 0 0
1241 9 2 0.000000 44.900000 39.850000 8.540000 0 0 0
1242 9 2 0.000000 42.840000 39.890000 9.740000 0 0 0
1243 9 2 0.000000 40.440000 39.640000 9.580000 0 0 0
1244 9 2 0.000000 39.500000 41.880000 10.110000 0 0 0
1245 9 2 0.000000 38.600000 42.500000 7.820000 0 0 0
1246 9 2 0.000000 36.510000 41.300000 7.500000 0 0 0
1247 9 2 0.000000 36.170000 39.760000 9.350000 0 0 0
1248 9 2 0.000000 35.780000 38.010000 10.980000 0 0 0
1249 9 2 0.000000 36.720000 36.000000 12.100000 0 0 0
1250 9 1 0.000000 39.130000 35.870000 11.620000 0 0 0
1251 9 3 0.000000 44.190000 9.270000 6.540000 0 0 0
1252 9 4 0.000000 45.480000 9.730000 5.850000 0 0 0
1253 9 4 0.000000 46.250000 10.660000 7.480000 0 0 0
1254 9 4 0.000000 47.520000 11.120000 6.780000 0 0 0
1255 9 4 0.000000 49.900000 11.830000 8.130000 0 0 0
1256 9 4 0.000000 51.140000 12.330000 7.390000 0 0 0
1257 9 4 0.000000 52.010000 14.680000 8.050000 0 0 0
1258 9 4 0.000000 53.190000 15.240000 7.260000 0 0 0
1259 9 4 0.000000 56.660000 16.130000 7.060000 0 0 0
1260 9 4 0.000000 57.790000 16.770000 6.260000 0 0 0
1261 9 4 0.000000 0.474500 18.640000 3.970000 1 0 0
1262 9 4 0.000000 1.624500 19.310000 3.220000 1 0 0
1263 9 4 0.000000 4.174500 21.680000 1.640000 1 0 0
1264 9 4 0.000000 5.424500 22.280000 1.010000 1 0 0
1265 9 4 0.000000 8.154500 24.610000 0.580000 1 0 0
1266 9 4 0.000000 9.534500 25.010000 0.080000 1 0 0
1267 9 4 0.000000 12.724500 25.220000 1.290000 1 0 0
1268 9 4 0.000000 14.164500 25.350000 0.800000 1 0 0
1269 9 4 0.000000 15.914500 26.590000 2.360000 1 0 0
1270 9 4 0.000000 17.274500 26.550000 1.670000 1 0 0
1271 9 4 0.000000 20.884500 27.370000 0.140000 1 0 0
1272 9 4 0.000000 22.014500 27.460000 59.305500 1 0 -1
1273 9 4 0.000000 24.694500 28.120000 56.475500 1 0 -1
1274 9 4 0.000000 25.474500 28.670000 55.295500 1 0 -1
1275 9 4 0.000000 28.224500 29.030000 53.335500 1 0 -1
1276 9 4 0.000000 28.784500 30.120000 52.425500 1 0 -1
1277 9 4 0.000000 31.550000 30.780000 51.985500 1 0 -1
1278 9 4 0.000000 32.270000 32.090000 51.685500 1 0 -1
1279 9 4 0.000000 35.320000 33.780000 51.375500 1 0 -1
1280 9 4 0.000000 36.530000 34.680000 51.605500 1 0 -1
1281 9 4 0.000000 38.660000 37.220000 53.205500 1 0 -1
1282 9 4 0.000000 40.170000 37.210000 53.395500 1 0 -1
1283 9 4 0.000000 40.160000 38.000000 54.855500 1 0 -1
1284 9 4 0.000000 41.460000 37.380000 54.355500 1 0 -1
1285 9 4 0.000000 43.520000 37.380000 55.805500 1 0 -1
1286 9 4 0.000000 44.370000 37.040000 54.595500 1 0 -1
1287 9 4 0.000000 43.820000 38.390000 54.835500 1 0 -1
1288 9 4 0.000000 44.440000 38.910000 53.555500 1 0 -1
1289 9 4 0.000000 43.410000 41.200000 51.675500 1 0 -1
1290 9 4 0.000000 44.280000 42.190000 50.935500 1 0 -1
1291 9 4 0.000000 42.894500 42.690000 49.965500 1 0 -1
1292 9 4 0.000000 44.194500 43.380000 49.605500 0 0 -1
1293 9 4 0.000000 44.054500 42.760000 50.575500 0 0 -1
1294 9 4 0.000000 45.444500 42.940000 49.995500 0 0 -1
1295 9 4 0.000000 44.294500 43.180000 49.045500 0 0 -1
1296 9 4 0.000000 45.394500 43.430000 48.025500 0 0 -1
1297 9 4 0.000000 44.224500 44.110000 47.875500 0 0 -1
1298 9 4 0.000000 45.044500 44.980000 46.935500 0 0 -1
1299 9 4 0.000000 43.504500 46.210000 46.375500 0 0 -1
1300 9 4 0.000000 44.394500 47.420000 46.135500 0 0 -1
1301 9 4 0.000000 43.554500 49.360000 45.335500 0 0 -1
1302 9 4 0.000000 44.844500 50.080000 45.665500 0 0 -1
1303 9 4 0.000000 44.304500 50.440000 44.695500 0 0 -1
1304 9 4 0.000000 45.794500 50.190000 44.795500 0 0 -1
1305 9 4 0.000000 45.894500 48.570000 42.675500 0 0 -1
1306 9 4 0.000000 46.944500 47.810000 41.885500 1 0 -1
1307 9 4 0.000000 45.294500 48.130000 40.305500 1 0 -1
1308 9 4 0.000000 45.664500 47.840000 38.855500 1 0 -1
1309 9 4 0.000000 45.554500 49.670000 39.055500 1 0 -1
1310 9 4 0.000000 45.674500 50.370000 37.715500 1 0 -1
1311 9 4 0.000000 46.334500 53.230000 38.625500 1 0 -1
1312 9 4 0.000000 46.874500 54.540000 38.055500 1 0 -1
1313 9 4 0.000000 48.494500 57.940000 37.105500 1 0 -1
1314 9 4 0.000000 49.684500 58.870000 37.315500 1 0 -1
1315 9 4 0.000000 53.374500 0.114500 36.935500 1 1 -1
1316 9 4 0.000000 54.874500 0.164500 37.185500 1 1 -1
1317 9 4 0.000000 57.464500 58.220000 36.085500 1 0 -1
1318 9 4 0.000000 58.884500 57.870000 35.665500 1 0 -1
1319 9 4 0.000000 0.389000 57.590000 32.245500 2 0 -1
1320 9 4 0.000000 1.359000 57.680000 31.085500 2 0 -1
1321 9 4 0.000000 0.839000 59.890000 28.705500 2 0 -1
1322 9 4 0.000000 1.229000 0.624500 27.555500 2 1 -1
1323 9 4 0.000000 0.629000 3.584500 25.375500 2 1 -1
1324 9 4 0.000000 0.979000 4.914500 24.735500 2 1 -1
1325 9 4 0.000000 1.279000 7.194500 22.075500 2 1 -1
1326 9 4 0.000000 2.279000 8.304500 21.755500 2 1 -1
1327 9 4 0.000000 3.139000 10.804500 19.935500 2 1 -1
1328 9 4 0.000000 4.629000 10.864500 19.665500 2 1 -1
1329 9 4 0.000000 6.769000 12.524500 19.625500 2 1 -1
1330 9 4 0.000000 7.999000 11.684500 19.275500 2 1 -1
1331 9 4 0.000000 8.629000 12.574500 20.395500 2 1 -1
1332 9 4 0.000000 9.719000 11.634500 19.885500 2 1 -1
1333 9 4 0.000000 8.869000 10.974500 20.475500 2 1 -1
1334 9 4 0.000000 10.209000 10.744500 19.805500 2 1 -1
1335 9 4 0.000000 9.139000 10.874500 19.005500 2 1 -1
1336 9 4 0.000000 10.189000 11.854500 18.515500 2 1 -1
1337 9 4 0.000000 9.899000 15.434500 18.725500 2 1 -1
1338 9 4 0.000000 10.199000 16.914500 18.505500 2 1 -1
1339 9 4 0.000000 9.419000 19.034500 15.985500 2 1 -1
1340 9 4 0.000000 9.539000 20.504500 15.625500 2 1 -1
1341 9 4 0.000000 7.799000 20.674500 14.735500 2 1 -1
1342 9 4 0.000000 8.489000 21.774500 13.945500 2 1 -1
1343 9 4 0.000000 9.189000 20.904500 14.915500 2 1 -1
1344 9 4 0.000000 10.459000 21.084500 14.095500 2 1 -1
1345 9 4 0.000000 11.409000 19.124500 15.045500 2 1 -1
1346 9 4 0.000000 12.749000 18.714500 14.455500 2 1 -1
1347 9 4 0.000000 15.019000 16.244500 14.995500 2 1 -1
1348 9 4 0.000000 16.309000 15.854500 14.285500 2 1 -1
1349 9 4 0.000000 19.939000 15.514500 12.915500 2 1 -1
1350 9 3 0.000000 20.999000 15.524500 11.825500 2 1 -1
1351 10 1 0.000000 36.030000 9.630000 55.580000 0 0 0
1352 10 2 0.000000 36.570000 12.070000 55.640000 0 0 0
1353 10 2 0.000000 36.170000 14.290000 55.220000 0 0 0
1354 10 2 0.000000 33.700000 14.600000 55.240000 0 0 0
1355 10 2 0.000000 31.650000 15.770000 54.960000 0 0 0
1356 10 2 0.000000 30.050000 15.700000 56.900000 0 0 0
1357 10 2 0.000000 28.680000 17.590000 57.860000 0 0 0
1358 10 2 0.000000 29.540000 19.750000 58.060000 0 0 0
1359 10 2 0.000000 30.530000 21.760000 58.420000 0 0 0
1360 10 2 0.000000 30.550000 24.070000 59.130000 0 0 0
1361 10 2 0.000000 28.640000 25.420000 59.980000 0 0 0
1362 10 2 0.000000 27.010000 26.690000 58.310000 0 0 0
1363 10 2 0.000000 26.180000 28.670000 59.090000 0 0 0
1364 10 2 0.000000 24.420000 30.160000 59.060000 0 0 0
1365 10 2 0.000000 22.150000 29.640000 58.220000 0 0 0
1366 10 2 0.000000 21.750000 29.170000 55.620000 0 0 0
1367 10 2 0.000000 23.620000 27.940000 54.230000 0 0 0
1368 10 2 0.000000 24.820000 29.420000 52.780000 0 0 0
1369 10 2 0.000000 25.200000 31.460000 54.250000 0 0 0
1370 10 2 0.000000 26.520000 33.140000 55.370000 0 0 0
1371 10 2 0.000000 27.800000 34.860000 56.640000 0 0 0
1372 10 2 0.000000 29.760000 35.740000 56.100000 0 0 0
1373 10 2 0.000000 31.890000 34.910000 55.240000 0 0 0
1374 10 2 0.000000 32.930000 34.450000 53.020000 0 0 0
1375 10 2 0.000000 34.700000 32.820000 53.520000 0 0 0
1376 10 2 0.000000 35.620000 33.270000 55.790000 0 0 0
1377 10 2 0.000000 37.480000 33.690000 57.150000 0 0 0
1378 10 2 0.000000 37.930000 34.280000 59.450000 0 0 0
1379 10 2 0.000000 37.960000 33.760000 1.520000 0 0 1
1380 10 2 0.000000 40.240000 32.820000 2.000000 0 0 1
1381 10 2 0.000000 41.890000 34.460000 1.610000 0 0 1
1382 10 2 0.000000 42.710000 34.350000 59.600000 0 0 0
1383 10 2 0.000000 42.130000 34.890000 57.160000 0 0 0
1384 10 2 0.000000 41.410000 35.290000 54.930000 0 0 0
1385 10 2 0.000000 39.290000 35.240000 53.760000 0 0 0
1386 10 2 0.000000 37.430000 36.940000 53.280000 0 0 0
1387 10 2 0.000000 38.040000 39.330000 53.430000 0 0 0
1388 10 2 0.000000 37.980000 41.460000 52.340000 0 0 0
1389 10 2 0.000000 36.700000 43.110000 53.670000 0 0 0
1390 10 2 0.000000 34.830000 42.220000 54.760000 0 0 0
1391 10 2 0.000000 34.900000 41.180000 56.940000 0 0 0
1392 10 2 0.000000 35.060000 42.720000 58.890000 0 0 0
1393 10 2 0.000000 36.190000 42.210000 0.870000 0 0 1
1394 10 2 0.000000 35.930000 42.540000 3.280000 0 0 1
1395 10 2 0.000000 34.210000 41.170000 4.260000 0 0 1
1396 10 2 0.000000 32.810000 39.620000 5.670000 0 0 1
1397 10 2 0.000000 31.610000 37.690000 5.200000 0 0 1
1398 10 2 0.000000 30.420000 37.260000 3.170000 0 0 1
1399 10 2 0.000000 28.390000 37.880000 2.230000 0 0 1
1400 10 1 0.000000 27.170000 37.860000 0.310000 0 0 1
1401 10 3 0.000000 36.030000 9.630000 55.580000 0 0 0
1402 10 4 0.000000 37.320000 10.090000 54.890000 0 0 0
1403 10 4 0.000000 39.150000 12.990000 54.260000 0 0 0
1404 10 4 0.000000 40.420000 13.450000 53.560000 0 0 0
1405 10 4 0.000000 41.290000 16.150000 52.420000 0 0 0
1406 10 4 0.000000 42.530000 16.650000 51.680000 0 0 0
1407 10 4 0.000000 41.270000 17.490000 50.930000 0 0 0
1408 10 4 0.000000 42.450000 18.050000 50.140000 0 0 0
1409 10 4 0.000000 41.550000 19.820000 49.050000 0 0 0
1410 10 4 0.000000 42.680000 20.460000 48.250000 0 0 0
1411 10 4 0.000000 42.210000 21.060000 49.400000 0 0 0
1412 10 4 0.000000 43.360000 21.730000 48.650000 0 0 0
1413 10 4 0.000000 43.180000 24.280000 48.920000 0 0 0
1414 10 4 0.000000 44.430000 24.880000 48.290000 0 0 0
1415 10 4 0.000000 46.610000 27.570000 47.930000 0 0 0
1416 10 4 0.000000 47.990000 27.970000 47.430000 0 0 0
1417 10 4 0.000000 50.400000 30.250000 47.310000 0 0 0
1418 10 4 0.000000 51.840000 30.380000 46.820000 0 0 0
1419 10 4 0.000000 53.280000 32.700000 46.970000 0 0 0
1420 10 4 0.000000 54.640000 32.660000 46.280000 0 0 0
1421 10 4 0.000000 53.990000 33.990000 46.270000 0 0 0
1422 10 4 0.000000 55.120000 34.080000 45.250000 0 0 0
1423 10 4 0.000000 54.440000 35.630000 42.430000 0 0 0
1424 10 4 0.000000 55.220000 36.180000 41.250000 0 0 0
1425 10 4 0.000000 55.020000 39.000000 40.920000 0 0 0
1426 10 4 0.000000 55.580000 40.090000 40.010000 0 0 0
1427 10 4 0.000000 54.390000 42.840000 39.350000 0 0 0
1428 10 4 0.000000 55.110000 44.150000 39.050000 0 0 0
1429 10 4 0.000000 53.780000 44.820000 38.220000 0 0 0
1430 10 4 0.000000 54.990000 45.720000 38.450000 0 0 0
1431 10 4 0.000000 56.000000 45.720000 36.150000 0 0 0
1432 10 4 0.000000 57.510000 45.710000 36.340000 0 0 0
1433 10 4 0.000000 0.654500 44.080000 34.850000 1 0 0
1434 10 4 0.000000 1.954500 43.460000 34.350000 1 0 0
1435 10 4 0.000000 4.224500 44.360000 32.000000 1 0 0
1436 10 4 0.000000 5.074500 44.020000 30.790000 1 0 0
1437 10 4 0.000000 6.134500 46.150000 30.900000 1 0 0
1438 10 4 0.000000 6.754500 46.670000 29.620000 1 0 0
1439 10 4 0.000000 8.774500 49.200000 29.700000 1 0 0
1440 10 4 0.000000 9.644500 50.190000 28.960000 1 0 0
1441 10 4 0.000000 12.024500 52.830000 29.740000 1 0 0
1442 10 4 0.000000 13.324500 53.520000 29.380000 1 0 0
1443 10 4 0.000000 16.684500 54.800000 28.430000 1 0 0
1444 10 4 0.000000 18.074500 54.980000 27.850000 1 0 0
1445 10 4 0.000000 21.474500 54.260000 26.170000 1 0 0
1446 10 4 0.000000 22.574500 54.510000 25.150000 1 0 0
1447 10 4 0.000000 24.534500 54.580000 21.860000 1 0 0
1448 10 4 0.000000 25.354500 55.450000 20.920000 1 0 0
1449 10 4 0.000000 27.914500 54.940000 20.790000 1 0 0
1450 10 4 0.000000 28.804500 56.150000 20.550000 1 0 0
1451 10 4 0.000000 30.804500 57.660000 22.940000 1 0 0
1452 10 4 0.000000 32.094500 58.380000 23.270000 1 0 0
1453 10 4 0.000000 35.424500 59.040000 24.970000 1 0 0
1454 10 4 0.000000 36.914500 58.790000 25.070000 1 0 0
1455 10 4 0.000000 38.724500 58.760000 27.060000 1 0 0
1456 10 4 0.000000 39.774500 58.000000 26.270000 1 0 0
1457 10 4 0.000000 40.504500 56.850000 27.335500 1 0 0
1458 10 4 0.000000 40.874500 56.560000 25.885500 1 0 0
1459 10 4 0.000000 43.314500 55.820000 24.855500 1 0 0
1460 10 4 0.000000 43.434500 56.520000 23.515500 1 0 0
1461 10 4 0.000000 45.334500 59.260000 22.105500 1 0 0
1462 10 4 0.000000 45.874500 0.384500 21.535500 1 1 0
1463 10 4 0.000000 47.564500 1.514500 19.220000 1 1 0
1464 10 4 0.000000 48.754500 2.444500 19.430000 1 1 0
1465 10 4 0.000000 49.574500 3.464500 17.340000 1 1 0
1466 10 4 0.000000 51.074500 3.514500 17.590000 1 1 0
1467 10 4 0.000000 51.854500 3.664500 15.340000 1 1 0
1468 10 4 0.000000 53.274500 3.314500 14.920000 1 1 0
1469 10 4 0.000000 52.394500 3.034500 12.900000 1 1 0
1470 10 4 0.000000 53.364500 3.124500 11.740000 1 1 0
1471 10 4 0.000000 52.144500 5.364500 9.990000 1 1 0
1472 10 4 0.000000 52.534500 6.284500 8.840000 1 1 -1
1473 10 4 0.000000 53.424500 9.874500 8.100000 1 1 -1
1474 10 4 0.000000 53.774500 11.204500 7.460000 1 1 -1
1475 10 4 0.000000 54.334500 14.654500 5.920000 1 1 -1
1476 10 4 0.000000 55.334500 15.764500 5.600000 1 1 -1
1477 10 4 0.000000 55.394500 18.074500 6.660000 1 1 -1
1478 10 4 0.000000 56.884500 18.134500 6.390000 1 1 0
1479 10 4 0.000000 56.424500 16.764500 7.190000 1 1 0
1480 10 4 0.000000 57.654500 15.924500 6.840000 1 1 0
1481 10 4 0.000000 58.814500 13.904500 8.610000 1 1 0
1482 10 4 0.000000 59.904500 12.964500 8.100000 1 1 0
1483 10 4 0.000000 1.089000 13.804500 9.440000 2 1 0
1484 10 4 0.000000 2.429000 13.574500 8.770000 2 1 0
1485 10 4 0.000000 4.889000 13.444500 10.295500 2 1 0
1486 10 4 0.000000 5.939000 14.424500 9.805500 2 1 0
1487 10 4 0.000000 6.329000 16.094500 11.895500 2 1 0
1488 10 4 0.000000 6.629000 17.574500 11.675500 2 1 0
1489 10 4 0.000000 5.029000 17.704500 12.425500 2 1 0
1490 10 4 0.000000 5.149000 19.174500 12.065500 2 1 0
1491 10 4 0.000000 4.099000 18.994500 12.905500 2 1 0
1492 10 4 0.000000 4.789000 20.094500 12.115500 2 1 0
1493 10 4 0.000000 4.629000 18.834500 10.765500 2 1 0
1494 10 4 0.000000 5.899000 19.014500 9.945500 2 1 0
1495 10 4 0.000000 6.049000 18.374500 7.235500 2 1 0
1496 10 4 0.000000 7.389000 17.964500 6.645500 2 1 0
1497 10 4 0.000000 6.689000 18.124500 5.125500 2 1 0
1498 10 4 0.000000 7.979000 17.734500 4.415500 2 1 0
1499 10 4 0.000000 7.979000 17.504500 1.605500 2 1 0
1500 10 3 0.000000 9.039000 17.514500 0.515500 2 1 -1

Bonds

1 1 51 52
2 1 53 54
3 1 55 56
4 1 57 58
5 1 59 60
6 1 61 62
7 1 63 64
8 1 65 66
9 1 67 68
10 1 69 70
11 1 71 72
12 1 73 74
13 1 75 76
14 1 77 78
15 1 79 80
16 1 81 82
17 1 83 84
18 1 85 86
19 1 87 88
20 1 89 90
21 1 91 92
22 1 93 94
23 1 95 96
24 1 97 98
25 1 99 100
26 1 101 102
27 1 103 104
28 1 105 106
29 1 107 108
30 1 109 110
31 1 111 112
32 1 113 114
33 1 115 116
34 1 117 118
35 1 119 120
36 1 121 122
37 1 123 124
38 1 125 126
39 1 127 128
40 1 129 130
41 1 131 132
42 1 133 134
43 1 135 136
44 1 137 138
45 1 139 140
46 1 141 142
47 1 143 144
48 1 145 146
49 1 147 148
50 1 149 150
51 2 1 2
52 2 49 50
53 3 2 3
54 3 3 4
55 3 4 5
56 3 5 6
57 3 6 7
58 3 7 8
59 3 8 9
60 3 9 10
61 3 10 11
62 3 11 12
63 3 12 13
64 3 13 14
65 3 14 15
66 3 15 16
67 3 16 17
68 3 17 18
69 3 18 19
70 3 19 20
71 3 20 21
72 3 21 22
73 3 22 23
74 3 23 24
75 3 24 25
76 3 25 26
77 3 26 27
78 3 27 28
79 3 28 29
80 3 29 30
81 3 30 31
82 3 31 32
83 3 32 33
84 3 33 34
85 3 34 35
86 3 35 36
87 3 36 37
88 3 37 38
89 3 38 39
90 3 39 40
91 3 40 41
92 3 41 42
93 3 42 43
94 3 43 44
95 3 44 45
96 3 45 46
97 3 46 47
98 3 47 48
99 3 48 49
100 4 52 53
101 4 54 55
102 4 56 57
103 4 58 59
104 4 60 61
105 4 62 63
106 4 64 65
107 4 66 67
108 4 68 69
109 4 70 71
110 4 72 73
111 4 74 75
112 4 76 77
113 4 78 79
114 4 80 81
115 4 82 83
116 4 84 85
117 4 86 87
118 4 88 89
119 4 90 91
120 4 92 93
121 4 94 95
122 4 96 97
123 4 98 99
124 4 100 101
125 4 102 103
126 4 104 105
127 4 106 107
128 4 108 109
129 4 110 111
130 4 112 113
131 4 114 115
132 4 116 117
133 4 118 119
134 4 120 121
135 4 122 123
136 4 124 125
137 4 126 127
138 4 128 129
139 4 130 131
140 4 132 133
141 4 134 135
142 4 136 137
143 4 138 139
144 4 140 141
145 4 142 143
146 4 144 145
147 4 146 147
148 4 148 149
149 1 201 202
150 1 203 204
151 1 205 206
152 1 207 208
153 1 209 210
154 1 211 212
155 1 213 214
156 1 215 216
157 1 217 218
158 1 219 220
159 1 221 222
160 1 223 224
161 1 225 226
162 1 227 228
163 1 229 230
164 1 231 232
165 1 233 234
166 1 235 236
167 1 237 238
168 1 239 240
169 1 241 242
170 1 243 244
171 1 245 246
172 1 247 248
173 1 249 250
174 1 251 252
175 1 253 254
176 1 255 256
177 1 257 258
178 1 259 260
179 1 261 262
180 1 263 264
181 1 265 266
182 1 267 268
183 1 269 270
184 1 271 272
185 1 273 274
186 1 275 276
187 1 277 278
188 1 279 280
189 1 281 282
190 1 283 284
191 1 285 286
192 1 287 288
193 1 289 290
194 1 291 292
195 1 293 294
196 1 295 296
197 1 297 298
198 1 299 300
199 2 151 152
200 2 199 200
201 3 152 153
202 3 153 154
203 3 154 155
204 3 155 156
205 3 156 157
206 3 157 158
207 3 158 159
208 3 159 160
209 3 160 161
210 3 161 162
211 3 162 163
212 3 163 164
213 3 164 165
214 3 165 166
215 3 166 167
216 3 167 168
217 3 168 169
218 3 169 170
219 3 170 171
220 3 171 172
221 3 172 173
222 3 173 174
223 3 174 175
224 3 175 176
225 3 176 177
226 3 177 178
227 3 178 179
228 3 179 180
229 3 180 181
230 3 181 182
231 3 182 183
232 3 183 184
233 3 184 185
234 3 185 186
235 3 186 187
236 3 187 188
237 3 188 189
238 3 189 190
239 3 190 191
240 3 191 192
241 3 192 193
242 3 193 194
243 3 194 195
244 3 195 196
245 3 196 197
246 3 197 198
247 3 198 199
248 4 202 203
249 4 204 205
250 4 206 207
251 4 208 209
252 4 210 211
253 4 212 213
254 4 214 215
255 4 216 217
256 4 218 219
257 4 220 221
258 4 222 223
259 4 224 225
260 4 226 227
261 4 228 229
262 4 230 231
263 4 232 233
264 4 234 235
265 4 236 237
266 4 238 239
267 4 240 241
268 4 242 243
269 4 244 245
270 4 246 247
271 4 248 249
272 4 250 251
273 4 252 253
274 4 254 255
275 4 256 257
276 4 258 259
277 4 260 261
278 4 262 263
279 4 264 265
280 4 266 267
281 4 268 269
282 4 270 271
283 4 272 273
284 4 274 275
285 4 276 277
286 4 278 279
287 4 280 281
288 4 282 283
289 4 284 285
290 4 286 287
291 4 288 289
292 4 290 291
293 4 292 293
294 4 294 295
295 4 296 297
296 4 298 299
297 1 351 352
298 1 353 354
299 1 355 356
300 1 357 358
301 1 359 360
302 1 361 362
303 1 363 364
304 1 365 366
305 1 367 368
306 1 369 370
307 1 371 372
308 1 373 374
309 1 375 376
310 1 377 378
311 1 379 380
312 1 381 382
313 1 383 384
314 1 385 386
315 1 387 388
316 1 389 390
317 1 391 392
318 1 393 394
319 1 395 396
320 1 397 398
321 1 399 400
322 1 401 402
323 1 403 404
324 1 405 406
325 1 407 408
326 1 409 410
327 1 411 412
328 1 413 414
329 1 415 416
330 1 417 418
331 1 419 420
332 1 421 422
333 1 423 424
334 1 425 426
335 1 427 428
336 1 429 430
337 1 431 432
338 1 433 434
339 1 435 436
340 1 437 438
341 1 439 440
342 1 441 442
343 1 443 444
344 1 445 446
345 1 447 448
346 1 449 450
347 2 301 302
348 2 349 350
349 3 302 303
350 3 303 304
351 3 304 305
352 3 305 306
353 3 306 307
354 3 307 308
355 3 308 309
356 3 309 310
357 3 310 311
358 3 311 312
359 3 312 313
360 3 313 314
361 3 314 315
362 3 315 316
363 3 316 317
364 3 317 318
365 3 318 319
366 3 319 320
367 3 320 321
368 3 321 322
369 3 322 323
370 3 323 324
371 3 324 325
372 3 325 326
373 3 326 327
374 3 327 328
375 3 328 329
376 3 329 330
377 3 330 331
378 3 331 332
379 3 332 333
380 3 333 334
381 3 334 335
382 3 335 336
383 3 336 337
384 3 337 338
385 3 338 339
386 3 339 340
387 3 340 341
388 3 341 342
389 3 342 343
390 3 343 344
391 3 344 345
392 3 345 346
393 3 346 347
394 3 347 348
395 3 348 349
396 4 352 353
397 4 354 355
398 4 356 357
399 4 358 359
400 4 360 361
401 4 362 363
402 4 364 365
403 4 366 367
404 4 368 369
405 4 370 371
406 4 372 373
407 4 374 375
408 4 376 377
409 4 378 379
410 4 380 381
411 4 382 383
412 4 384 385
413 4 386 387
414 4 388 389
415 4 390 391
416 4 392 393
417 4 394 395
418 4 396 397
419 4 398 399
420 4 400 401
421 4 402 403
422 4 404 405
423 4 406 407
424 4 408 409
425 4 410 411
426 4 412 413
427 4 414 415
428 4 416 417
429 4 418 419
430 4 420 421
431 4 422 423
432 4 424 425
433 4 426 427
434 4 428 429
435 4 430 431
436 4 432 433
437 4 434 435
438 4 436 437
439 4 438 439
440 4 440 441
441 4 442 443
442 4 444 445
443 4 446 447
444 4 448 449
445 1 501 502
446 1 503 504
447 1 505 506
448 1 507 508
449 1 509 510
450 1 511 512
451 1 513 514
452 1 515 516
453 1 517 518
454 1 519 520
455 1 521 522
456 1 523 524
457 1 525 526
458 1 527 528
459 1 529 530
460 1 531 532
461 1 533 534
462 1 535 536
463 1 537 538
464 1 539 540
465 1 541 542
466 1 543 544
467 1 545 546
468 1 547 548
469 1 549 550
470 1 551 552
471 1 553 554
472 1 555 556
473 1 557 558
474 1 559 560
475 1 561 562
476 1 563 564
477 1 565 566
478 1 567 568
479 1 569 570
480 1 571 572
481 1 573 574
482 1 575 576
483 1 577 578
484 1 579 580
485 1 581 582
486 1 583 584
487 1 585 586
488 1 587 588
489 1 589 590
490 1 591 592
491 1 593 594
492 1 595 596
493 1 597 598
494 1 599 600
495 2 451 452
496 2 499 500
497 3 452 453
498 3 453 454
499 3 454 455
500 3 455 456
501 3 456 457
502 3 457 458
503 3 458 459
504 3 459 460
505 3 460 461
506 3 461 462
507 3 462 463
508 3 463 464
509 3 464 465
510 3 465 466
511 3 466 467
512 3 467 468
513 3 468 469
514 3 469 470
515 3 470 471
516 3 471 472
517 3 472 473
518 3 473 474
519 3 474 475
520 3 475 476
521 3 476 477
522 3 477 478
523 3 478 479
524 3 479 480
525 3 480 481
526 3 481 482
527 3 482 483
528 3 483 484
529 3 484 485
530 3 485 486
531 3 486 487
532 3 487 488
533 3 488 489
534 3 489 490
535 3 490 491
536 3 491 492
537 3 492 493
538 3 493 494
539 3 494 495
540 3 495 496
541 3 496 497
542 3 497 498
543 3 498 499
544 4 502 503
545 4 504 505
546 4 506 507
547 4 508 509
548 4 510 511
549 4 512 513
550 4 514 515
551 4 516 517
552 4 518 519
553 4 520 521
554 4 522 523
555 4 524 525
556 4 526 527
557 4 528 529
558 4 530 531
559 4 532 533
560 4 534 535
561 4 536 537
562 4 538 539
563 4 540 541
564 4 542 543
565 4 544 545
566 4 546 547
567 4 548 549
568 4 550 551
569 4 552 553
570 4 554 555
571 4 556 557
572 4 558 559
573 4 560 561
574 4 562 563
575 4 564 565
576 4 566 567
577 4 568 569
578 4 570 571
579 4 572 573
580 4 574 575
581 4 576 577
582 4 578 579
583 4 580 581
584 4 582 583
585 4 584 585
586 4 586 587
587 4 588 589
588 4 590 591
589 4 592 593
590 4 594 595
591 4 596 597
592 4 598 599
593 1 651 652
594 1 653 654
595 1 655 656
596 1 657 658
597 1 659 660
598 1 661 662
599 1 663 664
600 1 665 666
601 1 667 668
602 1 669 670
603 1 671 672
604 1 673 674
605 1 675 676
606 1 677 678
607 1 679 680
608 1 681 682
609 1 683 684
610 1 685 686
611 1 687 688
612 1 689 690
613 1 691 692
614 1 693 694
615 1 695 696
616 1 697 698
617 1 699 700
618 1 701 702
619 1 703 704
620 1 705 706
621 1 707 708
622 1 709 710
623 1 711 712
624 1 713 714
625 1 715 716
626 1 717 718
627 1 719 720
628 1 721 722
629 1 723 724
630 1 725 726
631 1 727 728
632 1 729 730
633 1 731 732
634 1 733 734
635 1 735 736
636 1 737 738
637 1 739 740
638 1 741 742
639 1 743 744
640 1 745 746
641 1 747 748
642 1 749 750
643 2 601 602
644 2 649 650
645 3 602 603
646 3 603 604
647 3 604 605
648 3 605 606
649 3 606 607
650 3 607 608
651 3 608 609
652 3 609 610
653 3 610 611
654 3 611 612
655 3 612 613
656 3 613 614
657 3 614 615
658 3 615 616
659 3 616 617
660 3 617 618
661 3 618 619
662 3 619 620
663 3 620 621
664 3 621 622
665 3 622 623
666 3 623 624
667 3 624 625
668 3 625 626
669 3 626 627
670 3 627 628
671 3 628 629
672 3 629 630
673 3 630 631
674 3 631 632
675 3 632 633
676 3 633 634
677 3 634 635
678 3 635 636
679 3 636 637
680 3 637 638
681 3 638 639
682 3 639 640
683 3 640 641
684 3 641 642
685 3 642 643
686 3 643 644
687 3 644 645
688 3 645 646
689 3 646 647
690 3 647 648
691 3 648 649
692 4 652 653
693 4 654 655
694 4 656 657
695 4 658 659
696 4 660 661
697 4 662 663
698 4 664 665
699 4 666 667
700 4 668 669
701 4 670 671
702 4 672 673
703 4 674 675
704 4 676 677
705 4 678 679
706 4 680 681
707 4 682 683
708 4 684 685
709 4 686 687
710 4 688 689
711 4 690 691
712 4 692 693
713 4 694 695
714 4 696 697
715 4 698 699
716 4 700 701
717 4 702 703
718 4 704 705
719 4 706 707
720 4 708 709
721 4 710 711
722 4 712 713
723 4 714 715
724 4 716 717
725 4 718 719
726 4 720 721
727 4 722 723
728 4 724 725
729 4 726 727
730 4 728 729
731 4 730 731
732 4 732 733
733 4 734 735
734 4 736 737
735 4 738 739
736 4 740 741
737 4 742 743
738 4 744 745
739 4 746 747
740 4 748 749
741 1 801 802
742 1 803 804
743 1 805 806
744 1 807 808
745 1 809 810
746 1 811 812
747 1 813 814
748 1 815 816
749 1 817 818
750 1 819 820
751 1 821 822
752 1 823 824
753 1 825 826
754 1 827 828
755 1 829 830
756 1 831 832
757 1 833 834
758 1 835 836
759 1 837 838
760 1 839 840
761 1 841 842
762 1 843 844
763 1 845 846
764 1 847 848
765 1 849 850
766 1 851 852
767 1 853 854
768 1 855 856
769 1 857 858
770 1 859 860
771 1 861 862
772 1 863 864
773 1 865 866
774 1 867 868
775 1 869 870
776 1 871 872
777 1 873 874
778 1 875 876
779 1 877 878
780 1 879 880
781 1 881 882
782 1 883 884
783 1 885 886
784 1 887 888
785 1 889 890
786 1 891 892
787 1 893 894
788 1 895 896
789 1 897 898
790 1 899 900
791 2 751 752
792 2 799 800
793 3 752 753
794 3 753 754
795 3 754 755
796 3 755 756
797 3 756 757
798 3 757 758
799 3 758 759
800 3 759 760
801 3 760 761
802 3 761 762
803 3 762 763
804 3 763 764
805 3 764 765
806 3 765 766
807 3 766 767
808 3 767 768
809 3 768 769
810 3 769 770
811 3 770 771
812 3 771 772
813 3 772 773
814 3 773 774
815 3 774 775
816 3 775 776
817 3 776 777
818 3 777 778
819 3 778 779
820 3 779 780
821 3 780 781
822 3 781 782
823 3 782 783
824 3 783 784
825 3 784 785
826 3 785 786
827 3 786 787
828 3 787 788
829 3 788 789
830 3 789 790
831 3 790 791
832 3 791 792
833 3 792 793
834 3 793 794
835 3 794 795
836 3 795 796
837 3 796 797
838 3 797 798
839 3 798 799
840 4 802 803
841 4 804 805
842 4 806 807
843 4 808 809
844 4 810 811
845 4 812 813
846 4 814 815
847 4 816 817
848 4 818 819
849 4 820 821
850 4 822 823
851 4 824 825
852 4 826 827
853 4 828 829
854 4 830 831
855 4 832 833
856 4 834 835
857 4 836 837
858 4 838 839
859 4 840 841
860 4 842 843
861 4 844 845
862 4 846 847
863 4 848 849
864 4 850 851
865 4 852 853
866 4 854 855
867 4 856 857
868 4 858 859
869 4 860 861
870 4 862 863
871 4 864 865
872 4 866 867
873 4 868 869
874 4 870 871
875 4 872 873
876 4 874 875
877 4 876 877
878 4 878 879
879 4 880 881
880 4 882 883
881 4 884 885
882 4 886 887
883 4 888 889
884 4 890 891
885 4 892 893
886 4 894 895
887 4 896 897
888 4 898 899
889 1 951 952
890 1 953 954
891 1 955 956
892 1 957 958
893 1 959 960
894 1 961 962
895 1 963 964
896 1 965 966
897 1 967 968
898 1 969 970
899 1 971 972
900 1 973 974
901 1 975 976
902 1 977 978
903 1 979 980
904 1 981 982
905 1 983 984
906 1 985 986
907 1 987 988
908 1 989 990
909 1 991 992
910 1 993 994
911 1 995 996
912 1 997 998
913 1 999 1000
914 1 1001 1002
915 1 1003 1004
916 1 1005 1006
917 1 1007 1008
918 1 1009 1010
919 1 1011 1012
920 1 1013 1014
921 1 1015 1016
922 1 1017 1018
923 1 1019 1020
924 1 1021 1022
925 1 1023 1024
926 1 1025 1026
927 1 1027 1028
928 1 1029 1030
929 1 1031 1032
930 1 1033 1034
931 1 1035 1036
932 1 1037 1038
933 1 1039 1040
934 1 1041 1042
935 1 1043 1044
936 1 1045 1046
937 1 1047 1048
938 1 1049 1050
939 2 901 902
940 2 949 950
941 3 902 903
942 3 903 904
943 3 904 905
944 3 905 906
945 3 906 907
946 3 907 908
947 3 908 909
948 3 909 910
949 3 910 911
950 3 911 912
951 3 912 913
952 3 913 914
953 3 914 915
954 3 915 916
955 3 916 917
956 3 917 918
957 3 918 919
958 3 919 920
959 3 920 921
960 3 921 922
961 3 922 923
962 3 923 924
963 3 924 925
964 3 925 926
965 3 926 927
966 3 927 928
967 3 928 929
968 3 929 930
969 3 930 931
970 3 931 932
971 3 932 933
972 3 933 934
973 3 934 935
974 3 935 936
975 3 936 937
976 3 937 938
977 3 938 939
978 3 939 940
979 3 940 941
980 3 941 942
981 3 942 943
982 3 943 944
983 3 944 945
984 3 945 946
985 3 946 947
986 3 947 948
987 3 948 949
988 4 952 953
989 4 954 955
990 4 956 957
991 4 958 959
992 4 960 961
993 4 962 963
994 4 964 965
995 4 966 967
996 4 968 969
997 4 970 971
998 4 972 973
999 4 974 975
1000 4 976 977
1001 4 978 979
1002 4 980 981
1003 4 982 983
1004 4 984 985
1005 4 986 987
1006 4 988 989
1007 4 990 991
1008 4 992 993
1009 4 994 995
1010 4 996 997
1011 4 998 999
1012 4 1000 1001
1013 4 1002 1003
1014 4 1004 1005
1015 4 1006 1007
1016 4 1008 1009
1017 4 1010 1011
1018 4 1012 1013
1019 4 1014 1015
1020 4 1016 1017
1021 4 1018 1019
1022 4 1020 1021
1023 4 1022 1023
1024 4 1024 1025
1025 4 1026 1027
1026 4 1028 1029
1027 4 1030 1031
1028 4 1032 1033
1029 4 1034 1035
1030 4 1036 1037
1031 4 1038 1039
1032 4 1040 1041
1033 4 1042 1043
1034 4 1044 1045
1035 4 1046 1047
1036 4 1048 1049
1037 1 1101 1102
1038 1 1103 1104
1039 1 1105 1106
1040 1 1107 1108
1041 1 1109 1110
1042 1 1111 1112
1043 1 1113 1114
1044 1 1115 1116
1045 1 1117 1118
1046 1 1119 1120
1047 1 1121 1122
1048 1 1123 1124
1049 1 1125 1126
1050 1 1127 1128
1051 1 1129 1130
1052 1 1131 1132
1053 1 1133 1134
1054 1 1135 1136
1055 1 1137 1138
1056 1 1139 1140
1057 1 1141 1142
1058 1 1143 1144
1059 1 1145 1146
1060 1 1147 1148
1061 1 1149 1150
1062 1 1151 1152
1063 1 1153 1154
1064 1 1155 1156
1065 1 1157 1158
1066 1 1159 1160
1067 1 1161 1162
1068 1 1163 1164
1069 1 1165 1166
1070 1 1167 1168
1071 1 1169 1170
1072 1 1171 1172
1073 1 1173 1174
1074 1 1175 1176
1075 1 1177 1178
1076 1 1179 1180
1077 1 1181 1182
1078 1 1183 1184
1079 1 1185 1186
1080 1 1187 1188
1081 1 1189 1190
1082 1 1191 1192
1083 1 1193 1194
1084 1 1195 1196
1085 1 1197 1198
1086 1 1199 1200
1087 2 1051 1052
1088 2 1099 1100
1089 3 1052 1053
1090 3 1053 1054
1091 3 1054 1055
1092 3 1055 1056
1093 3 1056 1057
1094 3 1057 1058
1095 3 1058 1059
1096 3 1059 1060
1097 3 1060 1061
1098 3 1061 1062
1099 3 1062 1063
1100 3 1063 1064
1101 3 1064 1065
1102 3 1065 1066
1103 3 1066 1067
1104 3 1067 1068
1105 3 1068 1069
1106 3 1069 1070
1107 3 1070 1071
1108 3 1071 1072
1109 3 1072 1073
1110 3 1073 1074
1111 3 1074 1075
1112 3 1075 1076
1113 3 1076 1077
1114 3 1077 1078
1115 3 1078 1079
1116 3 1079 1080
1117 3 1080 1081
1118 3 1081 1082
1119 3 1082 1083
1120 3 1083 1084
1121 3 1084 1085
1122 3 1085 1086
1123 3 1086 1087
1124 3 1087 1088
1125 3 1088 1089
1126 3 1089 1090
1127 3 1090 1091
1128 3 1091 1092
1129 3 1092 1093
1130 3 1093 1094
1131 3 1094 1095
1132 3 1095 1096
1133 3 1096 1097
1134 3 1097 1098
1135 3 1098 1099
1136 4 1102 1103
1137 4 1104 1105
1138 4 1106 1107
1139 4 1108 1109
1140 4 1110 1111
1141 4 1112 1113
1142 4 1114 1115
1143 4 1116 1117
1144 4 1118 1119
1145 4 1120 1121
1146 4 1122 1123
1147 4 1124 1125
1148 4 1126 1127
1149 4 1128 1129
1150 4 1130 1131
1151 4 1132 1133
1152 4 1134 1135
1153 4 1136 1137
1154 4 1138 1139
1155 4 1140 1141
1156 4 1142 1143
1157 4 1144 1145
1158 4 1146 1147
1159 4 1148 1149
1160 4 1150 1151
1161 4 1152 1153
1162 4 1154 1155
1163 4 1156 1157
1164 4 1158 1159
1165 4 1160 1161
1166 4 1162 1163
1167 4 1164 1165
1168 4 1166 1167
1169 4 1168 1169
1170 4 1170 1171
1171 4 1172 1173
1172 4 1174 1175
1173 4 1176 1177
1174 4 1178 1179
1175 4 1180 1181
1176 4 1182 1183
1177 4 1184 1185
1178 4 1186 1187
1179 4 1188 1189
1180 4 1190 1191
1181 4 1192 1193
1182 4 1194 1195
1183 4 1196 1197
1184 4 1198 1199
1185 1 1251 1252
1186 1 1253 1254
1187 1 1255 1256
1188 1 1257 1258
1189 1 1259 1260
1190 1 1261 1262
1191 1 1263 1264
1192 1 1265 1266
1193 1 1267 1268
1194 1 1269 1270
1195 1 1271 1272
1196 1 1273 1274
1197 1 1275 1276
1198 1 1277 1278
1199 1 1279 1280
1200 1 1281 1282
1201 1 1283 1284
1202 1 1285 1286
1203 1 1287 1288
1204 1 1289 1290
1205 1 1291 1292
1206 1 1293 1294
1207 1 1295 1296
1208 1 1297 1298
1209 1 1299 1300
1210 1 1301 1302
1211 1 1303 1304
1212 1 1305 1306
1213 1 1307 1308
1214 1 1309 1310
1215 1 1311 1312
1216 1 1313 1314
1217 1 1315 1316
1218 1 1317 1318
1219 1 1319 1320
1220 1 1321 1322
1221 1 1323 1324
1222 1 1325 1326
1223 1 1327 1328
1224 1 1329 1330
1225 1 1331 1332
1226 1 1333 1334
1227 1 1335 1336
1228 1 1337 1338
1229 1 1339 1340
1230 1 1341 1342
1231 1 1343 1344
1232 1 1345 1346
1233 1 1347 1348
1234 1 1349 1350
1235 2 1201 1202
1236 2 1249 1250
1237 3 1202 1203
1238 3 1203 1204
1239 3 1204 1205
1240 3 1205 1206
1241 3 1206 1207
1242 3 1207 1208
1243 3 1208 1209
1244 3 1209 1210
1245 3 1210 1211
1246 3 1211 1212
1247 3 1212 1213
1248 3 1213 1214
1249 3 1214 1215
1250 3 1215 1216
1251 3 1216 1217
1252 3 1217 1218
1253 3 1218 1219
1254 3 1219 1220
1255 3 1220 1221
1256 3 1221 1222
1257 3 1222 1223
1258 3 1223 1224
1259 3 1224 1225
1260 3 1225 1226
1261 3 1226 1227
1262 3 1227 1228
1263 3 1228 1229
1264 3 1229 1230
1265 3 1230 1231
1266 3 1231 1232
1267 3 1232 1233
1268 3 1233 1234
1269 3 1234 1235
1270 3 1235 1236
1271 3 1236 1237
1272 3 1237 1238
1273 3 1238 1239
1274 3 1239 1240
1275 3 1240 1241
1276 3 1241 1242
1277 3 1242 1243
1278 3 1243 1244
1279 3 1244 1245
1280 3 1245 1246
1281 3 1246 1247
1282 3 1247 1248
1283 3 1248 1249
1284 4 1252 1253
1285 4 1254 1255
1286 4 1256 1257
1287 4 1258 1259
1288 4 1260 1261
1289 4 1262 1263
1290 4 1264 1265
1291 4 1266 1267
1292 4 1268 1269
1293 4 1270 1271
1294 4 1272 1273
1295 4 1274 1275
1296 4 1276 1277
1297 4 1278 1279
1298 4 1280 1281
1299 4 1282 1283
1300 4 1284 1285
1301 4 1286 1287
1302 4 1288 1289
1303 4 1290 1291
1304 4 1292 1293
1305 4 1294 1295
1306 4 1296 1297
1307 4 1298 1299
1308 4 1300 1301
1309 4 1302 1303
1310 4 1304 1305
1311 4 1306 1307
1312 4 1308 1309
1313 4 1310 1311
1314 4 1312 1313
1315 4 1314 1315
1316 4 1316 1317
1317 4 1318 1319
1318 4 1320 1321
1319 4 1322 1323
1320 4 1324 1325
1321 4 1326 1327
1322 4 1328 1329
1323 4 1330 1331
1324 4 1332 1333
1325 4 1334 1335
1326 4 1336 1337
1327 4 1338 1339
1328 4 1340 1341
1329 4 1342 1343
1330 4 1344 1345
1331 4 1346 1347
1332 4 1348 1349
1333 1 1401 1402
1334 1 1403 1404
1335 1 1405 1406
1336 1 1407 1408
1337 1 1409 1410
1338 1 1411 1412
1339 1 1413 1414
1340 1 1415 1416
1341 1 1417 1418
1342 1 1419 1420
1343 1 1421 1422
1344 1 1423 1424
1345 1 1425 1426
1346 1 1427 1428
1347 1 1429 1430
1348 1 1431 1432
1349 1 1433 1434
1350 1 1435 1436
1351 1 1437 1438
1352 1 1439 1440
1353 1 1441 1442
1354 1 1443 1444
1355 1 1445 1446
1356 1 1447 1448
1357 1 1449 1450
1358 1 1451 1452
1359 1 1453 1454
1360 1 1455 1456
1361 1 1457 1458
1362 1 1459 1460
1363 1 1461 1462
1364 1 1463 1464
1365 1 1465 1466
1366 1 1467 1468
1367 1 1469 1470
1368 1 1471 1472
1369 1 1473 1474
1370 1 1475 1476
1371 1 1477 1478
1372 1 1479 1480
1373 1 1481 1482
1374 1 1483 1484
1375 1 1485 1486
1376 1 1487 1488
1377 1 1489 1490
1378 1 1491 1492
1379 1 1493 1494
1380 1 1495 1496
1381 1 1497 1498
1382 1 1499 1500
1383 2 1351 1352
1384 2 1399 1400
1385 3 1352 1353
1386 3 1353 1354
1387 3 1354 1355
1388 3 1355 1356
1389 3 1356 1357
1390 3 1357 1358
1391 3 1358 1359
1392 3 1359 1360
1393 3 1360 1361
1394 3 1361 1362
1395 3 1362 1363
1396 3 1363 1364
1397 3 1364 1365
1398 3 1365 1366
1399 3 1366 1367
1400 3 1367 1368
1401 3 1368 1369
1402 3 1369 1370
1403 3 1370 1371
1404 3 1371 1372
1405 3 1372 1373
1406 3 1373 1374
1407 3 1374 1375
1408 3 1375 1376
1409 3 1376 1377
1410 3 1377 1378
1411 3 1378 1379
1412 3 1379 1380
1413 3 1380 1381
1414 3 1381 1382
1415 3 1382 1383
1416 3 1383 1384
1417 3 1384 1385
1418 3 1385 1386
1419 3 1386 1387
1420 3 1387 1388
1421 3 1388 1389
1422 3 1389 1390
1423 3 1390 1391
1424 3 1391 1392
1425 3 1392 1393
1426 3 1393 1394
1427 3 1394 1395
1428 3 1395 1396
1429 3 1396 1397
1430 3 1397 1398
1431 3 1398 1399
1432 4 1402 1403
1433 4 1404 1405
1434 4 1406 1407
1435 4 1408 1409
1436 4 1410 1411
1437 4 1412 1413
1438 4 1414 1415
1439 4 1416 1417
1440 4 1418 1419
1441 4 1420 1421
1442 4 1422 1423
1443 4 1424 1425
1444 4 1426 1427
1445 4 1428 1429
1446 4 1430 1431
1447 4 1432 1433
1448 4 1434 1435
1449 4 1436 1437
1450 4 1438 1439
1451 4 1440 1441
1452 4 1442 1443
1453 4 1444 1445
1454 4 1446 1447
1455 4 1448 1449
1456 4 1450 1451
1457 4 1452 1453
1458 4 1454 1455
1459 4 1456 1457
1460 4 1458 1459
1461 4 1460 1461
1462 4 1462 1463
1463 4 1464 1465
1464 4 1466 1467
1465 4 1468 1469
1466 4 1470 1471
1467 4 1472 1473
1468 4 1474 1475
1469 4 1476 1477
1470 4 1478 1479
1471 4 1480 1481
1472 4 1482 1483
1473 4 1484 1485
1474 4 1486 1487
1475 4 1488 1489
1476 4 1490 1491
1477 4 1492 1493
1478 4 1494 1495
1479 4 1496 1497
1480 4 1498 1499

Angles

1 3 51 52 53
2 3 52 53 54
3 3 53 54 55
4 3 54 55 56
5 3 55 56 57
6 3 56 57 58
7 3 57 58 59
8 3 58 59 60
9 3 59 60 61
10 3 60 61 62
11 3 61 62 63
12 3 62 63 64
13 3 63 64 65
14 3 64 65 66
15 3 65 66 67
16 3 66 67 68
17 3 67 68 69
18 3 68 69 70
19 3 69 70 71
20 3 70 71 72
21 3 71 72 73
22 3 72 73 74
23 3 73 74 75
24 3 74 75 76
25 3 75 76 77
26 3 76 77 78
27 3 77 78 79
28 3 78 79 80
29 3 79 80 81
30 3 80 81 82
31 3 81 82 83
32 3 82 83 84
33 3 83 84 85
34 3 84 85 86
35 3 85 86 87
36 3 86 87 88
37 3 87 88 89
38 3 88 89 90
39 3 89 90 91
40 3 90 91 92
41 3 91 92 93
42 3 92 93 94
43 3 93 94 95
44 3 94 95 96
45 3 95 96 97
46 3 96 97 98
47 3 97 98 99
48 3 98 99 100
49 3 99 100 101
50 3 100 101 102
51 3 101 102 103
52 3 102 103 104
53 3 103 104 105
54 3 104 105 106
55 3 105 106 107
56 3 106 107 108
57 3 107 108 109
58 3 108 109 110
59 3 109 110 111
60 3 110 111 112
61 3 111 112 113
62 3 112 113 114
63 3 113 114 115
64 3 114 115 116
65 3 115 116 117
66 3 116 117 118
67 3 117 118 119
68 3 118 119 120
69 3 119 120 121
70 3 120 121 122
71 3 121 122 123
72 3 122 123 124
73 3 123 124 125
74 3 124 125 126
75 3 125 126 127
76 3 126 127 128
77 3 127 128 129
78 3 128 129 130
79 3 129 130 131
80 3 130 131 132
81 3 131 132 133
82 3 132 133 134
83 3 133 134 135
84 3 134 135 136
85 3 135 136 137
86 3 136 137 138
87 3 137 138 139
88 3 138 139 140
89 3 139 140 141
90 3 140 141 142
91 3 141 142 143
92 3 142 143 144
93 3 143 144 145
94 3 144 145 146
95 3 145 146 147
96 3 146 147 148
97 3 147 148 149
98 3 148 149 150
99 3 201 202 203
100 3 202 203 204
101 3 203 204 205
102 3 204 205 206
103 3 205 206 207
104 3 206 207 208
105 3 207 208 209
106 3 208 209 210
107 3 209 210 211
108 3 210 211 212
109 3 211 212 213
110 3 212 213 214
111 3 213 214 215
112 3 214 215 216
113 3 215 216 217
114 3 216 217 218
115 3 217 218 219
116 3 218 219 220
117 3 219 220 221
118 3 220 221 222
119 3 221 222 223
120 3 222 223 224
121 3 223 224 225
122 3 224 225 226
123 3 225 226 227
124 3 226 227 228
125 3 227 228 229
126 3 228 229 230
127 3 229 230 231
128 3 230 231 232
129 3 231 232 233
130 3 232 233 234
131 3 233 234 235
132 3 234 235 236
133 3 235 236 237
134 3 236 237 238
135 3 237 238 239
136 3 238 239 240
137 3 239 240 241
138 3 240 241 242
139 3 241 242 243
140 3 242 243 244
141 3 243 244 245
142 3 244 245 246
143 3 245 246 247
144 3 246 247 248
145 3 247 248 249
146 3 248 249 250
147 3 249 250 251
148 3 250 251 252
149 3 251 252 253
150 3 252 253 254
151 3 253 254 255
152 3 254 255 256
153 3 255 256 257
154 3 256 257 258
155 3 257 258 259
156 3 258 259 260
157 3 259 260 261
158 3 260 261 262
159 3 261 262 263
160 3 262 263 264
161 3 263 264 265
162 3 264 265 266
163 3 265 266 267
164 3 266 267 268
165 3 267 268 269
166 3 268 269 270
167 3 269 270 271
168 3 270 271 272
169 3 271 272 273
170 3 272 273 274
171 3 273 274 275
172 3 274 275 276
173 3 275 276 277
174 3 276 277 278
175 3 277 278 279
176 3 278 279 280
177 3 279 280 281
178 3 280 281 282
179 3 281 282 283
180 3 282 283 284
181 3 283 284 285
182 3 284 285 286
183 3 285 286 287
184 3 286 287 288
185 3 287 288 289
186 3 288 289 290
187 3 289 290 291
188 3 290 291 292
189 3 291 292 293
190 3 292 293 294
191 3 293 294 295
192 3 294 295 296
193 3 295 296 297
194 3 296 297 298
195 3 297 298 299
196 3 298 299 300
197 3 351 352 353
198 3 352 353 354
199 3 353 354 355
200 3 354 355 356
201 3 355 356 357
202 3 356 357 358
203 3 357 358 359
204 3 358 359 360
205 3 359 360 361
206 3 360 361 362
207 3 361 362 363
208 3 362 363 364
209 3 363 364 365
210 3 364 365 366
211 3 365 366 367
212 3 366 367 368
213 3 367 368 369
214 3 368 369 370
215 3 369 370 371
216 3 370 371 372
217 3 371 372 373
218 3 372 373 374
219 3 373 374 375
220 3 374 375 376
221 3 375 376 377
222 3 376 377 378
223 3 377 378 379
224 3 378 379 380
225 3 379 380 381
226 3 380 381 382
227 3 381 382 383
228 3 382 383 384
229 3 383 384 385
230 3 384 385 386
231 3 385 386 387
232 3 386 387 388
233 3 387 388 389
234 3 388 389 390
235 3 389 390 391
236 3 390 391 392
237 3 391 392 393
238 3 392 393 394
239 3 393 394 395
240 3 394 395 396
241 3 395 396 397
242 3 396 397 398
243 3 397 398 399
244 3 398 399 400
245 3 399 400 401
246 3 400 401 402
247 3 401 402 403
248 3 402 403 404
249 3 403 404 405
250 3 404 405 406
251 3 405 406 407
252 3 406 407 408
253 3 407 408 409
254 3 408 409 410
255 3 409 410 411
256 3 410 411 412
257 3 411 412 413
258 3 412 413 414
259 3 413 414 415
260 3 414 415 416
261 3 415 416 417
262 3 416 417 418
263 3 417 418 419
264 3 418 419 420
265 3 419 420 421
266 3 420 421 422
267 3 421 422 423
268 3 422 423 424
269 3 423 424 425
270 3 424 425 426
271 3 425 426 427
272 3 426 427 428
273 3 427 428 429
274 3 428 429 430
275 3 429 430 431
276 3 430 431 432
277 3 431 432 433
278 3 432 433 434
279 3 433 434 435
280 3 434 435 436
281 3 435 436 437
282 3 436 437 438
283 3 437 438 439
284 3 438 439 440
285 3 439 440 441
286 3 440 441 442
287 3 441 442 443
288 3 442 443 444
289 3 443 444 445
290 3 444 445 446
291 3 445 446 447
292 3 446 447 448
293 3 447 448 449
294 3 448 449 450
295 3 501 502 503
296 3 502 503 504
297 3 503 504 505
298 3 504 505 506
299 3 505 506 507
300 3 506 507 508
301 3 507 508 509
302 3 508 509 510
303 3 509 510 511
304 3 510 511 512
305 3 511 512 513
306 3 512 513 514
307 3 513 514 515
308 3 514 515 516
309 3 515 516 517
310 3 516 517 518
311 3 517 518 519
312 3 518 519 520
313 3 519 520 521
314 3 520 521 522
315 3 521 522 523
316 3 522 523 524
317 3 523 524 525
318 3 524 525 526
319 3 525 526 527
320 3 526 527 528
321 3 527 528 529
322 3 528 529 530
323 3 529 530 531
324 3 530 531 532
325 3 531 532 533
326 3 532 533 534
327 3 533 534 535
328 3 534 535 536
329 3 535 536 537
330 3 536 537 538
331 3 537 538 539
332 3 538 539 540
333 3 539 540 541
334 3 540 541 542
335 3 541 542 543
336 3 542 543 544
337 3 543 544 545
338 3 544 545 546
339 3 545 546 547
340 3 546 547 548
341 3 547 548 549
342 3 548 549 550
343 3 549 550 551
344 3 550 551 552
345 3 551 552 553
346 3 552 553 554
347 3 553 554 555
348 3 554 555 556
349 3 555 556 557
350 3 556 557 558
351 3 557 558 559
352 3 558 559 560
353 3 559 560 561
354 3 560 561 562
355 3 561 562 563
356 3 562 563 564
357 3 563 564 565
358 3 564 565 566
359 3 565 566 567
360 3 566 567 568
361 3 567 568 569
362 3 568 569 570
363 3 569 570 571
364 3 570 571 572
365 3 571 572 573
366 3 572 573 574
367 3 573 574 575
368 3 574 575 576
369 3 575 576 577
370 3 576 577 578
371 3 577 578 579
372 3 578 579 580
373 3 579 580 581
374 3 580 581 582
375 3 581 582 583
376 3 582 583 584
377 3 583 584 585
378 3 584 585 586
379 3 585 586 587
380 3 586 587 588
381 3 587 588 589
382 3 588 589 590
383 3 589 590 591
384 3 590 591 592
385 3 591 592 593
386 3 592 593 594
387 3 593 594 595
388 3 594 595 596
389 3 595 596 597
390 3 596 597 598
391 3 597 598 599
392 3 598 599 600
393 3 651 652 653
394 3 652 653 654
395 3 653 654 655
396 3 654 655 656
397 3 655 656 657
398 3 656 657 658
399 3 657 658 659
400 3 658 659 660
401 3 659 660 661
402 3 660 661 662
403 3 661 662 663
404 3 662 663 664
405 3 663 664 665
406 3 664 665 666
407 3 665 666 667
408 3 666 667 668
409 3 667 668 669
410 3 668 669 670
411 3 669 670 671
412 3 670 671 672
413 3 671 672 673
414 3 672 673 674
415 3 673 674 675
416 3 674 675 676
417 3 675 676 677
418 3 676 677 678
419 3 677 678 679
420 3 678 679 680
421 3 679 680 681
422 3 680 681 682
423 3 681 682 683
424 3 682 683 684
425 3 683 684 685
426 3 684 685 686
427 3 685 686 687
428 3 686 687 688
429 3 687 688 689
430 3 688 689 690
431 3 689 690 691
432 3 690 691 692
433 3 691 692 693
434 3 692 693 694
435 3 693 694 695
436 3 694 695 696
437 3 695 696 697
438 3 696 697 698
439 3 697 698 699
440 3 698 699 700
441 3 699 700 701
442 3 700 701 702
443 3 701 702 703
444 3 702 703 704
445 3 703 704 705
446 3 704 705 706
447 3 705 706 707
448 3 706 707 708
449 3 707 708 709
450 3 708 709 710
451 3 709 710 711
452 3 710 711 712
453 3 711 712 713
454 3 712 713 714
455 3 713 714 715
456 3 714 715 716
457 3 715 716 717
458 3 716 717 718
459 3 717 718 719
460 3 718 719 720
461 3 719 720 721
462 3 720 721 722
463 3 721 722 723
464 3 722 723 724
465 3 723 724 725
466 3 724 725 726
467 3 725 726 727
468 3 726 727 728
469 3 727 728 729
470 3 728 729 730
471 3 729 730 731
472 3 730 731 732
473 3 731 732 733
474 3 732 733 734
475 3 733 734 735
476 3 734 735 736
477 3 735 736 737
478 3 736 737 738
479 3 737 738 739
480 3 738 739 740
481 3 739 740 741
482 3 740 741 742
483 3 741 742 743
484 3 742 743 744
485 3 743 744 745
486 3 744 745 746
487 3 745 746 747
488 3 746 747 748
489 3 747 748 749
490 3 748 749 750
491 3 801 802 803
492 3 802 803 804
493 3 803 804 805
494 3 804 805 806
495 3 805 806 807
496 3 806 807 808
497 3 807 808 809
498 3 808 809 810
499 3 809 810 811
500 3 810 811 812
501 3 811 812 813
502 3 812 813 814
503 3 813 814 815
504 3 814 815 816
505 3 815 816 817
506 3 816 817 818
507 3 817 818 819
508 3 818 819 820
509 3 819 820 821
510 3 820 821 822
511 3 821 822 823
512 3 822 823 824
513 3 823 824 825
514 3 824 825 826
515 3 825 826 827
516 3 826 827 828
517 3 827 828 829
518 3 828 829 830
519 3 829 830 831
520 3 830 831 832
521 3 831 832 833
522 3 832 833 834
523 3 833 834 835
524 3 834 835 836
525 3 835 836 837
526 3 836 837 838
527 3 837 838 839
528 3 838 839 840
529 3 839 840 841
530 3 840 841 842
531 3 841 842 843
532 3 842 843 844
533 3 843 844 845
534 3 844 845 846
535 3 845 846 847
536 3 846 847 848
537 3 847 848 849
538 3 848 849 850
539 3 849 850 851
540 3 850 851 852
541 3 851 852 853
542 3 852 853 854
543 3 853 854 855
544 3 854 855 856
545 3 855 856 857
546 3 856 857 858
547 3 857 858 859
548 3 858 859 860
549 3 859 860 861
550 3 860 861 862
551 3 861 862 863
552 3 862 863 864
553 3 863 864 865
554 3 864 865 866
555 3 865 866 867
556 3 866 867 868
557 3 867 868 869
558 3 868 869 870
559 3 869 870 871
560 3 870 871 872
561 3 871 872 873
562 3 872 873 874
563 3 873 874 875
564 3 874 875 876
565 3 875 876 877
566 3 876 877 878
567 3 877 878 879
568 3 878 879 880
569 3 879 880 881
570 3 880 881 882
571 3 881 882 883
572 3 882 883 884
573 3 883 884 885
574 3 884 885 886
575 3 885 886 887
576 3 886 887 888
577 3 887 888 889
578 3 888 889 890
579 3 889 890 891
580 3 890 891 892
581 3 891 892 893
582 3 892 893 894
583 3 893 894 895
584 3 894 895 896
585 3 895 896 897
586 3 896 897 898
587 3 897 898 899
588 3 898 899 900
589 3 951 952 953
590 3 952 953 954
591 3 953 954 955
592 3 954 955 956
593 3 955 956 957
594 3 956 957 958
595 3 957 958 959
596 3 958 959 960
597 3 959 960 961
598 3 960 961 962
599 3 961 962 963
600 3 962 963 964
601 3 963 964 965
602 3 964 965 966
603 3 965 966 967
604 3 966 967 968
605 3 967 968 969
606 3 968 969 970
607 3 969 970 971
608 3 970 971 972
609 3 971 972 973
610 3 972 973 974
611 3 973 974 975
612 3 974 975 976
613 3 975 976 977
614 3 976 977 978
615 3 977 978 979
616 3 978 979 980
617 3 979 980 981
618 3 980 981 982
619 3 981 982 983
620 3 982 983 984
621 3 983 984 985
622 3 984 985 986
623 3 985 986 987
624 3 986 987 988
625 3 987 988 989
626 3 988 989 990
627 3 989 990 991
628 3 990 991 992
629 3 991 992 993
630 3 992 993 994
631 3 993 994 995
632 3 994 995 996
633 3 995 996 997
634 3 996 997 998
635 3 997 998 999
636 3 998 999 1000
637 3 999 1000 1001
638 3 1000 1001 1002
639 3 1001 1002 1003
640 3 1002 1003 1004
641 3 1003 1004 1005
642 3 1004 1005 1006
643 3 1005 1006 1007
644 3 1006 1007 1008
645 3 1007 1008 1009
646 3 1008 1009 1010
647 3 1009 1010 1011
648 3 1010 1011 1012
649 3 1011 1012 1013
650 3 1012 1013 1014
651 3 1013 1014 1015
652 3 1014 1015 1016
653 3 1015 1016 1017
654 3 1016 1017 1018
655 3 1017 1018 1019
656 3 1018 1019 1020
657 3 1019 1020 1021
658 3 1020 1021 1022
659 3 1021 1022 1023
660 3 1022 1023 1024
661 3 1023 1024 1025
662 3 1024 1025 1026
663 3 1025 1026 1027
664 3 1026 1027 1028
665 3 1027 1028 1029
666 3 1028 1029 1030
667 3 1029 1030 1031
668 3 1030 1031 1032
669 3 1031 1032 1033
670 3 1032 1033 1034
671 3 1033 1034 1035
672 3 1034 1035 1036
673 3 1035 1036 1037
674 3 1036 1037 1038
675 3 1037 1038 1039
676 3 1038 1039 1040
677 3 1039 1040 1041
678 3 1040 1041 1042
679 3 1041 1042 1043
680 3 1042 1043 1044
681 3 1043 1044 1045
682 3 1044 1045 1046
683 3 1045 1046 1047
684 3 1046 1047 1048
685 3 1047 1048 1049
686 3 1048 1049 1050
687 3 1101 1102 1103
688 3 1102 1103 1104
689 3 1103 1104 1105
690 3 1104 1105 1106
691 3 1105 1106 1107
692 3 1106 1107 1108
693 3 1107 1108 1109
694 3 1108 1109 1110
695 3 1109 1110 1111
696 3 1110 1111 1112
697 3 1111 1112 1113
698 3 1112 1113 1114
699 3 1113 1114 1115
700 3 1114 1115 1116
701 3 1115 1116 1117
702 3 1116 1117 1118
703 3 1117 1118 1119
704 3 1118 1119 1120
705 3 1119 1120 1121
706 3 1120 1121 1122
707 3 1121 1122 1123
708 3 1122 1123 1124
709 3 1123 1124 1125
710 3 1124 1125 1126
711 3 1125 1126 1127
712 3 1126 1127 1128
713 3 1127 1128 1129
714 3 1128 1129 1130
715 3 1129 1130 1131
716 3 1130 1131 1132
717 3 1131 1132 1133
718 3 1132 1133 1134
719 3 1133 1134 1135
720 3 1134 1135 1136
721 3 1135 1136 1137
722 3 1136 1137 1138
723 3 1137 1138 1139
724 3 1138 1139 1140
725 3 1139 1140 1141
726 3 1140 1141 1142
727 3 1141 1142 1143
728 3 1142 1143 1144
729 3 1143 1144 1145
730 3 1144 1145 1146
731 3 1145 1146 1147
732 3 1146 1147 1148
733 3 1147 1148 1149
734 3 1148 1149 1150
735 3 1149 1150 1151
736 3 1150 1151 1152
737 3 1151 1152 1153
738 3 1152 1153 1154
739 3 1153 1154 1155
740 3 1154 1155 1156
741 3 1155 1156 1157
742 3 1156 1157 1158
743 3 1157 1158 1159
744 3 1158 1159 1160
745 3 1159 1160 1161
746 3 1160 1161 1162
747 3 1161 1162 1163
748 3 1162 1163 1164
749 3 1163 1164 1165
750 3 1164 1165 1166
751 3 1165 1166 1167
752 3 1166 1167 1168
753 3 1167 1168 1169
754 3 1168 1169 1170
755 3 1169 1170 1171
756 3 1170 1171 1172
757 3 1171 1172 1173
758 3 1172 1173 1174
759 3 1173 1174 1175
760 3 1174 1175 1176
761 3 1175 1176 1177
762 3 1176 1177 1178
763 3 1177 1178 1179
764 3 1178 1179 1180
765 3 1179 1180 1181
766 3 1180 1181 1182
767 3 1181 1182 1183
768 3 1182 1183 1184
769 3 1183 1184 1185
770 3 1184 1185 1186
771 3 1185 1186 1187
772 3 1186 1187 1188
773 3 1187 1188 1189
774 3 1188 1189 1190
775 3 1189 1190 1191
776 3 1190 1191 1192
777 3 1191 1192 1193
778 3 1192 1193 1194
779 3 1193 1194 1195
780 3 1194 1195 1196
781 3 1195 1196 1197
782 3 1196 1197 1198
783 3 1197 1198 1199
784 3 1198 1199 1200
785 3 1251 1252 1253
786 3 1252 1253 1254
787 3 1253 1254 1255
788 3 1254 1255 1256
789 3 1255 1256 1257
790 3 1256 1257 1258
791 3 1257 1258 1259
792 3 1258 1259 1260
793 3 1259 1260 1261
794 3 1260 1261 1262
795 3 1261 1262 1263
796 3 1262 1263 1264
797 3 1263 1264 1265
798 3 1264 1265 1266
799 3 1265 1266 1267
800 3 1266 1267 1268
801 3 1267 1268 1269
802 3 1268 1269 1270
803 3 1269 1270 1271
804 3 1270 1271 1272
805 3 1271 1272 1273
806 3 1272 1273 1274
807 3 1273 1274 1275
808 3 1274 1275 1276
809 3 1275 1276 1277
810 3 1276 1277 1278
811 3 1277 1278 1279
812 3 1278 1279 1280
813 3 1279 1280 1281
814 3 1280 1281 1282
815 3 1281 1282 1283
816 3 1282 1283 1284
817 3 1283 1284 1285
818 3 1284 1285 1286
819 3 1285 1286 1287
820 3 1286 1287 1288
821 3 1287 1288 1289
822 3 1288 1289 1290
823 3 1289 1290 1291
824 3 1290 1291 1292
825 3 1291 1292 1293
826 3 1292 1293 1294
827 3 1293 1294 1295
828 3 1294 1295 1296
829 3 1295 1296 1297
830 3 1296 1297 1298
831 3 1297 1298 1299
832 3 1298 1299 1300
833 3 1299 1300 1301
834 3 1300 1301 1302
835 3 1301 1302 1303
836 3 1302 1303 1304
837 3 1303 1304 1305
838 3 1304 1305 1306
839 3 1305 1306 1307
840 3 1306 1307 1308
841 3 1307 1308 1309
842 3 1308 1309 1310
843 3 1309 1310 1311
844 3 1310 1311 1312
845 3 1311 1312 1313
846 3 1312 1313 1314
847 3 1313 1314 1315
848 3 1314 1315 1316
849 3 1315 1316 1317
850 3 1316 1317 1318
851 3 1317 1318 1319
852 3 1318 1319 1320
853 3 1319 1320 1321
854 3 1320 1321 1322
855 3 1321 1322 1323
856 3 1322 1323 1324
857 3 1323 1324 1325
858 3 1324 1325 1326
859 3 1325 1326 1327
860 3 1326 1327 1328
861 3 1327 1328 1329
862 3 1328 1329 1330
863 3 1329 1330 1331
864 3 1330 1331 1332
865 3 1331 1332 1333
866 3 1332 1333 1334
867 3 1333 1334 1335
868 3 1334 1335 1336
869 3 1335 1336 1337
870 3 1336 1337 1338
871 3 1337 1338 1339
872 3 1338 1339 1340
873 3 1339 1340 1341
874 3 1340 1341 1342
875 3 1341 1342 1343
876 3 1342 1343 1344
877 3 1343 1344 1345
878 3 1344 1345 1346
879 3 1345 1346 1347
880 3 1346 1347 1348
881 3 1347 1348 1349
882 3 1348 1349 1350
883 3 1401 1402 1403
884 3 1402 1403 1404
885 3 1403 1404 1405
886 3 1404 1405 1406
887 3 1405 1406 1407
888 3 1406 1407 1408
889 3 1407 1408 1409
890 3 1408 1409 1410
891 3 1409 1410 1411
892 3 1410 1411 1412
893 3 1411 1412 1413
894 3 1412 1413 1414
895 3 1413 1414 1415
896 3 1414 1415 1416
897 3 1415 1416 1417
898 3 1416 1417 1418
899 3 1417 1418 1419
900 3 1418 1419 1420
901 3 1419 1420 1421
902 3 1420 1421 1422
903 3 1421 1422 1423
904 3 1422 1423 1424
905 3 1423 1424 1425
906 3 1424 1425 1426
907 3 1425 1426 1427
908 3 1426 1427 1428
909 3 1427 1428 1429
910 3 1428 1429 1430
911 3 1429 1430 1431
912 3 1430 1431 1432
913 3 1431 1432 1433
914 3 1432 1433 1434
915 3 1433 1434 1435
916 3 1434 1435 1436
917 3 1435 1436 1437
918 3 1436 1437 1438
919 3 1437 1438 1439
920 3 1438 1439 1440
921 3 1439 1440 1441
922 3 1440 1441 1442
923 3 1441 1442 1443
924 3 1442 1443 1444
925 3 1443 1444 1445
926 3 1444 1445 1446
927 3 1445 1446 1447
928 3 1446 1447 1448
929 3 1447 1448 1449
930 3 1448 1449 1450
931 3 1449 1450 1451
932 3 1450 1451 1452
933 3 1451 1452 1453
934 3 1452 1453 1454
935 3 1453 1454 1455
936 3 1454 1455 1456
937 3 1455 1456 1457
938 3 1456 1457 1458
939 3 1457 1458 1459
940 3 1458 1459 1460
941 3 1459 1460 1461
942 3 1460 1461 1462
943 3 1461 1462 1463
944 3 1462 1463 1464
945 3 1463 1464 1465
946 3 1464 1465 1466
947 3 1465 1466 1467
948 3 1466 1467 1468
949 3 1467 1468 1469
950 3 1468 1469 1470
951 3 1469 1470 1471
952 3 1470 1471 1472
953 3 1471 1472 1473
954 3 1472 1473 1474
955 3 1473 1474 1475
956 3 1474 1475 1476
957 3 1475 1476 1477
958 3 1476 1477 1478
959 3 1477 1478 1479
960 3 1478 1479 1480
961 3 1479 1480 1481
962 3 1480 1481 1482
963 3 1481 1482 1483
964 3 1482 1483 1484
965 3 1483 1484 1485
966 3 1484 1485 1486
967 3 1485 1486 1487
968 3 1486 1487 1488
969 3 1487 1488 1489
970 3 1488 1489 1490
971 3 1489 1490 1491
972 3 1490 1491 1492
973 3 1491 1492 1493
974 3 1492 1493 1494
975 3 1493 1494 1495
976 3 1494 1495 1496
977 3 1495 1496 1497
978 3 1496 1497 1498
979 3 1497 1498 1499
980 3 1498 1499 1500

Dihedrals

1 2 51 52 53 54
2 2 52 53 54 55
3 2 53 54 55 56
4 2 54 55 56 57
5 2 55 56 57 58
6 2 56 57 58 59
7 2 57 58 59 60
8 2 58 59 60 61
9 2 59 60 61 62
10 2 60 61 62 63
11 2 61 62 63 64
12 2 62 63 64 65
13 2 63 64 65 66
14 2 64 65 66 67
15 2 65 66 67 68
16 2 66 67 68 69
17 2 67 68 69 70
18 2 68 69 70 71
19 2 69 70 71 72
20 2 70 71 72 73
21 2 71 72 73 74
22 2 72 73 74 75
23 2 73 74 75 76
24 2 74 75 76 77
25 2 75 76 77 78
26 2 76 77 78 79
27 2 77 78 79 80
28 2 78 79 80 81
29 2 79 80 81 82
30 2 80 81 82 83
31 2 81 82 83 84
32 2 82 83 84 85
33 2 83 84 85 86
34 2 84 85 86 87
35 2 85 86 87 88
36 2 86 87 88 89
37 2 87 88 89 90
38 2 88 89 90 91
39 2 89 90 91 92
40 2 90 91 92 93
41 2 91 92 93 94
42 2 92 93 94 95
43 2 93 94 95 96
44 2 94 95 96 97
45 2 95 96 97 98
46 2 96 97 98 99
47 2 97 98 99 100
48 2 98 99 100 101
49 2 99 100 101 102
50 2 100 101 102 103
51 2 101 102 103 104
52 2 102 103 104 105
53 2 103 104 105 106
54 2 104 105 106 107
55 2 105 106 107 108
56 2 106 107 108 109
57 2 107 108 109 110
58 2 108 109 110 111
59 2 109 110 111 112
60 2 110 111 112 113
61 2 111 112 113 114
62 2 112 113 114 115
63 2 113 114 115 116
64 2 114 115 116 117
65 2 115 116 117 118
66 2 116 117 118 119
67 2 117 118 119 120
68 2 118 119 120 121
69 2 119 120 121 122
70 2 120 121 122 123
71 2 121 122 123 124
72 2 122 123 124 125
73 2 123 124 125 126
74 2 124 125 126 127
75 2 125 126 127 128
76 2 126 127 128 129
77 2 127 128 129 130
78 2 128 129 130 131
79 2 129 130 131 132
80 2 130 131 132 133
81 2 131 132 133 134
82 2 132 133 134 135
83 2 133 134 135 136
84 2 134 135 136 137
85 2 135 136 137 138
86 2 136 137 138 139
87 2 137 138 139 140
88 2 138 139 140 141
89 2 139 140 141 142
90 2 140 141 142 143
91 2 141 142 143 144
92 2 142 143 144 145
93 2 143 144 145 146
94 2 144 145 146 147
95 2 145 146 147 148
96 2 146 147 148 149
97 2 147 148 149 150
98 2 201 202 203 204
99 2 202 203 204 205
100 2 203 204 205 206
101 2 204 205 206 207
102 2 205 206 207 208
103 2 206 207 208 209
104 2 207 208 209 210
105 2 208 209 210 211
106 2 209 210 211 212
107 2 210 211 212 213
108 2 211 212 213 214
109 2 212 213 214 215
110 2 213 214 215 216
111 2 214 215 216 217
112 2 215 216 217 218
113 2 216 217 218 219
114 2 217 218 219 220
115 2 218 219 220 221
116 2 219 220 221 222
117 2 220 221 222 223
118 2 221 222 223 224
119 2 222 223 224 225
120 2 223 224 225 226
121 2 224 225 226 227
122 2 225 226 227 228
123 2 226 227 228 229
124 2 227 228 229 230
125 2 228 229 230 231
126 2 229 230 231 232
127 2 230 231 232 233
128 2 231 232 233 234
129 2 232 233 234 235
130 2 233 234 235 236
131 2 234 235 236 237
132 2 235 236 237 238
133 2 236 237 238 239
134 2 237 238 239 240
135 2 238 239 240 241
136 2 239 240 241 242
137 2 240 241 242 243
138 2 241 242 243 244
139 2 242 243 244 245
140 2 243 244 245 246
141 2 244 245 246 247
142 2 245 246 247 248
143 2 246 247 248 249
144 2 247 248 249 250
145 2 248 249 250 251
146 2 249 250 251 252
147 2 250 251 252 253
148 2 251 252 253 254
149 2 252 253 254 255
150 2 253 254 255 256
151 2 254 255 256 257
152 2 255 256 257 258
153 2 256 257 258 259
154 2 257 258 259 260
155 2 258 259 260 261
156 2 259 260 261 262
157 2 260 261 262 263
158 2 261 262 263 264
159 2 262 263 264 265
160 2 263 264 265 266
161 2 264 265 266 267
162 2 265 266 267 268
163 2 266 267 268 269
164 2 267 268 269 270
165 2 268 269 270 271
166 2 269 270 271 272
167 2 270 271 272 273
168 2 271 272 273 274
169 2 272 273 274 275
170 2 273 274 275 276
171 2 274 275 276 277
172 2 275 276 277 278
173 2 276 277 278 279
174 2 277 278 279 280
175 2 278 279 280 281
176 2 279 280 281 282
177 2 280 281 282 283
178 2 281 282 283 284
179 2 282 283 284 285
180 2 283 284 285 286
181 2 284 285 286 287
182 2 285 286 287 288
183 2 286 287 288 289
184 2 287 288 289 290
185 2 288 289 290 291
186 2 289 290 291 292
187 2 290 291 292 293
188 2 291 292 293 294
189 2 292 293 294 295
190 2 293 294 295 296
191 2 294 295 296 297
192 2 295 296 297 298
193 2 296 297 298 299
194 2 297 298 299 300
195 2 351 352 353 354
196 2 352 353 354 355
197 2 353 354 355 356
198 2 354 355 356 357
199 2 355 356 357 358
200 2 356 357 358 359
201 2 357 358 359 360
202 2 358 359 360 361
203 2 359 360 361 362
204 2 360 361 362 363
205 2 361 362 363 364
206 2 362 363 364 365
207 2 363 364 365 366
208 2 364 365 366 367
209 2 365 366 367 368
210 2 366 367 368 369
211 2 367 368 369 370
212 2 368 369 370 371
213 2 369 370 371 372
214 2 370 371 372 373
215 2 371 372 373 374
216 2 372 373 374 375
217 2 373 374 375 376
218 2 374 375 376 377
219 2 375 376 377 378
220 2 376 377 378 379
221 2 377 378 379 380
222 2 378 379 380 381
223 2 379 380 381 382
224 2 380 381 382 383
225 2 381 382 383 384
226 2 382 383 384 385
227 2 383 384 385 386
228 2 384 385 386 387
229 2 385 386 387 388
230 2 386 387 388 389
231 2 387 388 389 390
232 2 388 389 390 391
233 2 389 390 391 392
234 2 390 391 392 393
235 2 391 392 393 394
236 2 392 393 394 395
237 2 393 394 395 396
238 2 394 395 396 397
239 2 395 396 397 398
240 2 396 397 398 399
241 2 397 398 399 400
242 2 398 399 400 401
243 2 399 400 401 402
244 2 400 401 402 403
245 2 401 402 403 404
246 2 402 403 404 405
247 2 403 404 405 406
248 2 404 405 406 407
249 2 405 406 407 408
250 2 406 407 408 409
251 2 407 408 409 410
252 2 408 409 410 411
253 2 409 410 411 412
254 2 410 411 412 413
255 2 411 412 413 414
256 2 412 413 414 415
257 2 413 414 415 416
258 2 414 415 416 417
259 2 415 416 417 418
260 2 416 417 418 419
261 2 417 418 419 420
262 2 418 419 420 421
263 2 419 420 421 422
264 2 420 421 422 423
265 2 421 422 423 424
266 2 422 423 424 425
267 2 423 424 425 426
268 2 424 425 426 427
269 2 425 426 427 428
270 2 426 427 428 429
271 2 427 428 429 430
272 2 428 429 430 431
273 2 429 430 431 432
274 2 430 431 432 433
275 2 431 432 433 434
276 2 432 433 434 435
277 2 433 434 435 436
278 2 434 435 436 437
279 2 435 436 437 438
280 2 436 437 438 439
281 2 437 438 439 440
282 2 438 439 440 441
283 2 439 440 441 442
284 2 440 441 442 443
285 2 441 442 443 444
286 2 442 443 444 445
287 2 443 444 445 446
288 2 444 445 446 447
289 2 445 446 447 448
290 2 446 447 448 449
291 2 447 448 449 450
292 2 501 502 503 504
293 2 502 503 504 505
294 2 503 504 505 506
295 2 504 505 506 507
296 2 505 506 507 508
297 2 506 507 508 509
298 2 507 508 509 510
299 2 508 509 510 511
300 2 509 510 511 512
301 2 510 511 512 513
302 2 511 512 513 514
303 2 512 513 514 515
304 2 513 514 515 516
305 2 514 515 516 517
306 2 515 516 517 518
307 2 516 517 518 519
308 2 517 518 519 520
309 2 518 519 520 521
310 2 519 520 521 522
311 2 520 521 522 523
312 2 521 522 523 524
313 2 522 523 524 525
314 2 523 524 525 526
315 2 524 525 526 527
316 2 525 526 527 528
317 2 526 527 528 529
318 2 527 528 529 530
319 2 528 529 530 531
320 2 529 530 531 532
321 2 530 531 532 533
322 2 531 532 533 534
323 2 532 533 534 535
324 2 533 534 535 536
325 2 534 535 536 537
326 2 535 536 537 538
327 2 536 537 538 539
328 2 537 538 539 540
329 2 538 539 540 541
330 2 539 540 541 542
331 2 540 541 542 543
332 2 541 542 543 544
333 2 542 543 544 545
334 2 543 544 545 546
335 2 544 545 546 547
336 2 545 546 547 548
337 2 546 547 548 549
338 2 547 548 549 550
339 2 548 549 550 551
340 2 549 550 551 552
341 2 550 551 552 553
342 2 551 552 553 554
343 2 552 553 554 555
344 2 553 554 555 556
345 2 554 555 556 557
346 2 555 556 557 558
347 2 556 557 558 559
348 2 557 558 559 560
349 2 558 559 560 561
350 2 559 560 561 562
351 2 560 561 562 563
352 2 561 562 563 564
353 2 562 563 564 565
354 2 563 564 565 566
355 2 564 565 566 567
356 2 565 566 567 568
357 2 566 567 568 569
358 2 567 568 569 570
359 2 568 569 570 571
360 2 569 570 571 572
361 2 570 571 572 573
362 2 571 572 573 574
363 2 572 573 574 575
364 2 573 574 575 576
365 2 574 575 576 577
366 2 575 576 577 578
367 2 576 577 578 579
368 2 577 578 579 580
369 2 578 579 580 581
370 2 579 580 581 582
371 2 580 581 582 583
372 2 581 582 583 584
373 2 582 583 584 585
374 2 583 584 585 586
375 2 584 585 586 587
376 2 585 586 587 588
377 2 586 587 588 589
378 2 587 588 589 590
379 2 588 589 590 591
380 2 589 590 591 592
381 2 590 591 592 593
382 2 591 592 593 594
383 2 592 593 594 595
384 2 593 594 595 596
385 2 594 595 596 597
386 2 595 596 597 598
387 2 596 597 598 599
388 2 597 598 599 600
389 2 651 652 653 654
390 2 652 653 654 655
391 2 653 654 655 656
392 2 654 655 656 657
393 2 655 656 657 658
394 2 656 657 658 659
395 2 657 658 659 660
396 2 658 659 660 661
397 2 659 660 661 662
398 2 660 661 662 663
399 2 661 662 663 664
400 2 662 663 664 665
401 2 663 664 665 666
402 2 664 665 666 667
403 2 665 666 667 668
404 2 666 667 668 669
405 2 667 668 669 670
406 2 668 669 670 671
407 2 669 670 671 672
408 2 670 671 672 673
409 2 671 672 673 674
410 2 672 673 674 675
411 2 673 674 675 676
412 2 674 675 676 677
413 2 675 676 677 678
414 2 676 677 678 679
415 2 677 678 679 680
416 2 678 679 680 681
417 2 679 680 681 682
418 2 680 681 682 683
419 2 681 682 683 684
420 2 682 683 684 685
421 2 683 684 685 686
422 2 684 685 686 687
423 2 685 686 687 688
424 2 686 687 688 689
425 2 687 688 689 690
426 2 688 689 690 691
427 2 689 690 691 692
428 2 690 691 692 693
429 2 691 692 693 694
430 2 692 693 694 695
431 2 693 694 695 696
432 2 694 695 696 697
433 2 695 696 697 698
434 2 696 697 698 699
435 2 697 698 699 700
436 2 698 699 700 701
437 2 699 700 701 702
438 2 700 701 702 703
439 2 701 702 703 704
440 2 702 703 704 705
441 2 703 704 705 706
442 2 704 705 706 707
443 2 705 706 707 708
444 2 706 707 708 709
445 2 707 708 709 710
446 2 708 709 710 711
447 2 709 710 711 712
448 2 710 711 712 713
449 2 711 712 713 714
450 2 712 713 714 715
451 2 713 714 715 716
452 2 714 715 716 717
453 2 715 716 717 718
454 2 716 717 718 719
455 2 717 718 719 720
456 2 718 719 720 721
457 2 719 720 721 722
458 2 720 721 722 723
459 2 721 722 723 724
460 2 722 723 724 725
461 2 723 724 725 726
462 2 724 725 726 727
463 2 725 726 727 728
464 2 726 727 728 729
465 2 727 728 729 730
466 2 728 729 730 731
467 2 729 730 731 732
468 2 730 731 732 733
469 2 731 732 733 734
470 2 732 733 734 735
471 2 733 734 735 736
472 2 734 735 736 737
473 2 735 736 737 738
474 2 736 737 738 739
475 2 737 738 739 740
476 2 738 739 740 741
477 2 739 740 741 742
478 2 740 741 742 743
479 2 741 742 743 744
480 2 742 743 744 745
481 2 743 744 745 746
482 2 744 745 746 747
483 2 745 746 747 748
484 2 746 747 748 749
485 2 747 748 749 750
486 2 801 802 803 804
487 2 802 803 804 805
488 2 803 804 805 806
489 2 804 805 806 807
490 2 805 806 807 808
491 2 806 807 808 809
492 2 807 808 809 810
493 2 808 809 810 811
494 2 809 810 811 812
495 2 810 811 812 813
496 2 811 812 813 814
497 2 812 813 814 815
498 2 813 814 815 816
499 2 814 815 816 817
500 2 815 816 817 818
501 2 816 817 818 819
502 2 817 818 819 820
503 2 818 819 820 821
504 2 819 820 821 822
505 2 820 821 822 823
506 2 821 822 823 824
507 2 822 823 824 825
508 2 823 824 825 826
509 2 824 825 826 827
510 2 825 826 827 828
511 2 826 827 828 829
512 2 827 828 829 830
513 2 828 829 830 831
514 2 829 830 831 832
515 2 830 831 832 833
516 2 831 832 833 834
517 2 832 833 834 835
518 2 833 834 835 836
519 2 834 835 836 837
520 2 835 836 837 838
521 2 836 837 838 839
522 2 837 838 839 840
523 2 838 839 840 841
524 2 839 840 841 842
525 2 840 841 842 843
526 2 841 842 843 844
527 2 842 843 844 845
528 2 843 844 845 846
529 2 844 845 846 847
530 2 845 846 847 848
531 2 846 847 848 849
532 2 847 848 849 850
533 2 848 849 850 851
534 2 849 850 851 852
535 2 850 851 852 853
536 2 851 852 853 854
537 2 852 853 854 855
538 2 853 854 855 856
539 2 854 855 856 857
540 2 855 856 857 858
541 2 856 857 858 859
542 2 857 858 859 860
543 2 858 859 860 861
544 2 859 860 861 862
545 2 860 861 862 863
546 2 861 862 863 864
547 2 862 863 864 865
548 2 863 864 865 866
549 2 864 865 866 867
550 2 865 866 867 868
551 2 866 867 868 869
552 2 867 868 869 870
553 2 868 869 870 871
554 2 869 870 871 872
555 2 870 871 872 873
556 2 871 872 873 874
557 2 872 873 874 875
558 2 873 874 875 876
559 2 874 875 876 877
560 2 875 876 877 878
561 2 876 877 878 879
562 2 877 878 879 880
563 2 878 879 880 881
564 2 879 880 881 882
565 2 880 881 882 883
566 2 881 882 883 884
567 2 882 883 884 885
568 2 883 884 885 886
569 2 884 885 886 887
570 2 885 886 887 888
571 2 886 887 888 889
572 2 887 888 889 890
573 2 888 889 890 891
574 2 889 890 891 892
575 2 890 891 892 893
576 2 891 892 893 894
577 2 892 893 894 895
578 2 893 894 895 896
579 2 894 895 896 897
580 2 895 896 897 898
581 2 896 897 898 899
582 2 897 898 899 900
583 2 951 952 953 954
584 2 952 953 954 955
585 2 953 954 955 956
586 2 954 955 956 957
587 2 955 956 957 958
588 2 956 957 958 959
589 2 957 958 959 960
590 2 958 959 960 961
591 2 959 960 961 962
592 2 960 961 962 963
593 2 961 962 963 964
594 2 962 963 964 965
595 2 963 964 965 966
596 2 964 965 966 967
597 2 965 966 967 968
598 2 966 967 968 969
599 2 967 968 969 970
600 2 968 969 970 971
601 2 969 970 971 972
602 2 970 971 972 973
603 2 971 972 973 974
604 2 972 973 974 975
605 2 973 974 975 976
606 2 974 975 976 977
607 2 975 976 977 978
608 2 976 977 978 979
609 2 977 978 979 980
610 2 978 979 980 981
611 2 979 980 981 982
612 2 980 981 982 983
613 2 981 982 983 984
614 2 982 983 984 985
615 2 983 984 985 986
616 2 984 985 986 987
617 2 985 986 987 988
618 2 986 987 988 989
619 2 987 988 989 990
620 2 988 989 990 991
621 2 989 990 991 992
622 2 990 991 992 993
623 2 991 992 993 994
624 2 992 993 994 995
625 2 993 994 995 996
626 2 994 995 996 997
627 2 995 996 997 998
628 2 996 997 998 999
629 2 997 998 999 1000
630 2 998 999 1000 1001
631 2 999 1000 1001 1002
632 2 1000 1001 1002 1003
633 2 1001 1002 1003 1004
634 2 1002 1003 1004 1005
635 2 1003 1004 1005 1006
636 2 1004 1005 1006 1007
637 2 1005 1006 1007 1008
638 2 1006 1007 1008 1009
639 2 1007 1008 1009 1010
640 2 1008 1009 1010 1011
641 2 1009 1010 1011 1012
642 2 1010 1011 1012 1013
643 2 1011 1012 1013 1014
644 2 1012 1013 1014 1015
645 2 1013 1014 1015 1016
646 2 1014 1015 1016 1017
647 2 1015 1016 1017 1018
648 2 1016 1017 1018 1019
649 2 1017 1018 1019 1020
650 2 1018 1019 1020 1021
651 2 1019 1020 1021 1022
652 2 1020 1021 1022 1023
653 2 1021 1022 1023 1024
654 2 1022 1023 1024 1025
655 2 1023 1024 1025 1026
656 2 1024 1025 1026 1027
657 2 1025 1026 1027 1028
658 2 1026 1027 1028 1029
659 2 1027 1028 1029 1030
660 2 1028 1029 1030 1031
661 2 1029 1030 1031 1032
662 2 1030 1031 1032 1033
663 2 1031 1032 1033 1034
664 2 1032 1033 1034 1035
665 2 1033 1034 1035 1036
666 2 1034 1035 1036 1037
667 2 1035 1036 1037 1038
668 2 1036 1037 1038 1039
669 2 1037 1038 1039 1040
670 2 1038 1039 1040 1041
671 2 1039 1040 1041 1042
672 2 1040 1041 1042 1043
673 2 1041 1042 1043 1044
674 2 1042 1043 1044 1045
675 2 1043 1044 1045 1046
676 2 1044 1045 1046 1047
677 2 1045 1046 1047 1048
678 2 1046 1047 1048 1049
679 2 1047 1048 1049 1050
680 2 1101 1102 1103 1104
681 2 1102 1103 1104 1105
682 2 1103 1104 1105 1106
683 2 1104 1105 1106 1107
684 2 1105 1106 1107 1108
685 2 1106 1107 1108 1109
686 2 1107 1108 1109 1110
687 2 1108 1109 1110 1111
688 2 1109 1110 1111 1112
689 2 1110 1111 1112 1113
690 2 1111 1112 1113 1114
691 2 1112 1113 1114 1115
692 2 1113 1114 1115 1116
693 2 1114 1115 1116 1117
694 2 1115 1116 1117 1118
695 2 1116 1117 1118 1119
696 2 1117 1118 1119 1120
697 2 1118 1119 1120 1121
698 2 1119 1120 1121 1122
699 2 1120 1121 1122 1123
700 2 1121 1122 1123 1124
701 2 1122 1123 1124 1125
702 2 1123 1124 1125 1126
703 2 1124 1125 1126 1127
704 2 1125 1126 1127 1128
705 2 1126 1127 1128 1129
706 2 1127 1128 1129 1130
707 2 1128 1129 1130 1131
708 2 1129 1130 1131 1132
709 2 1130 1131 1132 1133
710 2 1131 1132 1133 1134
711 2 1132 1133 1134 1135
712 2 1133 1134 1135 1136
713 2 1134 1135 1136 1137
714 2 1135 1136 1137 1138
715 2 1136 1137 1138 1139
716 2 1137 1138 1139 1140
717 2 1138 1139 1140 1141
718 2 1139 1140 1141 1142
719 2 1140 1141 1142 1143
720 2 1141 1142 1143 1144
721 2 1142 1143 1144 1145
722 2 1143 1144 1145 1146
723 2 1144 1145 1146 1147
724 2 1145 1146 1147 1148
725 2 1146 1147 1148 1149
726 2 1147 1148 1149 1150
727 2 1148 1149 1150 1151
728 2 1149 1150 1151 1152
729 2 1150 1151 1152 1153
730 2 1151 1152 1153 1154
731 2 1152 1153 1154 1155
732 2 1153 1154 1155 1156
733 2 1154 1155 1156 1157
734 2 1155 1156 1157 1158
735 2 1156 1157 1158 1159
736 2 1157 1158 1159 1160
737 2 1158 1159 1160 1161
738 2 1159 1160 1161 1162
739 2 1160 1161 1162 1163
740 2 1161 1162 1163 1164
741 2 1162 1163 1164 1165
742 2 1163 1164 1165 1166
743 2 1164 1165 1166 1167
744 2 1165 1166 1167 1168
745 2 1166 1167 1168 1169
746 2 1167 1168 1169 1170
747 2 1168 1169 1170 1171
748 2 1169 1170 1171 1172
749 2 1170 1171 1172 1173
750 2 1171 1172 1173 1174
751 2 1172 1173 1174 1175
752 2 1173 1174 1175 1176
753 2 1174 1175 1176 1177
754 2 1175 1176 1177 1178
755 2 1176 1177 1178 1179
756 2 1177 1178 1179 1180
757 2 1178 1179 1180 1181
758 2 1179 1180 1181 1182
759 2 1180 1181 1182 1183
760 2 1181 1182 1183 1184
761 2 1182 1183 1184 1185
762 2 1183 1184 1185 1186
763 2 1184 1185 1186 1187
764 2 1185 1186 1187 1188
765 2 1186 1187 1188 1189
766 2 1187 1188 1189 1190
767 2 1188 1189 1190 1191
768 2 1189 1190 1191 1192
769 2 1190 1191 1192 1193
770 2 1191 1192 1193 1194
771 2 1192 1193 1194 1195
772 2 1193 1194 1195 1196
773 2 1194 1195 1196 1197
774 2 1195 1196 1197 1198
775 2 1196 1197 1198 1199
776 2 1197 1198 1199 1200
777 2 1251 1252 1253 1254
778 2 1252 1253 1254 1255
779 2 1253 1254 1255 1256
780 2 1254 1255 1256 1257
781 2 1255 1256 1257 1258
782 2 1256 1257 1258 1259
783 2 1257 1258 1259 1260
784 2 1258 1259 1260 1261
785 2 1259 1260 1261 1262
786 2 1260 1261 1262 1263
787 2 1261 1262 1263 1264
788 2 1262 1263 1264 1265
789 2 1263 1264 1265 1266
790 2 1264 1265 1266 1267
791 2 1265 1266 1267 1268
792 2 1266 1267 1268 1269
793 2 1267 1268 1269 1270
794 2 1268 1269 1270 1271
795 2 1269 1270 1271 1272
796 2 1270 1271 1272 1273
797 2 1271 1272 1273 1274
798 2 1272 1273 1274 1275
799 2 1273 1274 1275 1276
800 2 1274 1275 1276 1277
801 2 1275 1276 1277 1278
802 2 1276 1277 1278 1279
803 2 1277 1278 1279 1280
804 2 1278 1279 1280 1281
805 2 1279 1280 1281 1282
806 2 1280 1281 1282 1283
807 2 1281 1282 1283 1284
808 2 1282 1283 1284 1285
809 2 1283 1284 1285 1286
810 2 1284 1285 1286 1287
811 2 1285 1286 1287 1288
812 2 1286 1287 1288 1289
813 2 1287 1288 1289 1290
814 2 1288 1289 1290 1291
815 2 1289 1290 1291 1292
816 2 1290 1291 1292 1293
817 2 1291 1292 1293 1294
818 2 1292 1293 1294 1295
819 2 1293 1294 1295 1296
820 2 1294 1295 1296 1297
821 2 1295 1296 1297 1298
822 2 1296 1297 1298 1299
823 2 1297 1298 1299 1300
824 2 1298 1299 1300 1301
825 2 1299 1300 1301 1302
826 2 1300 1301 1302 1303
827 2 1301 1302 1303 1304
828 2 1302 1303 1304 1305
829 2 1303 1304 1305 1306
830 2 1304 1305 1306 1307
831 2 1305 1306 1307 1308
832 2 1306 1307 1308 1309
833 2 1307 1308 1309 1310
834 2 1308 1309 1310 1311
835 2 1309 1310 1311 1312
836 2 1310 1311 1312 1313
837 2 1311 1312 1313 1314
838 2 1312 1313 1314 1315
839 2 1313 1314 1315 1316
840 2 1314 1315 1316 1317
841 2 1315 1316 1317 1318
842 2 1316 1317 1318 1319
843 2 1317 1318 1319 1320
844 2 1318 1319 1320 1321
845 2 1319 1320 1321 1322
846 2 1320 1321 1322 1323
847 2 1321 1322 1323 1324
848 2 1322 1323 1324 1325
849 2 1323 1324 1325 1326
850 2 1324 1325 1326 1327
851 2 1325 1326 1327 1328
852 2 1326 1327 1328 1329
853 2 1327 1328 1329 1330
854 2 1328 1329 1330 1331
855 2 1329 1330 1331 1332
856 2 1330 1331 1332 1333
857 2 1331 1332 1333 1334
858 2 1332 1333 1334 1335
859 2 1333 1334 1335 1336
860 2 1334 1335 1336 1337
861 2 1335 1336 1337 1338
862 2 1336 1337 1338 1339
863 2 1337 1338 1339 1340
864 2 1338 1339 1340 1341
865 2 1339 1340 1341 1342
866 2 1340 1341 1342 1343
867 2 1341 1342 1343 1344
868 2 1342 1343 1344 1345
869 2 1343 1344 1345 1346
870 2 1344 1345 1346 1347
871 2 1345 1346 1347 1348
872 2 1346 1347 1348 1349
873 2 1347 1348 1349 1350
874 2 1401 1402 1403 1404
875 2 1402 1403 1404 1405
876 2 1403 1404 1405 1406
877 2 1404 1405 1406 1407
878 2 1405 1406 1407 1408
879 2 1406 1407 1408 1409
880 2 1407 1408 1409 1410
881 2 1408 1409 1410 1411
882 2 1409 1410 1411 1412
883 2 1410 1411 1412 1413
884 2 1411 1412 1413 1414
885 2 1412 1413 1414 1415
886 2 1413 1414 1415 1416
887 2 1414 1415 1416 1417
888 2 1415 1416 1417 1418
889 2 1416 1417 1418 1419
890 2 1417 1418 1419 1420
891 2 1418 1419 1420 1421
892 2 1419 1420 1421 1422
893 2 1420 1421 1422 1423
894 2 1421 1422 1423 1424
895 2 1422 1423 1424 1425
896 2 1423 1424 1425 1426
897 2 1424 1425 1426 1427
898 2 1425 1426 1427 1428
899 2 1426 1427 1428 1429
900 2 1427 1428 1429 1430
901 2 1428 1429 1430 1431
902 2 1429 1430 1431 1432
903 2 1430 1431 1432 1433
904 2 1431 1432 1433 1434
905 2 1432 1433 1434 1435
906 2 1433 1434 1435 1436
907 2 1434 1435 1436 1437
908 2 1435 1436 1437 1438
909 2 1436 1437 1438 1439
910 2 1437 1438 1439 1440
911 2 1438 1439 1440 1441
912 2 1439 1440 1441 1442
913 2 1440 1441 1442 1443
914 2 1441 1442 1443 1444
915 2 1442 1443 1444 1445
916 2 1443 1444 1445 1446
917 2 1444 1445 1446 1447
918 2 1445 1446 1447 1448
919 2 1446 1447 1448 1449
920 2 1447 1448 1449 1450
921 2 1448 1449 1450 1451
922 2 1449 1450 1451 1452
923 2 1450 1451 1452 1453
924 2 1451 1452 1453 1454
925 2 1452 1453 1454 1455
926 2 1453 1454 1455 1456
927 2 1454 1455 1456 1457
928 2 1455 1456 1457 1458
929 2 1456 1457 1458 1459
930 2 1457 1458 1459 1460
931 2 1458 1459 1460 1461
932 2 1459 1460 1461 1462
933 2 1460 1461 1462 1463
934 2 1461 1462 1463 1464
935 2 1462 1463 1464 1465
936 2 1463 1464 1465 1466
937 2 1464 1465 1466 1467
938 2 1465 1466 1467 1468
939 2 1466 1467 1468 1469
940 2 1467 1468 1469 1470
941 2 1468 1469 1470 1471
942 2 1469 1470 1471 1472
943 2 1470 1471 1472 1473
944 2 1471 1472 1473 1474
945 2 1472 1473 1474 1475
946 2 1473 1474 1475 1476
947 2 1474 1475 1476 1477
948 2 1475 1476 1477 1478
949 2 1476 1477 1478 1479
950 2 1477 1478 1479 1480
951 2 1478 1479 1480 1481
952 2 1479 1480 1481 1482
953 2 1480 1481 1482 1483
954 2 1481 1482 1483 1484
955 2 1482 1483 1484 1485
956 2 1483 1484 1485 1486
957 2 1484 1485 1486 1487
958 2 1485 1486 1487 1488
959 2 1486 1487 1488 1489
960 2 1487 1488 1489 1490
961 2 1488 1489 1490 1491
962 2 1489 1490 1491 1492
963 2 1490 1491 1492 1493
964 2 1491 1492 1493 1494
965 2 1492 1493 1494 1495
966 2 1493 1494 1495 1496
967 2 1494 1495 1496 1497
968 2 1495 1496 1497 1498
969 2 1496 1497 1498 1499
970 2 1497 1498 1499 1500
