# Force field for pe_10.data -- generated by backmap-prep, do not edit

comm_modify cutoff 25.49

pair_style backmap 14.00 lj/cut/coul/cut 14.00 9.00 14.00 table linear 1000
pair_coeff 1 1 cg table_A_A.table ENTRY
pair_coeff 1 2 none
pair_coeff 1 3 none
pair_coeff 1 4 none
pair_coeff 1 5 cg table_A_B.table ENTRY
pair_coeff 2 2 atomistic 0.06599904398 3.5
pair_coeff 2 3 atomistic 0.06599904398 3.5
pair_coeff 2 4 atomistic 0.04449686865 2.958039892
pair_coeff 2 5 none
pair_coeff 3 3 atomistic 0.06599904398 3.5
pair_coeff 3 4 atomistic 0.04449686865 2.958039892
pair_coeff 3 5 none
pair_coeff 4 4 atomistic 0.03 2.5
pair_coeff 4 5 none
pair_coeff 5 5 cg table_B_B.table ENTRY

bond_style hybrid backmap/harmonic backmap/table linear 1000
bond_coeff 1 backmap/harmonic at 268 1.529
bond_coeff 2 backmap/harmonic at 340 1.09
bond_coeff 3 backmap/table cg table_b2.table ENTRY
bond_coeff 4 backmap/table cg table_b1.table ENTRY

angle_style backmap/harmonic
angle_coeff 1 at 37.5 110.7000
angle_coeff 2 at 58.3500239 112.7000
angle_coeff 3 at 33 107.8000

dihedral_style hybrid ryckaert backmap/ryckaert
dihedral_coeff 1 ryckaert 0 -0 0 -0 0 -0
dihedral_coeff 2 backmap/ryckaert at 0 -0 0 -0 0 -0

special_bonds lj 0.0 0.0 0.0 coul 0.0 0.0 0.0

group at_atoms type 2 3 4
group cg_atoms type 1 5

neigh_modify delay 0 every 1 check yes
