# Force field for pe4.data -- generated by backmap-prep, do not edit

comm_modify cutoff 15.00

pair_style backmap 14.00 lj/cut/coul/cut 14.00 9.00 14.00 table linear 1000
pair_coeff 1 1 cg table_A_A.table ENTRY
pair_coeff 1 2 none
pair_coeff 1 3 none
pair_coeff 1 4 cg table_A_B.table ENTRY
pair_coeff 2 2 atomistic 0.2072657744 3.748
pair_coeff 2 3 atomistic 0.1563865945 3.8265
pair_coeff 2 4 none
pair_coeff 3 3 atomistic 0.1179971319 3.905
pair_coeff 3 4 none
pair_coeff 4 4 cg table_B_B.table ENTRY

bond_style hybrid backmap/harmonic backmap/table linear 1000
bond_coeff 1 backmap/harmonic at 316.6826004 1.53
bond_coeff 2 backmap/table cg table_b1.table ENTRY

angle_style hybrid backmap/harmonic backmap/table linear 1000
angle_coeff 1 backmap/harmonic at 62.1414914 111.0000
angle_coeff 2 backmap/table cg table_a1.table ENTRY

dihedral_style hybrid ryckaert backmap/ryckaert backmap/table linear 1000
dihedral_coeff 1 ryckaert 2.217710325 -2.905282027 -3.135779159 0.7312858509 6.271582218 3.225382409
dihedral_coeff 2 backmap/table cg table_d1.table ENTRY
dihedral_coeff 3 backmap/ryckaert at 2.217710325 -2.905282027 -3.135779159 0.7312858509 6.271582218 3.225382409

special_bonds lj 0.0 0.0 0.0 coul 0.0 0.0 0.0

group at_atoms type 2 3
group cg_atoms type 1 4

neigh_modify delay 0 every 1 check yes
