LAMMPS data file — pure CG for equilibration

60 atoms
50 bonds
0 angles
0 dihedrals
0 impropers

2 atom types
1 bond types
0 angle types
0 dihedral types
0 improper types

0.0 57.537600 xlo xhi
0.0 57.537600 ylo yhi
0.0 57.537600 zlo zhi

Masses

1 29.062000 # A (CG)
2 28.054000 # B (CG)

Atoms # full

1 1 1 0.000000 36.710000 17.950000 12.060000
2 1 2 0.000000 37.180000 16.620000 9.960000
3 1 2 0.000000 38.710000 16.810000 8.240000
4 1 2 0.000000 41.060000 16.400000 7.690000
5 1 2 0.000000 43.050000 17.530000 7.300000
6 1 1 0.000000 45.240000 18.060000 7.780000
7 2 1 0.000000 50.720000 25.560000 49.340000
8 2 2 0.000000 50.990000 23.790000 51.150000
9 2 2 0.000000 50.950000 21.930000 52.580000
10 2 2 0.000000 50.630000 20.120000 53.900000
11 2 2 0.000000 52.260000 19.310000 55.010000
12 2 1 0.000000 54.350000 18.330000 55.970000
13 3 1 0.000000 16.650000 56.750000 15.850000
14 3 2 0.000000 18.050000 57.210000 14.080000
15 3 2 0.000000 19.820000 0.480000 12.410000
16 3 2 0.000000 20.860000 2.430000 12.640000
17 3 2 0.000000 21.790000 4.040000 14.190000
18 3 1 0.000000 22.830000 5.620000 15.420000
19 4 1 0.000000 27.320000 22.760000 23.510000
20 4 2 0.000000 26.060000 22.980000 25.390000
21 4 2 0.000000 24.540000 24.450000 26.920000
22 4 2 0.000000 24.090000 26.240000 28.780000
23 4 2 0.000000 23.560000 27.780000 30.430000
24 4 1 0.000000 24.410000 27.570000 32.530000
25 5 1 0.000000 52.930000 50.480000 57.260000
26 5 2 0.000000 51.520000 52.530000 0.150000
27 5 2 0.000000 50.540000 54.630000 0.220000
28 5 2 0.000000 49.240000 56.770000 0.040000
29 5 2 0.000000 49.530000 0.290000 55.630000
30 5 1 0.000000 50.970000 0.410000 53.540000
31 6 1 0.000000 49.450000 41.610000 54.580000
32 6 2 0.000000 50.610000 40.430000 52.950000
33 6 2 0.000000 51.610000 39.390000 51.280000
34 6 2 0.000000 52.840000 37.910000 49.730000
35 6 2 0.000000 53.590000 36.330000 48.200000
36 6 1 0.000000 52.600000 34.420000 47.700000
37 7 1 0.000000 8.100000 3.120000 8.890000
38 7 2 0.000000 6.410000 1.770000 9.420000
39 7 2 0.000000 4.470000 1.610000 8.410000
40 7 2 0.000000 2.700000 3.530000 8.190000
41 7 2 0.000000 1.490000 5.430000 8.000000
42 7 1 0.000000 0.080000 7.420000 7.970000
43 8 1 0.000000 34.760000 14.140000 57.390000
44 8 2 0.000000 32.590000 13.060000 57.070000
45 8 2 0.000000 31.270000 13.200000 54.910000
46 8 2 0.000000 31.140000 12.680000 52.410000
47 8 2 0.000000 30.780000 12.010000 50.090000
48 8 1 0.000000 29.780000 10.520000 48.550000
49 9 1 0.000000 40.720000 42.560000 34.130000
50 9 2 0.000000 38.700000 42.080000 35.420000
51 9 2 0.000000 36.440000 41.110000 35.960000
52 9 2 0.000000 35.570000 39.370000 34.620000
53 9 2 0.000000 37.180000 38.300000 33.540000
54 9 1 0.000000 39.330000 37.480000 32.490000
55 10 1 0.000000 52.290000 6.070000 31.310000
56 10 2 0.000000 52.190000 7.080000 33.340000
57 10 2 0.000000 51.210000 8.310000 35.320000
58 10 2 0.000000 50.160000 9.420000 36.900000
59 10 2 0.000000 48.620000 11.000000 36.910000
60 10 1 0.000000 46.950000 10.890000 35.090000

Bonds

1 1 1 2
2 1 2 3
3 1 3 4
4 1 4 5
5 1 5 6
6 1 7 8
7 1 8 9
8 1 9 10
9 1 10 11
10 1 11 12
11 1 13 14
12 1 14 15
13 1 15 16
14 1 16 17
15 1 17 18
16 1 19 20
17 1 20 21
18 1 21 22
19 1 22 23
20 1 23 24
21 1 25 26
22 1 26 27
23 1 27 28
24 1 28 29
25 1 29 30
26 1 31 32
27 1 32 33
28 1 33 34
29 1 34 35
30 1 35 36
31 1 37 38
32 1 38 39
33 1 39 40
34 1 40 41
35 1 41 42
36 1 43 44
37 1 44 45
38 1 45 46
39 1 46 47
40 1 47 48
41 1 49 50
42 1 50 51
43 1 51 52
44 1 52 53
45 1 53 54
46 1 55 56
47 1 56 57
48 1 57 58
49 1 58 59
50 1 59 60
