# Force field for dodecane.data -- generated by backmap-prep, do not edit

comm_modify cutoff 15.00

pair_style backmap 14.00 lj/cut/coul/cut 14.00 9.00 14.00 table linear 1000
pair_coeff 1 1 cg table_1_1.table ENTRY
pair_coeff 1 2 none
pair_coeff 1 3 none
pair_coeff 1 4 cg table_1_2.table ENTRY
pair_coeff 2 2 atomistic 0.2072539061 3.747918463
pair_coeff 2 3 atomistic 0.14260492 3.905823498
pair_coeff 2 4 none
pair_coeff 3 3 atomistic 0.09812197803 4.070381293
pair_coeff 3 4 none
pair_coeff 4 4 cg table_2_2.table ENTRY

bond_style hybrid backmap/table linear 1000 backmap/gromos
bond_coeff 1 backmap/gromos at 42.72227533 1.53
bond_coeff 2 backmap/table cg table_b1.table ENTRY

angle_style hybrid backmap/table linear 1000 backmap/cosine/squared
angle_coeff 1 backmap/table cg table_a1.table ENTRY
angle_coeff 2 backmap/cosine/squared at 63.33652008 111.0000
angle_coeff 3 backmap/table cg table_a2.table ENTRY

dihedral_style hybrid backmap/harmonic backmap/table linear 1000
dihedral_coeff 1 backmap/table cg table_d1.table ENTRY
dihedral_coeff 2 backmap/harmonic at 1.414913958 1 3

special_bonds lj 0.0 0.0 0.0 coul 0.0 0.0 0.0

group at_atoms type 2 3
group cg_atoms type 1 4

neigh_modify delay 0 every 1 check yes
