LAMMPS data file for backmapping — generated by backmap-prep

1500 atoms
1500 bonds
2100 angles
2550 dihedrals
0 impropers

9 atom types
10 bond types
42 angle types
10 dihedral types
0 improper types

0.0 65.328700 xlo xhi
0.0 65.328700 ylo yhi
0.0 65.328700 zlo zhi

Masses

1 72.066800 # A (CG)
2 14.006700 # opls_902
3 12.011000 # opls_145
4 14.006700 # opls_901
5 12.011000 # opls_157
6 15.999400 # opls_154
7 1.008000 # opls_155
8 1.008000 # opls_156
9 1.008000 # opls_910

Atoms # full

1 1 1 0.000000 39.030000 6.910000 47.960000 0 0 0
2 1 2 -0.901187 40.460000 6.680000 46.400000 0 0 0
3 1 3 0.993526 39.490000 7.650000 46.610000 0 0 0
4 1 4 -0.735566 38.540000 7.400000 47.610000 0 0 0
5 1 5 0.306405 38.920000 6.540000 48.790000 0 0 0
6 1 6 -0.577392 38.010000 6.500000 49.820000 0 0 0
7 1 7 0.367197 37.950000 5.540000 49.990000 0 0 0
8 1 8 0.086304 39.950000 6.770000 49.090000 0 0 0
9 1 8 0.006047 39.260000 5.550000 48.460000 0 0 0
10 1 9 0.395381 37.930000 8.210000 47.570000 0 0 0
11 2 1 0.000000 38.210000 2.720000 45.300000 0 0 0
12 2 2 -0.723387 37.900000 1.080000 46.940000 0 0 0
13 2 3 0.686578 38.870000 1.450000 46.120000 0 0 0
14 2 4 -0.702118 38.530000 2.340000 45.090000 0 0 0
15 2 5 0.467850 37.720000 3.570000 44.900000 0 0 0
16 2 6 -0.628009 38.140000 4.530000 43.840000 0 0 0
17 2 7 0.394768 37.630000 5.350000 44.010000 0 0 0
18 2 8 -0.031221 37.850000 4.260000 45.750000 0 0 0
19 2 8 0.031089 36.630000 3.580000 45.000000 0 0 0
20 2 9 0.384852 39.420000 2.270000 44.610000 0 0 0
21 3 1 0.000000 38.370000 6.660000 43.430000 0 0 0
22 3 2 -0.541197 37.210000 8.600000 43.480000 0 0 0
23 3 3 0.826629 37.380000 7.540000 44.270000 0 0 0
24 3 4 -0.720973 38.180000 6.450000 43.950000 0 0 0
25 3 5 0.324077 39.040000 6.240000 42.760000 0 0 0
26 3 6 -0.633848 39.590000 4.970000 42.950000 0 0 0
27 3 7 0.421918 40.040000 4.770000 42.110000 0 0 0
28 3 8 0.026269 39.810000 6.980000 43.010000 0 0 0
29 3 8 0.072727 38.580000 6.350000 41.770000 0 0 0
30 3 9 0.403281 38.380000 5.820000 44.710000 0 0 0
31 4 1 0.000000 41.080000 24.720000 0.730000 0 0 0
32 4 2 -0.901187 42.510000 24.490000 64.498700 0 0 -1
33 4 3 0.993526 41.540000 25.460000 64.708700 0 0 -1
34 4 4 -0.735566 40.590000 25.210000 0.380000 0 0 0
35 4 5 0.306405 40.970000 24.350000 1.560000 0 0 0
36 4 6 -0.577392 40.060000 24.310000 2.590000 0 0 0
37 4 7 0.367197 40.000000 23.350000 2.760000 0 0 0
38 4 8 0.086304 42.000000 24.580000 1.860000 0 0 0
39 4 8 0.006047 41.310000 23.360000 1.230000 0 0 0
40 4 9 0.395381 39.980000 26.020000 0.340000 0 0 0
41 5 1 0.000000 46.330000 25.520000 0.620000 0 0 0
42 5 2 -0.723387 46.020000 23.880000 2.260000 0 0 0
43 5 3 0.686578 46.990000 24.250000 1.440000 0 0 0
44 5 4 -0.702118 46.650000 25.140000 0.410000 0 0 0
45 5 5 0.467850 45.840000 26.370000 0.220000 0 0 0
46 5 6 -0.628009 46.260000 27.330000 64.488700 0 0 -1
47 5 7 0.394768 45.750000 28.150000 64.658700 0 0 -1
48 5 8 -0.031221 45.970000 27.060000 1.070000 0 0 0
49 5 8 0.031089 44.750000 26.380000 0.320000 0 0 0
50 5 9 0.384852 47.540000 25.070000 65.258700 0 0 -1
51 6 1 0.000000 44.120000 21.220000 65.268700 0 0 -1
52 6 2 -0.541197 42.960000 23.160000 65.318700 0 0 -1
53 6 3 0.826629 43.130000 22.100000 0.780000 0 0 0
54 6 4 -0.720973 43.930000 21.010000 0.460000 0 0 0
55 6 5 0.324077 44.790000 20.800000 64.598700 0 0 -1
56 6 6 -0.633848 45.340000 19.530000 64.788700 0 0 -1
57 6 7 0.421918 45.790000 19.330000 63.948700 0 0 -1
58 6 8 0.026269 45.560000 21.540000 64.848700 0 0 -1
59 6 8 0.072727 44.330000 20.910000 63.608700 0 0 -1
60 6 9 0.403281 44.130000 20.380000 1.220000 0 0 0
61 7 1 0.000000 35.220000 30.770000 61.180000 0 0 0
62 7 2 -0.901187 36.650000 30.540000 59.620000 0 0 0
63 7 3 0.993526 35.680000 31.510000 59.830000 0 0 0
64 7 4 -0.735566 34.730000 31.260000 60.830000 0 0 0
65 7 5 0.306405 35.110000 30.400000 62.010000 0 0 0
66 7 6 -0.577392 34.200000 30.360000 63.040000 0 0 0
67 7 7 0.367197 34.140000 29.400000 63.210000 0 0 0
68 7 8 0.086304 36.140000 30.630000 62.310000 0 0 0
69 7 8 0.006047 35.450000 29.410000 61.680000 0 0 0
70 7 9 0.395381 34.120000 32.070000 60.790000 0 0 0
71 8 1 0.000000 38.030000 34.630000 61.320000 0 0 0
72 8 2 -0.723387 37.720000 32.990000 62.960000 0 0 0
73 8 3 0.686578 38.690000 33.360000 62.140000 0 0 0
74 8 4 -0.702118 38.350000 34.250000 61.110000 0 0 0
75 8 5 0.467850 37.540000 35.480000 60.920000 0 0 0
76 8 6 -0.628009 37.960000 36.440000 59.860000 0 0 0
77 8 7 0.394768 37.450000 37.260000 60.030000 0 0 0
78 8 8 -0.031221 37.670000 36.170000 61.770000 0 0 0
79 8 8 0.031089 36.450000 35.490000 61.020000 0 0 0
80 8 9 0.384852 39.240000 34.180000 60.630000 0 0 0
81 9 1 0.000000 39.290000 30.260000 59.010000 0 0 0
82 9 2 -0.541197 38.130000 32.200000 59.060000 0 0 0
83 9 3 0.826629 38.300000 31.140000 59.850000 0 0 0
84 9 4 -0.720973 39.100000 30.050000 59.530000 0 0 0
85 9 5 0.324077 39.960000 29.840000 58.340000 0 0 0
86 9 6 -0.633848 40.510000 28.570000 58.530000 0 0 0
87 9 7 0.421918 40.960000 28.370000 57.690000 0 0 0
88 9 8 0.026269 40.730000 30.580000 58.590000 0 0 0
89 9 8 0.072727 39.500000 29.950000 57.350000 0 0 0
90 9 9 0.403281 39.300000 29.420000 60.290000 0 0 0
91 10 1 0.000000 60.440000 12.710000 53.690000 0 0 0
92 10 2 -0.901187 61.870000 12.480000 52.130000 0 0 0
93 10 3 0.993526 60.900000 13.450000 52.340000 0 0 0
94 10 4 -0.735566 59.950000 13.200000 53.340000 0 0 0
95 10 5 0.306405 60.330000 12.340000 54.520000 0 0 0
96 10 6 -0.577392 59.420000 12.300000 55.550000 0 0 0
97 10 7 0.367197 59.360000 11.340000 55.720000 0 0 0
98 10 8 0.086304 61.360000 12.570000 54.820000 0 0 0
99 10 8 0.006047 60.670000 11.350000 54.190000 0 0 0
100 10 9 0.395381 59.340000 14.010000 53.300000 0 0 0
101 11 1 0.000000 59.190000 16.340000 55.920000 0 0 0
102 11 2 -0.723387 58.880000 14.700000 57.560000 0 0 0
103 11 3 0.686578 59.850000 15.070000 56.740000 0 0 0
104 11 4 -0.702118 59.510000 15.960000 55.710000 0 0 0
105 11 5 0.467850 58.700000 17.190000 55.520000 0 0 0
106 11 6 -0.628009 59.120000 18.150000 54.460000 0 0 0
107 11 7 0.394768 58.610000 18.970000 54.630000 0 0 0
108 11 8 -0.031221 58.830000 17.880000 56.370000 0 0 0
109 11 8 0.031089 57.610000 17.200000 55.620000 0 0 0
110 11 9 0.384852 60.400000 15.890000 55.230000 0 0 0
111 12 1 0.000000 62.880000 13.330000 57.390000 0 0 0
112 12 2 -0.541197 61.720000 15.270000 57.440000 0 0 0
113 12 3 0.826629 61.890000 14.210000 58.230000 0 0 0
114 12 4 -0.720973 62.690000 13.120000 57.910000 0 0 0
115 12 5 0.324077 63.550000 12.910000 56.720000 0 0 0
116 12 6 -0.633848 64.100000 11.640000 56.910000 0 0 0
117 12 7 0.421918 64.550000 11.440000 56.070000 0 0 0
118 12 8 0.026269 64.320000 13.650000 56.970000 0 0 0
119 12 8 0.072727 63.090000 13.020000 55.730000 0 0 0
120 12 9 0.403281 62.890000 12.490000 58.670000 0 0 0
121 13 1 0.000000 44.630000 16.930000 2.600000 0 0 0
122 13 2 -0.901187 46.060000 16.700000 1.040000 0 0 0
123 13 3 0.993526 45.090000 17.670000 1.250000 0 0 0
124 13 4 -0.735566 44.140000 17.420000 2.250000 0 0 0
125 13 5 0.306405 44.520000 16.560000 3.430000 0 0 0
126 13 6 -0.577392 43.610000 16.520000 4.460000 0 0 0
127 13 7 0.367197 43.550000 15.560000 4.630000 0 0 0
128 13 8 0.086304 45.550000 16.790000 3.730000 0 0 0
129 13 8 0.006047 44.860000 15.570000 3.100000 0 0 0
130 13 9 0.395381 43.530000 18.230000 2.210000 0 0 0
131 14 1 0.000000 42.490000 14.880000 64.818700 0 0 -1
132 14 2 -0.723387 42.180000 13.240000 1.130000 0 0 0
133 14 3 0.686578 43.150000 13.610000 0.310000 0 0 0
134 14 4 -0.702118 42.810000 14.500000 64.608700 0 0 -1
135 14 5 0.467850 42.000000 15.730000 64.418700 0 0 -1
136 14 6 -0.628009 42.420000 16.690000 63.358700 0 0 -1
137 14 7 0.394768 41.910000 17.510000 63.528700 0 0 -1
138 14 8 -0.031221 42.130000 16.420000 65.268700 0 0 -1
139 14 8 0.031089 40.910000 15.740000 64.518700 0 0 -1
140 14 9 0.384852 43.700000 14.430000 64.128700 0 0 -1
141 15 1 0.000000 46.300000 17.680000 63.128700 0 0 -1
142 15 2 -0.541197 45.140000 19.620000 63.178700 0 0 -1
143 15 3 0.826629 45.310000 18.560000 63.968700 0 0 -1
144 15 4 -0.720973 46.110000 17.470000 63.648700 0 0 -1
145 15 5 0.324077 46.970000 17.260000 62.458700 0 0 -1
146 15 6 -0.633848 47.520000 15.990000 62.648700 0 0 -1
147 15 7 0.421918 47.970000 15.790000 61.808700 0 0 -1
148 15 8 0.026269 47.740000 18.000000 62.708700 0 0 -1
149 15 8 0.072727 46.510000 17.370000 61.468700 0 0 -1
150 15 9 0.403281 46.310000 16.840000 64.408700 0 0 -1
151 16 1 0.000000 9.130000 29.270000 10.130000 0 0 0
152 16 2 -0.901187 10.560000 29.040000 8.570000 0 0 0
153 16 3 0.993526 9.590000 30.010000 8.780000 0 0 0
154 16 4 -0.735566 8.640000 29.760000 9.780000 0 0 0
155 16 5 0.306405 9.020000 28.900000 10.960000 0 0 0
156 16 6 -0.577392 8.110000 28.860000 11.990000 0 0 0
157 16 7 0.367197 8.050000 27.900000 12.160000 0 0 0
158 16 8 0.086304 10.050000 29.130000 11.260000 0 0 0
159 16 8 0.006047 9.360000 27.910000 10.630000 0 0 0
160 16 9 0.395381 8.030000 30.570000 9.740000 0 0 0
161 17 1 0.000000 12.490000 32.420000 8.320000 0 0 0
162 17 2 -0.723387 12.180000 30.780000 9.960000 0 0 0
163 17 3 0.686578 13.150000 31.150000 9.140000 0 0 0
164 17 4 -0.702118 12.810000 32.040000 8.110000 0 0 0
165 17 5 0.467850 12.000000 33.270000 7.920000 0 0 0
166 17 6 -0.628009 12.420000 34.230000 6.860000 0 0 0
167 17 7 0.394768 11.910000 35.050000 7.030000 0 0 0
168 17 8 -0.031221 12.130000 33.960000 8.770000 0 0 0
169 17 8 0.031089 10.910000 33.280000 8.020000 0 0 0
170 17 9 0.384852 13.700000 31.970000 7.630000 0 0 0
171 18 1 0.000000 12.660000 30.090000 12.720000 0 0 0
172 18 2 -0.541197 11.500000 32.030000 12.770000 0 0 0
173 18 3 0.826629 11.670000 30.970000 13.560000 0 0 0
174 18 4 -0.720973 12.470000 29.880000 13.240000 0 0 0
175 18 5 0.324077 13.330000 29.670000 12.050000 0 0 0
176 18 6 -0.633848 13.880000 28.400000 12.240000 0 0 0
177 18 7 0.421918 14.330000 28.200000 11.400000 0 0 0
178 18 8 0.026269 14.100000 30.410000 12.300000 0 0 0
179 18 8 0.072727 12.870000 29.780000 11.060000 0 0 0
180 18 9 0.403281 12.670000 29.250000 14.000000 0 0 0
181 19 1 0.000000 53.880000 15.050000 26.930000 0 0 0
182 19 2 -0.901187 55.310000 14.820000 25.370000 0 0 0
183 19 3 0.993526 54.340000 15.790000 25.580000 0 0 0
184 19 4 -0.735566 53.390000 15.540000 26.580000 0 0 0
185 19 5 0.306405 53.770000 14.680000 27.760000 0 0 0
186 19 6 -0.577392 52.860000 14.640000 28.790000 0 0 0
187 19 7 0.367197 52.800000 13.680000 28.960000 0 0 0
188 19 8 0.086304 54.800000 14.910000 28.060000 0 0 0
189 19 8 0.006047 54.110000 13.690000 27.430000 0 0 0
190 19 9 0.395381 52.780000 16.350000 26.540000 0 0 0
191 20 1 0.000000 57.870000 13.090000 25.050000 0 0 0
192 20 2 -0.723387 57.560000 11.450000 26.690000 0 0 0
193 20 3 0.686578 58.530000 11.820000 25.870000 0 0 0
194 20 4 -0.702118 58.190000 12.710000 24.840000 0 0 0
195 20 5 0.467850 57.380000 13.940000 24.650000 0 0 0
196 20 6 -0.628009 57.800000 14.900000 23.590000 0 0 0
197 20 7 0.394768 57.290000 15.720000 23.760000 0 0 0
198 20 8 -0.031221 57.510000 14.630000 25.500000 0 0 0
199 20 8 0.031089 56.290000 13.950000 24.750000 0 0 0
200 20 9 0.384852 59.080000 12.640000 24.360000 0 0 0
201 21 1 0.000000 57.160000 16.980000 26.410000 0 0 0
202 21 2 -0.541197 56.000000 18.920000 26.460000 0 0 0
203 21 3 0.826629 56.170000 17.860000 27.250000 0 0 0
204 21 4 -0.720973 56.970000 16.770000 26.930000 0 0 0
205 21 5 0.324077 57.830000 16.560000 25.740000 0 0 0
206 21 6 -0.633848 58.380000 15.290000 25.930000 0 0 0
207 21 7 0.421918 58.830000 15.090000 25.090000 0 0 0
208 21 8 0.026269 58.600000 17.300000 25.990000 0 0 0
209 21 8 0.072727 57.370000 16.670000 24.750000 0 0 0
210 21 9 0.403281 57.170000 16.140000 27.690000 0 0 0
211 22 1 0.000000 48.720000 42.070000 35.250000 0 0 0
212 22 2 -0.901187 50.150000 41.840000 33.690000 0 0 0
213 22 3 0.993526 49.180000 42.810000 33.900000 0 0 0
214 22 4 -0.735566 48.230000 42.560000 34.900000 0 0 0
215 22 5 0.306405 48.610000 41.700000 36.080000 0 0 0
216 22 6 -0.577392 47.700000 41.660000 37.110000 0 0 0
217 22 7 0.367197 47.640000 40.700000 37.280000 0 0 0
218 22 8 0.086304 49.640000 41.930000 36.380000 0 0 0
219 22 8 0.006047 48.950000 40.710000 35.750000 0 0 0
220 22 9 0.395381 47.620000 43.370000 34.860000 0 0 0
221 23 1 0.000000 45.130000 41.100000 32.120000 0 0 0
222 23 2 -0.723387 44.820000 39.460000 33.760000 0 0 0
223 23 3 0.686578 45.790000 39.830000 32.940000 0 0 0
224 23 4 -0.702118 45.450000 40.720000 31.910000 0 0 0
225 23 5 0.467850 44.640000 41.950000 31.720000 0 0 0
226 23 6 -0.628009 45.060000 42.910000 30.660000 0 0 0
227 23 7 0.394768 44.550000 43.730000 30.830000 0 0 0
228 23 8 -0.031221 44.770000 42.640000 32.570000 0 0 0
229 23 8 0.031089 43.550000 41.960000 31.820000 0 0 0
230 23 9 0.384852 46.340000 40.650000 31.430000 0 0 0
231 24 1 0.000000 43.960000 39.900000 35.650000 0 0 0
232 24 2 -0.541197 42.800000 41.840000 35.700000 0 0 0
233 24 3 0.826629 42.970000 40.780000 36.490000 0 0 0
234 24 4 -0.720973 43.770000 39.690000 36.170000 0 0 0
235 24 5 0.324077 44.630000 39.480000 34.980000 0 0 0
236 24 6 -0.633848 45.180000 38.210000 35.170000 0 0 0
237 24 7 0.421918 45.630000 38.010000 34.330000 0 0 0
238 24 8 0.026269 45.400000 40.220000 35.230000 0 0 0
239 24 8 0.072727 44.170000 39.590000 33.990000 0 0 0
240 24 9 0.403281 43.970000 39.060000 36.930000 0 0 0
241 25 1 0.000000 27.540000 57.830000 26.890000 0 0 0
242 25 2 -0.901187 28.970000 57.600000 25.330000 0 0 0
243 25 3 0.993526 28.000000 58.570000 25.540000 0 0 0
244 25 4 -0.735566 27.050000 58.320000 26.540000 0 0 0
245 25 5 0.306405 27.430000 57.460000 27.720000 0 0 0
246 25 6 -0.577392 26.520000 57.420000 28.750000 0 0 0
247 25 7 0.367197 26.460000 56.460000 28.920000 0 0 0
248 25 8 0.086304 28.460000 57.690000 28.020000 0 0 0
249 25 8 0.006047 27.770000 56.470000 27.390000 0 0 0
250 25 9 0.395381 26.440000 59.130000 26.500000 0 0 0
251 26 1 0.000000 28.930000 58.880000 23.420000 0 0 0
252 26 2 -0.723387 28.620000 57.240000 25.060000 0 0 0
253 26 3 0.686578 29.590000 57.610000 24.240000 0 0 0
254 26 4 -0.702118 29.250000 58.500000 23.210000 0 0 0
255 26 5 0.467850 28.440000 59.730000 23.020000 0 0 0
256 26 6 -0.628009 28.860000 60.690000 21.960000 0 0 0
257 26 7 0.394768 28.350000 61.510000 22.130000 0 0 0
258 26 8 -0.031221 28.570000 60.420000 23.870000 0 0 0
259 26 8 0.031089 27.350000 59.740000 23.120000 0 0 0
260 26 9 0.384852 30.140000 58.430000 22.730000 0 0 0
261 27 1 0.000000 30.730000 54.720000 25.070000 0 0 0
262 27 2 -0.541197 29.570000 56.660000 25.120000 0 0 0
263 27 3 0.826629 29.740000 55.600000 25.910000 0 0 0
264 27 4 -0.720973 30.540000 54.510000 25.590000 0 0 0
265 27 5 0.324077 31.400000 54.300000 24.400000 0 0 0
266 27 6 -0.633848 31.950000 53.030000 24.590000 0 0 0
267 27 7 0.421918 32.400000 52.830000 23.750000 0 0 0
268 27 8 0.026269 32.170000 55.040000 24.650000 0 0 0
269 27 8 0.072727 30.940000 54.410000 23.410000 0 0 0
270 27 9 0.403281 30.740000 53.880000 26.350000 0 0 0
271 28 1 0.000000 22.560000 14.680000 13.800000 0 0 0
272 28 2 -0.901187 23.990000 14.450000 12.240000 0 0 0
273 28 3 0.993526 23.020000 15.420000 12.450000 0 0 0
274 28 4 -0.735566 22.070000 15.170000 13.450000 0 0 0
275 28 5 0.306405 22.450000 14.310000 14.630000 0 0 0
276 28 6 -0.577392 21.540000 14.270000 15.660000 0 0 0
277 28 7 0.367197 21.480000 13.310000 15.830000 0 0 0
278 28 8 0.086304 23.480000 14.540000 14.930000 0 0 0
279 28 8 0.006047 22.790000 13.320000 14.300000 0 0 0
280 28 9 0.395381 21.460000 15.980000 13.410000 0 0 0
281 29 1 0.000000 18.410000 14.880000 11.440000 0 0 0
282 29 2 -0.723387 18.100000 13.240000 13.080000 0 0 0
283 29 3 0.686578 19.070000 13.610000 12.260000 0 0 0
284 29 4 -0.702118 18.730000 14.500000 11.230000 0 0 0
285 29 5 0.467850 17.920000 15.730000 11.040000 0 0 0
286 29 6 -0.628009 18.340000 16.690000 9.980000 0 0 0
287 29 7 0.394768 17.830000 17.510000 10.150000 0 0 0
288 29 8 -0.031221 18.050000 16.420000 11.890000 0 0 0
289 29 8 0.031089 16.830000 15.740000 11.140000 0 0 0
290 29 9 0.384852 19.620000 14.430000 10.750000 0 0 0
291 30 1 0.000000 19.470000 18.120000 14.600000 0 0 0
292 30 2 -0.541197 18.310000 20.060000 14.650000 0 0 0
293 30 3 0.826629 18.480000 19.000000 15.440000 0 0 0
294 30 4 -0.720973 19.280000 17.910000 15.120000 0 0 0
295 30 5 0.324077 20.140000 17.700000 13.930000 0 0 0
296 30 6 -0.633848 20.690000 16.430000 14.120000 0 0 0
297 30 7 0.421918 21.140000 16.230000 13.280000 0 0 0
298 30 8 0.026269 20.910000 18.440000 14.180000 0 0 0
299 30 8 0.072727 19.680000 17.810000 12.940000 0 0 0
300 30 9 0.403281 19.480000 17.280000 15.880000 0 0 0
301 31 1 0.000000 11.060000 32.450000 20.450000 0 0 0
302 31 2 -0.901187 12.490000 32.220000 18.890000 0 0 0
303 31 3 0.993526 11.520000 33.190000 19.100000 0 0 0
304 31 4 -0.735566 10.570000 32.940000 20.100000 0 0 0
305 31 5 0.306405 10.950000 32.080000 21.280000 0 0 0
306 31 6 -0.577392 10.040000 32.040000 22.310000 0 0 0
307 31 7 0.367197 9.980000 31.080000 22.480000 0 0 0
308 31 8 0.086304 11.980000 32.310000 21.580000 0 0 0
309 31 8 0.006047 11.290000 31.090000 20.950000 0 0 0
310 31 9 0.395381 9.960000 33.750000 20.060000 0 0 0
311 32 1 0.000000 13.920000 32.340000 24.410000 0 0 0
312 32 2 -0.723387 13.610000 30.700000 26.050000 0 0 0
313 32 3 0.686578 14.580000 31.070000 25.230000 0 0 0
314 32 4 -0.702118 14.240000 31.960000 24.200000 0 0 0
315 32 5 0.467850 13.430000 33.190000 24.010000 0 0 0
316 32 6 -0.628009 13.850000 34.150000 22.950000 0 0 0
317 32 7 0.394768 13.340000 34.970000 23.120000 0 0 0
318 32 8 -0.031221 13.560000 33.880000 24.860000 0 0 0
319 32 8 0.031089 12.340000 33.200000 24.110000 0 0 0
320 32 9 0.384852 15.130000 31.890000 23.720000 0 0 0
321 33 1 0.000000 11.400000 29.050000 23.090000 0 0 0
322 33 2 -0.541197 10.240000 30.990000 23.140000 0 0 0
323 33 3 0.826629 10.410000 29.930000 23.930000 0 0 0
324 33 4 -0.720973 11.210000 28.840000 23.610000 0 0 0
325 33 5 0.324077 12.070000 28.630000 22.420000 0 0 0
326 33 6 -0.633848 12.620000 27.360000 22.610000 0 0 0
327 33 7 0.421918 13.070000 27.160000 21.770000 0 0 0
328 33 8 0.026269 12.840000 29.370000 22.670000 0 0 0
329 33 8 0.072727 11.610000 28.740000 21.430000 0 0 0
330 33 9 0.403281 11.410000 28.210000 24.370000 0 0 0
331 34 1 0.000000 33.770000 50.540000 38.000000 0 0 0
332 34 2 -0.901187 35.200000 50.310000 36.440000 0 0 0
333 34 3 0.993526 34.230000 51.280000 36.650000 0 0 0
334 34 4 -0.735566 33.280000 51.030000 37.650000 0 0 0
335 34 5 0.306405 33.660000 50.170000 38.830000 0 0 0
336 34 6 -0.577392 32.750000 50.130000 39.860000 0 0 0
337 34 7 0.367197 32.690000 49.170000 40.030000 0 0 0
338 34 8 0.086304 34.690000 50.400000 39.130000 0 0 0
339 34 8 0.006047 34.000000 49.180000 38.500000 0 0 0
340 34 9 0.395381 32.670000 51.840000 37.610000 0 0 0
341 35 1 0.000000 31.610000 53.330000 41.730000 0 0 0
342 35 2 -0.723387 31.300000 51.690000 43.370000 0 0 0
343 35 3 0.686578 32.270000 52.060000 42.550000 0 0 0
344 35 4 -0.702118 31.930000 52.950000 41.520000 0 0 0
345 35 5 0.467850 31.120000 54.180000 41.330000 0 0 0
346 35 6 -0.628009 31.540000 55.140000 40.270000 0 0 0
347 35 7 0.394768 31.030000 55.960000 40.440000 0 0 0
348 35 8 -0.031221 31.250000 54.870000 42.180000 0 0 0
349 35 8 0.031089 30.030000 54.190000 41.430000 0 0 0
350 35 9 0.384852 32.820000 52.880000 41.040000 0 0 0
351 36 1 0.000000 29.840000 49.400000 39.710000 0 0 0
352 36 2 -0.541197 28.680000 51.340000 39.760000 0 0 0
353 36 3 0.826629 28.850000 50.280000 40.550000 0 0 0
354 36 4 -0.720973 29.650000 49.190000 40.230000 0 0 0
355 36 5 0.324077 30.510000 48.980000 39.040000 0 0 0
356 36 6 -0.633848 31.060000 47.710000 39.230000 0 0 0
357 36 7 0.421918 31.510000 47.510000 38.390000 0 0 0
358 36 8 0.026269 31.280000 49.720000 39.290000 0 0 0
359 36 8 0.072727 30.050000 49.090000 38.050000 0 0 0
360 36 9 0.403281 29.850000 48.560000 40.990000 0 0 0
361 37 1 0.000000 10.990000 22.640000 42.550000 0 0 0
362 37 2 -0.901187 12.420000 22.410000 40.990000 0 0 0
363 37 3 0.993526 11.450000 23.380000 41.200000 0 0 0
364 37 4 -0.735566 10.500000 23.130000 42.200000 0 0 0
365 37 5 0.306405 10.880000 22.270000 43.380000 0 0 0
366 37 6 -0.577392 9.970000 22.230000 44.410000 0 0 0
367 37 7 0.367197 9.910000 21.270000 44.580000 0 0 0
368 37 8 0.086304 11.910000 22.500000 43.680000 0 0 0
369 37 8 0.006047 11.220000 21.280000 43.050000 0 0 0
370 37 9 0.395381 9.890000 23.940000 42.160000 0 0 0
371 38 1 0.000000 12.380000 22.460000 38.260000 0 0 0
372 38 2 -0.723387 12.070000 20.820000 39.900000 0 0 0
373 38 3 0.686578 13.040000 21.190000 39.080000 0 0 0
374 38 4 -0.702118 12.700000 22.080000 38.050000 0 0 0
375 38 5 0.467850 11.890000 23.310000 37.860000 0 0 0
376 38 6 -0.628009 12.310000 24.270000 36.800000 0 0 0
377 38 7 0.394768 11.800000 25.090000 36.970000 0 0 0
378 38 8 -0.031221 12.020000 24.000000 38.710000 0 0 0
379 38 8 0.031089 10.800000 23.320000 37.960000 0 0 0
380 38 9 0.384852 13.590000 22.010000 37.570000 0 0 0
381 39 1 0.000000 14.420000 19.930000 42.100000 0 0 0
382 39 2 -0.541197 13.260000 21.870000 42.150000 0 0 0
383 39 3 0.826629 13.430000 20.810000 42.940000 0 0 0
384 39 4 -0.720973 14.230000 19.720000 42.620000 0 0 0
385 39 5 0.324077 15.090000 19.510000 41.430000 0 0 0
386 39 6 -0.633848 15.640000 18.240000 41.620000 0 0 0
387 39 7 0.421918 16.090000 18.040000 40.780000 0 0 0
388 39 8 0.026269 15.860000 20.250000 41.680000 0 0 0
389 39 8 0.072727 14.630000 19.620000 40.440000 0 0 0
390 39 9 0.403281 14.430000 19.090000 43.380000 0 0 0
391 40 1 0.000000 5.660000 0.630000 30.860000 0 0 0
392 40 2 -0.901187 7.090000 0.400000 29.300000 0 0 0
393 40 3 0.993526 6.120000 1.370000 29.510000 0 0 0
394 40 4 -0.735566 5.170000 1.120000 30.510000 0 0 0
395 40 5 0.306405 5.550000 0.260000 31.690000 0 0 0
396 40 6 -0.577392 4.640000 0.220000 32.720000 0 0 0
397 40 7 0.367197 4.580000 64.588700 32.890000 0 -1 0
398 40 8 0.086304 6.580000 0.490000 31.990000 0 0 0
399 40 8 0.006047 5.890000 64.598700 31.360000 0 -1 0
400 40 9 0.395381 4.560000 1.930000 30.470000 0 0 0
401 41 1 0.000000 8.060000 61.908700 30.060000 0 -1 0
402 41 2 -0.723387 7.750000 60.268700 31.700000 0 -1 0
403 41 3 0.686578 8.720000 60.638700 30.880000 0 -1 0
404 41 4 -0.702118 8.380000 61.528700 29.850000 0 -1 0
405 41 5 0.467850 7.570000 62.758700 29.660000 0 -1 0
406 41 6 -0.628009 7.990000 63.718700 28.600000 0 -1 0
407 41 7 0.394768 7.480000 64.538700 28.770000 0 -1 0
408 41 8 -0.031221 7.700000 63.448700 30.510000 0 -1 0
409 41 8 0.031089 6.480000 62.768700 29.760000 0 -1 0
410 41 9 0.384852 9.270000 61.458700 29.370000 0 -1 0
411 42 1 0.000000 6.260000 63.738700 26.990000 0 -1 0
412 42 2 -0.541197 5.100000 0.350000 27.040000 0 0 0
413 42 3 0.826629 5.270000 64.618700 27.830000 0 -1 0
414 42 4 -0.720973 6.070000 63.528700 27.510000 0 -1 0
415 42 5 0.324077 6.930000 63.318700 26.320000 0 -1 0
416 42 6 -0.633848 7.480000 62.048700 26.510000 0 -1 0
417 42 7 0.421918 7.930000 61.848700 25.670000 0 -1 0
418 42 8 0.026269 7.700000 64.058700 26.570000 0 -1 0
419 42 8 0.072727 6.470000 63.428700 25.330000 0 -1 0
420 42 9 0.403281 6.270000 62.898700 28.270000 0 -1 0
421 43 1 0.000000 25.680000 49.490000 64.750000 0 0 0
422 43 2 -0.901187 27.110000 49.260000 63.190000 0 0 0
423 43 3 0.993526 26.140000 50.230000 63.400000 0 0 0
424 43 4 -0.735566 25.190000 49.980000 64.400000 0 0 0
425 43 5 0.306405 25.570000 49.120000 0.251300 0 0 1
426 43 6 -0.577392 24.660000 49.080000 1.281300 0 0 1
427 43 7 0.367197 24.600000 48.120000 1.451300 0 0 1
428 43 8 0.086304 26.600000 49.350000 0.551300 0 0 1
429 43 8 0.006047 25.910000 48.130000 65.250000 0 0 0
430 43 9 0.395381 24.580000 50.790000 64.360000 0 0 0
431 44 1 0.000000 29.290000 52.290000 64.440000 0 0 0
432 44 2 -0.723387 28.980000 50.650000 0.751300 0 0 1
433 44 3 0.686578 29.950000 51.020000 65.260000 0 0 0
434 44 4 -0.702118 29.610000 51.910000 64.230000 0 0 0
435 44 5 0.467850 28.800000 53.140000 64.040000 0 0 0
436 44 6 -0.628009 29.220000 54.100000 62.980000 0 0 0
437 44 7 0.394768 28.710000 54.920000 63.150000 0 0 0
438 44 8 -0.031221 28.930000 53.830000 64.890000 0 0 0
439 44 8 0.031089 27.710000 53.150000 64.140000 0 0 0
440 44 9 0.384852 30.500000 51.840000 63.750000 0 0 0
441 45 1 0.000000 24.340000 53.420000 64.070000 0 0 0
442 45 2 -0.541197 23.180000 55.360000 64.120000 0 0 0
443 45 3 0.826629 23.350000 54.300000 64.910000 0 0 0
444 45 4 -0.720973 24.150000 53.210000 64.590000 0 0 0
445 45 5 0.324077 25.010000 53.000000 63.400000 0 0 0
446 45 6 -0.633848 25.560000 51.730000 63.590000 0 0 0
447 45 7 0.421918 26.010000 51.530000 62.750000 0 0 0
448 45 8 0.026269 25.780000 53.740000 63.650000 0 0 0
449 45 8 0.072727 24.550000 53.110000 62.410000 0 0 0
450 45 9 0.403281 24.350000 52.580000 0.021300 0 0 1
451 46 1 0.000000 4.780000 18.270000 51.560000 0 0 0
452 46 2 -0.901187 6.210000 18.040000 50.000000 0 0 0
453 46 3 0.993526 5.240000 19.010000 50.210000 0 0 0
454 46 4 -0.735566 4.290000 18.760000 51.210000 0 0 0
455 46 5 0.306405 4.670000 17.900000 52.390000 0 0 0
456 46 6 -0.577392 3.760000 17.860000 53.420000 0 0 0
457 46 7 0.367197 3.700000 16.900000 53.590000 0 0 0
458 46 8 0.086304 5.700000 18.130000 52.690000 0 0 0
459 46 8 0.006047 5.010000 16.910000 52.060000 0 0 0
460 46 9 0.395381 3.680000 19.570000 51.170000 0 0 0
461 47 1 0.000000 2.290000 21.710000 48.870000 0 0 0
462 47 2 -0.723387 1.980000 20.070000 50.510000 0 0 0
463 47 3 0.686578 2.950000 20.440000 49.690000 0 0 0
464 47 4 -0.702118 2.610000 21.330000 48.660000 0 0 0
465 47 5 0.467850 1.800000 22.560000 48.470000 0 0 0
466 47 6 -0.628009 2.220000 23.520000 47.410000 0 0 0
467 47 7 0.394768 1.710000 24.340000 47.580000 0 0 0
468 47 8 -0.031221 1.930000 23.250000 49.320000 0 0 0
469 47 8 0.031089 0.710000 22.570000 48.570000 0 0 0
470 47 9 0.384852 3.500000 21.260000 48.180000 0 0 0
471 48 1 0.000000 2.870000 17.260000 47.320000 0 0 0
472 48 2 -0.541197 1.710000 19.200000 47.370000 0 0 0
473 48 3 0.826629 1.880000 18.140000 48.160000 0 0 0
474 48 4 -0.720973 2.680000 17.050000 47.840000 0 0 0
475 48 5 0.324077 3.540000 16.840000 46.650000 0 0 0
476 48 6 -0.633848 4.090000 15.570000 46.840000 0 0 0
477 48 7 0.421918 4.540000 15.370000 46.000000 0 0 0
478 48 8 0.026269 4.310000 17.580000 46.900000 0 0 0
479 48 8 0.072727 3.080000 16.950000 45.660000 0 0 0
480 48 9 0.403281 2.880000 16.420000 48.600000 0 0 0
481 49 1 0.000000 12.080000 37.680000 41.780000 0 0 0
482 49 2 -0.901187 13.510000 37.450000 40.220000 0 0 0
483 49 3 0.993526 12.540000 38.420000 40.430000 0 0 0
484 49 4 -0.735566 11.590000 38.170000 41.430000 0 0 0
485 49 5 0.306405 11.970000 37.310000 42.610000 0 0 0
486 49 6 -0.577392 11.060000 37.270000 43.640000 0 0 0
487 49 7 0.367197 11.000000 36.310000 43.810000 0 0 0
488 49 8 0.086304 13.000000 37.540000 42.910000 0 0 0
489 49 8 0.006047 12.310000 36.320000 42.280000 0 0 0
490 49 9 0.395381 10.980000 38.980000 41.390000 0 0 0
491 50 1 0.000000 7.890000 36.430000 43.710000 0 0 0
492 50 2 -0.723387 7.580000 34.790000 45.350000 0 0 0
493 50 3 0.686578 8.550000 35.160000 44.530000 0 0 0
494 50 4 -0.702118 8.210000 36.050000 43.500000 0 0 0
495 50 5 0.467850 7.400000 37.280000 43.310000 0 0 0
496 50 6 -0.628009 7.820000 38.240000 42.250000 0 0 0
497 50 7 0.394768 7.310000 39.060000 42.420000 0 0 0
498 50 8 -0.031221 7.530000 37.970000 44.160000 0 0 0
499 50 8 0.031089 6.310000 37.290000 43.410000 0 0 0
500 50 9 0.384852 9.100000 35.980000 43.020000 0 0 0
501 51 1 0.000000 7.440000 38.970000 39.660000 0 0 0
502 51 2 -0.541197 6.280000 40.910000 39.710000 0 0 0
503 51 3 0.826629 6.450000 39.850000 40.500000 0 0 0
504 51 4 -0.720973 7.250000 38.760000 40.180000 0 0 0
505 51 5 0.324077 8.110000 38.550000 38.990000 0 0 0
506 51 6 -0.633848 8.660000 37.280000 39.180000 0 0 0
507 51 7 0.421918 9.110000 37.080000 38.340000 0 0 0
508 51 8 0.026269 8.880000 39.290000 39.240000 0 0 0
509 51 8 0.072727 7.650000 38.660000 38.000000 0 0 0
510 51 9 0.403281 7.450000 38.130000 40.940000 0 0 0
511 52 1 0.000000 3.120000 25.130000 35.750000 0 0 0
512 52 2 -0.901187 4.550000 24.900000 34.190000 0 0 0
513 52 3 0.993526 3.580000 25.870000 34.400000 0 0 0
514 52 4 -0.735566 2.630000 25.620000 35.400000 0 0 0
515 52 5 0.306405 3.010000 24.760000 36.580000 0 0 0
516 52 6 -0.577392 2.100000 24.720000 37.610000 0 0 0
517 52 7 0.367197 2.040000 23.760000 37.780000 0 0 0
518 52 8 0.086304 4.040000 24.990000 36.880000 0 0 0
519 52 8 0.006047 3.350000 23.770000 36.250000 0 0 0
520 52 9 0.395381 2.020000 26.430000 35.360000 0 0 0
521 53 1 0.000000 63.508700 25.840000 35.590000 -1 0 0
522 53 2 -0.723387 63.198700 24.200000 37.230000 -1 0 0
523 53 3 0.686578 64.168700 24.570000 36.410000 -1 0 0
524 53 4 -0.702118 63.828700 25.460000 35.380000 -1 0 0
525 53 5 0.467850 63.018700 26.690000 35.190000 -1 0 0
526 53 6 -0.628009 63.438700 27.650000 34.130000 -1 0 0
527 53 7 0.394768 62.928700 28.470000 34.300000 -1 0 0
528 53 8 -0.031221 63.148700 27.380000 36.040000 -1 0 0
529 53 8 0.031089 61.928700 26.700000 35.290000 -1 0 0
530 53 9 0.384852 64.718700 25.390000 34.900000 -1 0 0
531 54 1 0.000000 0.020000 24.250000 31.740000 0 0 0
532 54 2 -0.541197 64.188700 26.190000 31.790000 -1 0 0
533 54 3 0.826629 64.358700 25.130000 32.580000 -1 0 0
534 54 4 -0.720973 65.158700 24.040000 32.260000 -1 0 0
535 54 5 0.324077 0.690000 23.830000 31.070000 0 0 0
536 54 6 -0.633848 1.240000 22.560000 31.260000 0 0 0
537 54 7 0.421918 1.690000 22.360000 30.420000 0 0 0
538 54 8 0.026269 1.460000 24.570000 31.320000 0 0 0
539 54 8 0.072727 0.230000 23.940000 30.080000 0 0 0
540 54 9 0.403281 0.030000 23.410000 33.020000 0 0 0
541 55 1 0.000000 45.120000 61.910000 50.360000 0 0 0
542 55 2 -0.901187 46.550000 61.680000 48.800000 0 0 0
543 55 3 0.993526 45.580000 62.650000 49.010000 0 0 0
544 55 4 -0.735566 44.630000 62.400000 50.010000 0 0 0
545 55 5 0.306405 45.010000 61.540000 51.190000 0 0 0
546 55 6 -0.577392 44.100000 61.500000 52.220000 0 0 0
547 55 7 0.367197 44.040000 60.540000 52.390000 0 0 0
548 55 8 0.086304 46.040000 61.770000 51.490000 0 0 0
549 55 8 0.006047 45.350000 60.550000 50.860000 0 0 0
550 55 9 0.395381 44.020000 63.210000 49.970000 0 0 0
551 56 1 0.000000 43.370000 61.680000 46.470000 0 0 0
552 56 2 -0.723387 43.060000 60.040000 48.110000 0 0 0
553 56 3 0.686578 44.030000 60.410000 47.290000 0 0 0
554 56 4 -0.702118 43.690000 61.300000 46.260000 0 0 0
555 56 5 0.467850 42.880000 62.530000 46.070000 0 0 0
556 56 6 -0.628009 43.300000 63.490000 45.010000 0 0 0
557 56 7 0.394768 42.790000 64.310000 45.180000 0 0 0
558 56 8 -0.031221 43.010000 63.220000 46.920000 0 0 0
559 56 8 0.031089 41.790000 62.540000 46.170000 0 0 0
560 56 9 0.384852 44.580000 61.230000 45.780000 0 0 0
561 57 1 0.000000 48.080000 62.760000 46.740000 0 0 0
562 57 2 -0.541197 46.920000 64.700000 46.790000 0 0 0
563 57 3 0.826629 47.090000 63.640000 47.580000 0 0 0
564 57 4 -0.720973 47.890000 62.550000 47.260000 0 0 0
565 57 5 0.324077 48.750000 62.340000 46.070000 0 0 0
566 57 6 -0.633848 49.300000 61.070000 46.260000 0 0 0
567 57 7 0.421918 49.750000 60.870000 45.420000 0 0 0
568 57 8 0.026269 49.520000 63.080000 46.320000 0 0 0
569 57 8 0.072727 48.290000 62.450000 45.080000 0 0 0
570 57 9 0.403281 48.090000 61.920000 48.020000 0 0 0
571 58 1 0.000000 11.650000 51.580000 44.110000 0 0 0
572 58 2 -0.901187 13.080000 51.350000 42.550000 0 0 0
573 58 3 0.993526 12.110000 52.320000 42.760000 0 0 0
574 58 4 -0.735566 11.160000 52.070000 43.760000 0 0 0
575 58 5 0.306405 11.540000 51.210000 44.940000 0 0 0
576 58 6 -0.577392 10.630000 51.170000 45.970000 0 0 0
577 58 7 0.367197 10.570000 50.210000 46.140000 0 0 0
578 58 8 0.086304 12.570000 51.440000 45.240000 0 0 0
579 58 8 0.006047 11.880000 50.220000 44.610000 0 0 0
580 58 9 0.395381 10.550000 52.880000 43.720000 0 0 0
581 59 1 0.000000 7.640000 50.960000 41.960000 0 0 0
582 59 2 -0.723387 7.330000 49.320000 43.600000 0 0 0
583 59 3 0.686578 8.300000 49.690000 42.780000 0 0 0
584 59 4 -0.702118 7.960000 50.580000 41.750000 0 0 0
585 59 5 0.467850 7.150000 51.810000 41.560000 0 0 0
586 59 6 -0.628009 7.570000 52.770000 40.500000 0 0 0
587 59 7 0.394768 7.060000 53.590000 40.670000 0 0 0
588 59 8 -0.031221 7.280000 52.500000 42.410000 0 0 0
589 59 8 0.031089 6.060000 51.820000 41.660000 0 0 0
590 59 9 0.384852 8.850000 50.510000 41.270000 0 0 0
591 60 1 0.000000 10.060000 47.280000 42.800000 0 0 0
592 60 2 -0.541197 8.900000 49.220000 42.850000 0 0 0
593 60 3 0.826629 9.070000 48.160000 43.640000 0 0 0
594 60 4 -0.720973 9.870000 47.070000 43.320000 0 0 0
595 60 5 0.324077 10.730000 46.860000 42.130000 0 0 0
596 60 6 -0.633848 11.280000 45.590000 42.320000 0 0 0
597 60 7 0.421918 11.730000 45.390000 41.480000 0 0 0
598 60 8 0.026269 11.500000 47.600000 42.380000 0 0 0
599 60 8 0.072727 10.270000 46.970000 41.140000 0 0 0
600 60 9 0.403281 10.070000 46.440000 44.080000 0 0 0
601 61 1 0.000000 0.110000 40.610000 31.200000 0 0 0
602 61 2 -0.901187 1.540000 40.380000 29.640000 0 0 0
603 61 3 0.993526 0.570000 41.350000 29.850000 0 0 0
604 61 4 -0.735566 64.948700 41.100000 30.850000 -1 0 0
605 61 5 0.306405 0.000000 40.240000 32.030000 0 0 0
606 61 6 -0.577392 64.418700 40.200000 33.060000 -1 0 0
607 61 7 0.367197 64.358700 39.240000 33.230000 -1 0 0
608 61 8 0.086304 1.030000 40.470000 32.330000 0 0 0
609 61 8 0.006047 0.340000 39.250000 31.700000 0 0 0
610 61 9 0.395381 64.338700 41.910000 30.810000 -1 0 0
611 62 1 0.000000 0.950000 42.010000 35.400000 0 0 0
612 62 2 -0.723387 0.640000 40.370000 37.040000 0 0 0
613 62 3 0.686578 1.610000 40.740000 36.220000 0 0 0
614 62 4 -0.702118 1.270000 41.630000 35.190000 0 0 0
615 62 5 0.467850 0.460000 42.860000 35.000000 0 0 0
616 62 6 -0.628009 0.880000 43.820000 33.940000 0 0 0
617 62 7 0.394768 0.370000 44.640000 34.110000 0 0 0
618 62 8 -0.031221 0.590000 43.550000 35.850000 0 0 0
619 62 8 0.031089 64.698700 42.870000 35.100000 -1 0 0
620 62 9 0.384852 2.160000 41.560000 34.710000 0 0 0
621 63 1 0.000000 62.268700 42.560000 34.460000 -1 0 0
622 63 2 -0.541197 61.108700 44.500000 34.510000 -1 0 0
623 63 3 0.826629 61.278700 43.440000 35.300000 -1 0 0
624 63 4 -0.720973 62.078700 42.350000 34.980000 -1 0 0
625 63 5 0.324077 62.938700 42.140000 33.790000 -1 0 0
626 63 6 -0.633848 63.488700 40.870000 33.980000 -1 0 0
627 63 7 0.421918 63.938700 40.670000 33.140000 -1 0 0
628 63 8 0.026269 63.708700 42.880000 34.040000 -1 0 0
629 63 8 0.072727 62.478700 42.250000 32.800000 -1 0 0
630 63 9 0.403281 62.278700 41.720000 35.740000 -1 0 0
631 64 1 0.000000 42.790000 11.170000 29.410000 0 0 0
632 64 2 -0.901187 44.220000 10.940000 27.850000 0 0 0
633 64 3 0.993526 43.250000 11.910000 28.060000 0 0 0
634 64 4 -0.735566 42.300000 11.660000 29.060000 0 0 0
635 64 5 0.306405 42.680000 10.800000 30.240000 0 0 0
636 64 6 -0.577392 41.770000 10.760000 31.270000 0 0 0
637 64 7 0.367197 41.710000 9.800000 31.440000 0 0 0
638 64 8 0.086304 43.710000 11.030000 30.540000 0 0 0
639 64 8 0.006047 43.020000 9.810000 29.910000 0 0 0
640 64 9 0.395381 41.690000 12.470000 29.020000 0 0 0
641 65 1 0.000000 39.940000 13.620000 29.360000 0 0 0
642 65 2 -0.723387 39.630000 11.980000 31.000000 0 0 0
643 65 3 0.686578 40.600000 12.350000 30.180000 0 0 0
644 65 4 -0.702118 40.260000 13.240000 29.150000 0 0 0
645 65 5 0.467850 39.450000 14.470000 28.960000 0 0 0
646 65 6 -0.628009 39.870000 15.430000 27.900000 0 0 0
647 65 7 0.394768 39.360000 16.250000 28.070000 0 0 0
648 65 8 -0.031221 39.580000 15.160000 29.810000 0 0 0
649 65 8 0.031089 38.360000 14.480000 29.060000 0 0 0
650 65 9 0.384852 41.150000 13.170000 28.670000 0 0 0
651 66 1 0.000000 39.590000 11.390000 33.210000 0 0 0
652 66 2 -0.541197 38.430000 13.330000 33.260000 0 0 0
653 66 3 0.826629 38.600000 12.270000 34.050000 0 0 0
654 66 4 -0.720973 39.400000 11.180000 33.730000 0 0 0
655 66 5 0.324077 40.260000 10.970000 32.540000 0 0 0
656 66 6 -0.633848 40.810000 9.700000 32.730000 0 0 0
657 66 7 0.421918 41.260000 9.500000 31.890000 0 0 0
658 66 8 0.026269 41.030000 11.710000 32.790000 0 0 0
659 66 8 0.072727 39.800000 11.080000 31.550000 0 0 0
660 66 9 0.403281 39.600000 10.550000 34.490000 0 0 0
661 67 1 0.000000 58.570000 53.490000 48.160000 0 0 0
662 67 2 -0.901187 60.000000 53.260000 46.600000 0 0 0
663 67 3 0.993526 59.030000 54.230000 46.810000 0 0 0
664 67 4 -0.735566 58.080000 53.980000 47.810000 0 0 0
665 67 5 0.306405 58.460000 53.120000 48.990000 0 0 0
666 67 6 -0.577392 57.550000 53.080000 50.020000 0 0 0
667 67 7 0.367197 57.490000 52.120000 50.190000 0 0 0
668 67 8 0.086304 59.490000 53.350000 49.290000 0 0 0
669 67 8 0.006047 58.800000 52.130000 48.660000 0 0 0
670 67 9 0.395381 57.470000 54.790000 47.770000 0 0 0
671 68 1 0.000000 60.500000 56.710000 51.180000 0 0 0
672 68 2 -0.723387 60.190000 55.070000 52.820000 0 0 0
673 68 3 0.686578 61.160000 55.440000 52.000000 0 0 0
674 68 4 -0.702118 60.820000 56.330000 50.970000 0 0 0
675 68 5 0.467850 60.010000 57.560000 50.780000 0 0 0
676 68 6 -0.628009 60.430000 58.520000 49.720000 0 0 0
677 68 7 0.394768 59.920000 59.340000 49.890000 0 0 0
678 68 8 -0.031221 60.140000 58.250000 51.630000 0 0 0
679 68 8 0.031089 58.920000 57.570000 50.880000 0 0 0
680 68 9 0.384852 61.710000 56.260000 50.490000 0 0 0
681 69 1 0.000000 59.680000 52.210000 52.540000 0 0 0
682 69 2 -0.541197 58.520000 54.150000 52.590000 0 0 0
683 69 3 0.826629 58.690000 53.090000 53.380000 0 0 0
684 69 4 -0.720973 59.490000 52.000000 53.060000 0 0 0
685 69 5 0.324077 60.350000 51.790000 51.870000 0 0 0
686 69 6 -0.633848 60.900000 50.520000 52.060000 0 0 0
687 69 7 0.421918 61.350000 50.320000 51.220000 0 0 0
688 69 8 0.026269 61.120000 52.530000 52.120000 0 0 0
689 69 8 0.072727 59.890000 51.900000 50.880000 0 0 0
690 69 9 0.403281 59.690000 51.370000 53.820000 0 0 0
691 70 1 0.000000 46.710000 26.040000 18.810000 0 0 0
692 70 2 -0.901187 48.140000 25.810000 17.250000 0 0 0
693 70 3 0.993526 47.170000 26.780000 17.460000 0 0 0
694 70 4 -0.735566 46.220000 26.530000 18.460000 0 0 0
695 70 5 0.306405 46.600000 25.670000 19.640000 0 0 0
696 70 6 -0.577392 45.690000 25.630000 20.670000 0 0 0
697 70 7 0.367197 45.630000 24.670000 20.840000 0 0 0
698 70 8 0.086304 47.630000 25.900000 19.940000 0 0 0
699 70 8 0.006047 46.940000 24.680000 19.310000 0 0 0
700 70 9 0.395381 45.610000 27.340000 18.420000 0 0 0
701 71 1 0.000000 42.200000 24.290000 18.770000 0 0 0
702 71 2 -0.723387 41.890000 22.650000 20.410000 0 0 0
703 71 3 0.686578 42.860000 23.020000 19.590000 0 0 0
704 71 4 -0.702118 42.520000 23.910000 18.560000 0 0 0
705 71 5 0.467850 41.710000 25.140000 18.370000 0 0 0
706 71 6 -0.628009 42.130000 26.100000 17.310000 0 0 0
707 71 7 0.394768 41.620000 26.920000 17.480000 0 0 0
708 71 8 -0.031221 41.840000 25.830000 19.220000 0 0 0
709 71 8 0.031089 40.620000 25.150000 18.470000 0 0 0
710 71 9 0.384852 43.410000 23.840000 18.080000 0 0 0
711 72 1 0.000000 45.730000 23.790000 15.220000 0 0 0
712 72 2 -0.541197 44.570000 25.730000 15.270000 0 0 0
713 72 3 0.826629 44.740000 24.670000 16.060000 0 0 0
714 72 4 -0.720973 45.540000 23.580000 15.740000 0 0 0
715 72 5 0.324077 46.400000 23.370000 14.550000 0 0 0
716 72 6 -0.633848 46.950000 22.100000 14.740000 0 0 0
717 72 7 0.421918 47.400000 21.900000 13.900000 0 0 0
718 72 8 0.026269 47.170000 24.110000 14.800000 0 0 0
719 72 8 0.072727 45.940000 23.480000 13.560000 0 0 0
720 72 9 0.403281 45.740000 22.950000 16.500000 0 0 0
721 73 1 0.000000 29.890000 40.650000 33.810000 0 0 0
722 73 2 -0.901187 31.320000 40.420000 32.250000 0 0 0
723 73 3 0.993526 30.350000 41.390000 32.460000 0 0 0
724 73 4 -0.735566 29.400000 41.140000 33.460000 0 0 0
725 73 5 0.306405 29.780000 40.280000 34.640000 0 0 0
726 73 6 -0.577392 28.870000 40.240000 35.670000 0 0 0
727 73 7 0.367197 28.810000 39.280000 35.840000 0 0 0
728 73 8 0.086304 30.810000 40.510000 34.940000 0 0 0
729 73 8 0.006047 30.120000 39.290000 34.310000 0 0 0
730 73 9 0.395381 28.790000 41.950000 33.420000 0 0 0
731 74 1 0.000000 32.370000 39.380000 36.760000 0 0 0
732 74 2 -0.723387 32.060000 37.740000 38.400000 0 0 0
733 74 3 0.686578 33.030000 38.110000 37.580000 0 0 0
734 74 4 -0.702118 32.690000 39.000000 36.550000 0 0 0
735 74 5 0.467850 31.880000 40.230000 36.360000 0 0 0
736 74 6 -0.628009 32.300000 41.190000 35.300000 0 0 0
737 74 7 0.394768 31.790000 42.010000 35.470000 0 0 0
738 74 8 -0.031221 32.010000 40.920000 37.210000 0 0 0
739 74 8 0.031089 30.790000 40.240000 36.460000 0 0 0
740 74 9 0.384852 33.580000 38.930000 36.070000 0 0 0
741 75 1 0.000000 31.410000 36.380000 32.910000 0 0 0
742 75 2 -0.541197 30.250000 38.320000 32.960000 0 0 0
743 75 3 0.826629 30.420000 37.260000 33.750000 0 0 0
744 75 4 -0.720973 31.220000 36.170000 33.430000 0 0 0
745 75 5 0.324077 32.080000 35.960000 32.240000 0 0 0
746 75 6 -0.633848 32.630000 34.690000 32.430000 0 0 0
747 75 7 0.421918 33.080000 34.490000 31.590000 0 0 0
748 75 8 0.026269 32.850000 36.700000 32.490000 0 0 0
749 75 8 0.072727 31.620000 36.070000 31.250000 0 0 0
750 75 9 0.403281 31.420000 35.540000 34.190000 0 0 0
751 76 1 0.000000 50.850000 47.160000 33.490000 0 0 0
752 76 2 -0.901187 52.280000 46.930000 31.930000 0 0 0
753 76 3 0.993526 51.310000 47.900000 32.140000 0 0 0
754 76 4 -0.735566 50.360000 47.650000 33.140000 0 0 0
755 76 5 0.306405 50.740000 46.790000 34.320000 0 0 0
756 76 6 -0.577392 49.830000 46.750000 35.350000 0 0 0
757 76 7 0.367197 49.770000 45.790000 35.520000 0 0 0
758 76 8 0.086304 51.770000 47.020000 34.620000 0 0 0
759 76 8 0.006047 51.080000 45.800000 33.990000 0 0 0
760 76 9 0.395381 49.750000 48.460000 33.100000 0 0 0
761 77 1 0.000000 54.860000 44.730000 33.920000 0 0 0
762 77 2 -0.723387 54.550000 43.090000 35.560000 0 0 0
763 77 3 0.686578 55.520000 43.460000 34.740000 0 0 0
764 77 4 -0.702118 55.180000 44.350000 33.710000 0 0 0
765 77 5 0.467850 54.370000 45.580000 33.520000 0 0 0
766 77 6 -0.628009 54.790000 46.540000 32.460000 0 0 0
767 77 7 0.394768 54.280000 47.360000 32.630000 0 0 0
768 77 8 -0.031221 54.500000 46.270000 34.370000 0 0 0
769 77 8 0.031089 53.280000 45.590000 33.620000 0 0 0
770 77 9 0.384852 56.070000 44.280000 33.230000 0 0 0
771 78 1 0.000000 51.790000 44.870000 37.180000 0 0 0
772 78 2 -0.541197 50.630000 46.810000 37.230000 0 0 0
773 78 3 0.826629 50.800000 45.750000 38.020000 0 0 0
774 78 4 -0.720973 51.600000 44.660000 37.700000 0 0 0
775 78 5 0.324077 52.460000 44.450000 36.510000 0 0 0
776 78 6 -0.633848 53.010000 43.180000 36.700000 0 0 0
777 78 7 0.421918 53.460000 42.980000 35.860000 0 0 0
778 78 8 0.026269 53.230000 45.190000 36.760000 0 0 0
779 78 8 0.072727 52.000000 44.560000 35.520000 0 0 0
780 78 9 0.403281 51.800000 44.030000 38.460000 0 0 0
781 79 1 0.000000 59.250000 0.740000 61.660000 0 0 0
782 79 2 -0.901187 60.680000 0.510000 60.100000 0 0 0
783 79 3 0.993526 59.710000 1.480000 60.310000 0 0 0
784 79 4 -0.735566 58.760000 1.230000 61.310000 0 0 0
785 79 5 0.306405 59.140000 0.370000 62.490000 0 0 0
786 79 6 -0.577392 58.230000 0.330000 63.520000 0 0 0
787 79 7 0.367197 58.170000 64.698700 63.690000 0 -1 0
788 79 8 0.086304 60.170000 0.600000 62.790000 0 0 0
789 79 8 0.006047 59.480000 64.708700 62.160000 0 -1 0
790 79 9 0.395381 58.150000 2.040000 61.270000 0 0 0
791 80 1 0.000000 64.070000 0.610000 60.900000 0 0 0
792 80 2 -0.723387 63.760000 64.298700 62.540000 0 -1 0
793 80 3 0.686578 64.730000 64.668700 61.720000 0 -1 0
794 80 4 -0.702118 64.390000 0.230000 60.690000 0 0 0
795 80 5 0.467850 63.580000 1.460000 60.500000 0 0 0
796 80 6 -0.628009 64.000000 2.420000 59.440000 0 0 0
797 80 7 0.394768 63.490000 3.240000 59.610000 0 0 0
798 80 8 -0.031221 63.710000 2.150000 61.350000 0 0 0
799 80 8 0.031089 62.490000 1.470000 60.600000 0 0 0
800 80 9 0.384852 65.280000 0.160000 60.210000 0 0 0
801 81 1 0.000000 61.120000 3.080000 58.010000 0 0 0
802 81 2 -0.541197 59.960000 5.020000 58.060000 0 0 0
803 81 3 0.826629 60.130000 3.960000 58.850000 0 0 0
804 81 4 -0.720973 60.930000 2.870000 58.530000 0 0 0
805 81 5 0.324077 61.790000 2.660000 57.340000 0 0 0
806 81 6 -0.633848 62.340000 1.390000 57.530000 0 0 0
807 81 7 0.421918 62.790000 1.190000 56.690000 0 0 0
808 81 8 0.026269 62.560000 3.400000 57.590000 0 0 0
809 81 8 0.072727 61.330000 2.770000 56.350000 0 0 0
810 81 9 0.403281 61.130000 2.240000 59.290000 0 0 0
811 82 1 0.000000 14.120000 10.290000 33.600000 0 0 0
812 82 2 -0.901187 15.550000 10.060000 32.040000 0 0 0
813 82 3 0.993526 14.580000 11.030000 32.250000 0 0 0
814 82 4 -0.735566 13.630000 10.780000 33.250000 0 0 0
815 82 5 0.306405 14.010000 9.920000 34.430000 0 0 0
816 82 6 -0.577392 13.100000 9.880000 35.460000 0 0 0
817 82 7 0.367197 13.040000 8.920000 35.630000 0 0 0
818 82 8 0.086304 15.040000 10.150000 34.730000 0 0 0
819 82 8 0.006047 14.350000 8.930000 34.100000 0 0 0
820 82 9 0.395381 13.020000 11.590000 33.210000 0 0 0
821 83 1 0.000000 14.240000 13.810000 31.090000 0 0 0
822 83 2 -0.723387 13.930000 12.170000 32.730000 0 0 0
823 83 3 0.686578 14.900000 12.540000 31.910000 0 0 0
824 83 4 -0.702118 14.560000 13.430000 30.880000 0 0 0
825 83 5 0.467850 13.750000 14.660000 30.690000 0 0 0
826 83 6 -0.628009 14.170000 15.620000 29.630000 0 0 0
827 83 7 0.394768 13.660000 16.440000 29.800000 0 0 0
828 83 8 -0.031221 13.880000 15.350000 31.540000 0 0 0
829 83 8 0.031089 12.660000 14.670000 30.790000 0 0 0
830 83 9 0.384852 15.450000 13.360000 30.400000 0 0 0
831 84 1 0.000000 10.920000 10.840000 29.970000 0 0 0
832 84 2 -0.541197 9.760000 12.780000 30.020000 0 0 0
833 84 3 0.826629 9.930000 11.720000 30.810000 0 0 0
834 84 4 -0.720973 10.730000 10.630000 30.490000 0 0 0
835 84 5 0.324077 11.590000 10.420000 29.300000 0 0 0
836 84 6 -0.633848 12.140000 9.150000 29.490000 0 0 0
837 84 7 0.421918 12.590000 8.950000 28.650000 0 0 0
838 84 8 0.026269 12.360000 11.160000 29.550000 0 0 0
839 84 8 0.072727 11.130000 10.530000 28.310000 0 0 0
840 84 9 0.403281 10.930000 10.000000 31.250000 0 0 0
841 85 1 0.000000 24.550000 14.410000 28.750000 0 0 0
842 85 2 -0.901187 25.980000 14.180000 27.190000 0 0 0
843 85 3 0.993526 25.010000 15.150000 27.400000 0 0 0
844 85 4 -0.735566 24.060000 14.900000 28.400000 0 0 0
845 85 5 0.306405 24.440000 14.040000 29.580000 0 0 0
846 85 6 -0.577392 23.530000 14.000000 30.610000 0 0 0
847 85 7 0.367197 23.470000 13.040000 30.780000 0 0 0
848 85 8 0.086304 25.470000 14.270000 29.880000 0 0 0
849 85 8 0.006047 24.780000 13.050000 29.250000 0 0 0
850 85 9 0.395381 23.450000 15.710000 28.360000 0 0 0
851 86 1 0.000000 19.760000 14.130000 29.270000 0 0 0
852 86 2 -0.723387 19.450000 12.490000 30.910000 0 0 0
853 86 3 0.686578 20.420000 12.860000 30.090000 0 0 0
854 86 4 -0.702118 20.080000 13.750000 29.060000 0 0 0
855 86 5 0.467850 19.270000 14.980000 28.870000 0 0 0
856 86 6 -0.628009 19.690000 15.940000 27.810000 0 0 0
857 86 7 0.394768 19.180000 16.760000 27.980000 0 0 0
858 86 8 -0.031221 19.400000 15.670000 29.720000 0 0 0
859 86 8 0.031089 18.180000 14.990000 28.970000 0 0 0
860 86 9 0.384852 20.970000 13.680000 28.580000 0 0 0
861 87 1 0.000000 23.000000 11.540000 30.610000 0 0 0
862 87 2 -0.541197 21.840000 13.480000 30.660000 0 0 0
863 87 3 0.826629 22.010000 12.420000 31.450000 0 0 0
864 87 4 -0.720973 22.810000 11.330000 31.130000 0 0 0
865 87 5 0.324077 23.670000 11.120000 29.940000 0 0 0
866 87 6 -0.633848 24.220000 9.850000 30.130000 0 0 0
867 87 7 0.421918 24.670000 9.650000 29.290000 0 0 0
868 87 8 0.026269 24.440000 11.860000 30.190000 0 0 0
869 87 8 0.072727 23.210000 11.230000 28.950000 0 0 0
870 87 9 0.403281 23.010000 10.700000 31.890000 0 0 0
871 88 1 0.000000 55.800000 23.000000 34.770000 0 0 0
872 88 2 -0.901187 57.230000 22.770000 33.210000 0 0 0
873 88 3 0.993526 56.260000 23.740000 33.420000 0 0 0
874 88 4 -0.735566 55.310000 23.490000 34.420000 0 0 0
875 88 5 0.306405 55.690000 22.630000 35.600000 0 0 0
876 88 6 -0.577392 54.780000 22.590000 36.630000 0 0 0
877 88 7 0.367197 54.720000 21.630000 36.800000 0 0 0
878 88 8 0.086304 56.720000 22.860000 35.900000 0 0 0
879 88 8 0.006047 56.030000 21.640000 35.270000 0 0 0
880 88 9 0.395381 54.700000 24.300000 34.380000 0 0 0
881 89 1 0.000000 59.500000 25.080000 34.880000 0 0 0
882 89 2 -0.723387 59.190000 23.440000 36.520000 0 0 0
883 89 3 0.686578 60.160000 23.810000 35.700000 0 0 0
884 89 4 -0.702118 59.820000 24.700000 34.670000 0 0 0
885 89 5 0.467850 59.010000 25.930000 34.480000 0 0 0
886 89 6 -0.628009 59.430000 26.890000 33.420000 0 0 0
887 89 7 0.394768 58.920000 27.710000 33.590000 0 0 0
888 89 8 -0.031221 59.140000 26.620000 35.330000 0 0 0
889 89 8 0.031089 57.920000 25.940000 34.580000 0 0 0
890 89 9 0.384852 60.710000 24.630000 34.190000 0 0 0
891 90 1 0.000000 56.730000 26.030000 37.880000 0 0 0
892 90 2 -0.541197 55.570000 27.970000 37.930000 0 0 0
893 90 3 0.826629 55.740000 26.910000 38.720000 0 0 0
894 90 4 -0.720973 56.540000 25.820000 38.400000 0 0 0
895 90 5 0.324077 57.400000 25.610000 37.210000 0 0 0
896 90 6 -0.633848 57.950000 24.340000 37.400000 0 0 0
897 90 7 0.421918 58.400000 24.140000 36.560000 0 0 0
898 90 8 0.026269 58.170000 26.350000 37.460000 0 0 0
899 90 8 0.072727 56.940000 25.720000 36.220000 0 0 0
900 90 9 0.403281 56.740000 25.190000 39.160000 0 0 0
901 91 1 0.000000 58.650000 44.710000 16.150000 0 0 0
902 91 2 -0.901187 60.080000 44.480000 14.590000 0 0 0
903 91 3 0.993526 59.110000 45.450000 14.800000 0 0 0
904 91 4 -0.735566 58.160000 45.200000 15.800000 0 0 0
905 91 5 0.306405 58.540000 44.340000 16.980000 0 0 0
906 91 6 -0.577392 57.630000 44.300000 18.010000 0 0 0
907 91 7 0.367197 57.570000 43.340000 18.180000 0 0 0
908 91 8 0.086304 59.570000 44.570000 17.280000 0 0 0
909 91 8 0.006047 58.880000 43.350000 16.650000 0 0 0
910 91 9 0.395381 57.550000 46.010000 15.760000 0 0 0
911 92 1 0.000000 54.650000 43.350000 17.580000 0 0 0
912 92 2 -0.723387 54.340000 41.710000 19.220000 0 0 0
913 92 3 0.686578 55.310000 42.080000 18.400000 0 0 0
914 92 4 -0.702118 54.970000 42.970000 17.370000 0 0 0
915 92 5 0.467850 54.160000 44.200000 17.180000 0 0 0
916 92 6 -0.628009 54.580000 45.160000 16.120000 0 0 0
917 92 7 0.394768 54.070000 45.980000 16.290000 0 0 0
918 92 8 -0.031221 54.290000 44.890000 18.030000 0 0 0
919 92 8 0.031089 53.070000 44.210000 17.280000 0 0 0
920 92 9 0.384852 55.860000 42.900000 16.890000 0 0 0
921 93 1 0.000000 59.020000 42.280000 19.870000 0 0 0
922 93 2 -0.541197 57.860000 44.220000 19.920000 0 0 0
923 93 3 0.826629 58.030000 43.160000 20.710000 0 0 0
924 93 4 -0.720973 58.830000 42.070000 20.390000 0 0 0
925 93 5 0.324077 59.690000 41.860000 19.200000 0 0 0
926 93 6 -0.633848 60.240000 40.590000 19.390000 0 0 0
927 93 7 0.421918 60.690000 40.390000 18.550000 0 0 0
928 93 8 0.026269 60.460000 42.600000 19.450000 0 0 0
929 93 8 0.072727 59.230000 41.970000 18.210000 0 0 0
930 93 9 0.403281 59.030000 41.440000 21.150000 0 0 0
931 94 1 0.000000 28.140000 41.770000 58.420000 0 0 0
932 94 2 -0.901187 29.570000 41.540000 56.860000 0 0 0
933 94 3 0.993526 28.600000 42.510000 57.070000 0 0 0
934 94 4 -0.735566 27.650000 42.260000 58.070000 0 0 0
935 94 5 0.306405 28.030000 41.400000 59.250000 0 0 0
936 94 6 -0.577392 27.120000 41.360000 60.280000 0 0 0
937 94 7 0.367197 27.060000 40.400000 60.450000 0 0 0
938 94 8 0.086304 29.060000 41.630000 59.550000 0 0 0
939 94 8 0.006047 28.370000 40.410000 58.920000 0 0 0
940 94 9 0.395381 27.040000 43.070000 58.030000 0 0 0
941 95 1 0.000000 29.690000 37.840000 60.820000 0 0 0
942 95 2 -0.723387 29.380000 36.200000 62.460000 0 0 0
943 95 3 0.686578 30.350000 36.570000 61.640000 0 0 0
944 95 4 -0.702118 30.010000 37.460000 60.610000 0 0 0
945 95 5 0.467850 29.200000 38.690000 60.420000 0 0 0
946 95 6 -0.628009 29.620000 39.650000 59.360000 0 0 0
947 95 7 0.394768 29.110000 40.470000 59.530000 0 0 0
948 95 8 -0.031221 29.330000 39.380000 61.270000 0 0 0
949 95 8 0.031089 28.110000 38.700000 60.520000 0 0 0
950 95 9 0.384852 30.900000 37.390000 60.130000 0 0 0
951 96 1 0.000000 28.370000 37.960000 56.100000 0 0 0
952 96 2 -0.541197 27.210000 39.900000 56.150000 0 0 0
953 96 3 0.826629 27.380000 38.840000 56.940000 0 0 0
954 96 4 -0.720973 28.180000 37.750000 56.620000 0 0 0
955 96 5 0.324077 29.040000 37.540000 55.430000 0 0 0
956 96 6 -0.633848 29.590000 36.270000 55.620000 0 0 0
957 96 7 0.421918 30.040000 36.070000 54.780000 0 0 0
958 96 8 0.026269 29.810000 38.280000 55.680000 0 0 0
959 96 8 0.072727 28.580000 37.650000 54.440000 0 0 0
960 96 9 0.403281 28.380000 37.120000 57.380000 0 0 0
961 97 1 0.000000 59.350000 45.980000 36.760000 0 0 0
962 97 2 -0.901187 60.780000 45.750000 35.200000 0 0 0
963 97 3 0.993526 59.810000 46.720000 35.410000 0 0 0
964 97 4 -0.735566 58.860000 46.470000 36.410000 0 0 0
965 97 5 0.306405 59.240000 45.610000 37.590000 0 0 0
966 97 6 -0.577392 58.330000 45.570000 38.620000 0 0 0
967 97 7 0.367197 58.270000 44.610000 38.790000 0 0 0
968 97 8 0.086304 60.270000 45.840000 37.890000 0 0 0
969 97 8 0.006047 59.580000 44.620000 37.260000 0 0 0
970 97 9 0.395381 58.250000 47.280000 36.370000 0 0 0
971 98 1 0.000000 58.930000 51.000000 37.680000 0 0 0
972 98 2 -0.723387 58.620000 49.360000 39.320000 0 0 0
973 98 3 0.686578 59.590000 49.730000 38.500000 0 0 0
974 98 4 -0.702118 59.250000 50.620000 37.470000 0 0 0
975 98 5 0.467850 58.440000 51.850000 37.280000 0 0 0
976 98 6 -0.628009 58.860000 52.810000 36.220000 0 0 0
977 98 7 0.394768 58.350000 53.630000 36.390000 0 0 0
978 98 8 -0.031221 58.570000 52.540000 38.130000 0 0 0
979 98 8 0.031089 57.350000 51.860000 37.380000 0 0 0
980 98 9 0.384852 60.140000 50.550000 36.990000 0 0 0
981 99 1 0.000000 55.150000 47.290000 38.100000 0 0 0
982 99 2 -0.541197 53.990000 49.230000 38.150000 0 0 0
983 99 3 0.826629 54.160000 48.170000 38.940000 0 0 0
984 99 4 -0.720973 54.960000 47.080000 38.620000 0 0 0
985 99 5 0.324077 55.820000 46.870000 37.430000 0 0 0
986 99 6 -0.633848 56.370000 45.600000 37.620000 0 0 0
987 99 7 0.421918 56.820000 45.400000 36.780000 0 0 0
988 99 8 0.026269 56.590000 47.610000 37.680000 0 0 0
989 99 8 0.072727 55.360000 46.980000 36.440000 0 0 0
990 99 9 0.403281 55.160000 46.450000 39.380000 0 0 0
991 100 1 0.000000 18.090000 50.740000 24.290000 0 0 0
992 100 2 -0.901187 19.520000 50.510000 22.730000 0 0 0
993 100 3 0.993526 18.550000 51.480000 22.940000 0 0 0
994 100 4 -0.735566 17.600000 51.230000 23.940000 0 0 0
995 100 5 0.306405 17.980000 50.370000 25.120000 0 0 0
996 100 6 -0.577392 17.070000 50.330000 26.150000 0 0 0
997 100 7 0.367197 17.010000 49.370000 26.320000 0 0 0
998 100 8 0.086304 19.010000 50.600000 25.420000 0 0 0
999 100 8 0.006047 18.320000 49.380000 24.790000 0 0 0
1000 100 9 0.395381 16.990000 52.040000 23.900000 0 0 0
1001 101 1 0.000000 16.380000 54.860000 23.290000 0 0 0
1002 101 2 -0.723387 16.070000 53.220000 24.930000 0 0 0
1003 101 3 0.686578 17.040000 53.590000 24.110000 0 0 0
1004 101 4 -0.702118 16.700000 54.480000 23.080000 0 0 0
1005 101 5 0.467850 15.890000 55.710000 22.890000 0 0 0
1006 101 6 -0.628009 16.310000 56.670000 21.830000 0 0 0
1007 101 7 0.394768 15.800000 57.490000 22.000000 0 0 0
1008 101 8 -0.031221 16.020000 56.400000 23.740000 0 0 0
1009 101 8 0.031089 14.800000 55.720000 22.990000 0 0 0
1010 101 9 0.384852 17.590000 54.410000 22.600000 0 0 0
1011 102 1 0.000000 15.910000 52.800000 27.970000 0 0 0
1012 102 2 -0.541197 14.750000 54.740000 28.020000 0 0 0
1013 102 3 0.826629 14.920000 53.680000 28.810000 0 0 0
1014 102 4 -0.720973 15.720000 52.590000 28.490000 0 0 0
1015 102 5 0.324077 16.580000 52.380000 27.300000 0 0 0
1016 102 6 -0.633848 17.130000 51.110000 27.490000 0 0 0
1017 102 7 0.421918 17.580000 50.910000 26.650000 0 0 0
1018 102 8 0.026269 17.350000 53.120000 27.550000 0 0 0
1019 102 8 0.072727 16.120000 52.490000 26.310000 0 0 0
1020 102 9 0.403281 15.920000 51.960000 29.250000 0 0 0
1021 103 1 0.000000 42.930000 26.300000 14.260000 0 0 0
1022 103 2 -0.901187 44.360000 26.070000 12.700000 0 0 0
1023 103 3 0.993526 43.390000 27.040000 12.910000 0 0 0
1024 103 4 -0.735566 42.440000 26.790000 13.910000 0 0 0
1025 103 5 0.306405 42.820000 25.930000 15.090000 0 0 0
1026 103 6 -0.577392 41.910000 25.890000 16.120000 0 0 0
1027 103 7 0.367197 41.850000 24.930000 16.290000 0 0 0
1028 103 8 0.086304 43.850000 26.160000 15.390000 0 0 0
1029 103 8 0.006047 43.160000 24.940000 14.760000 0 0 0
1030 103 9 0.395381 41.830000 27.600000 13.870000 0 0 0
1031 104 1 0.000000 43.310000 29.860000 17.240000 0 0 0
1032 104 2 -0.723387 43.000000 28.220000 18.880000 0 0 0
1033 104 3 0.686578 43.970000 28.590000 18.060000 0 0 0
1034 104 4 -0.702118 43.630000 29.480000 17.030000 0 0 0
1035 104 5 0.467850 42.820000 30.710000 16.840000 0 0 0
1036 104 6 -0.628009 43.240000 31.670000 15.780000 0 0 0
1037 104 7 0.394768 42.730000 32.490000 15.950000 0 0 0
1038 104 8 -0.031221 42.950000 31.400000 17.690000 0 0 0
1039 104 8 0.031089 41.730000 30.720000 16.940000 0 0 0
1040 104 9 0.384852 44.520000 29.410000 16.550000 0 0 0
1041 105 1 0.000000 39.520000 27.810000 16.320000 0 0 0
1042 105 2 -0.541197 38.360000 29.750000 16.370000 0 0 0
1043 105 3 0.826629 38.530000 28.690000 17.160000 0 0 0
1044 105 4 -0.720973 39.330000 27.600000 16.840000 0 0 0
1045 105 5 0.324077 40.190000 27.390000 15.650000 0 0 0
1046 105 6 -0.633848 40.740000 26.120000 15.840000 0 0 0
1047 105 7 0.421918 41.190000 25.920000 15.000000 0 0 0
1048 105 8 0.026269 40.960000 28.130000 15.900000 0 0 0
1049 105 8 0.072727 39.730000 27.500000 14.660000 0 0 0
1050 105 9 0.403281 39.530000 26.970000 17.600000 0 0 0
1051 106 1 0.000000 32.580000 5.490000 6.670000 0 0 0
1052 106 2 -0.901187 34.010000 5.260000 5.110000 0 0 0
1053 106 3 0.993526 33.040000 6.230000 5.320000 0 0 0
1054 106 4 -0.735566 32.090000 5.980000 6.320000 0 0 0
1055 106 5 0.306405 32.470000 5.120000 7.500000 0 0 0
1056 106 6 -0.577392 31.560000 5.080000 8.530000 0 0 0
1057 106 7 0.367197 31.500000 4.120000 8.700000 0 0 0
1058 106 8 0.086304 33.500000 5.350000 7.800000 0 0 0
1059 106 8 0.006047 32.810000 4.130000 7.170000 0 0 0
1060 106 9 0.395381 31.480000 6.790000 6.280000 0 0 0
1061 107 1 0.000000 29.100000 3.290000 9.740000 0 0 0
1062 107 2 -0.723387 28.790000 1.650000 11.380000 0 0 0
1063 107 3 0.686578 29.760000 2.020000 10.560000 0 0 0
1064 107 4 -0.702118 29.420000 2.910000 9.530000 0 0 0
1065 107 5 0.467850 28.610000 4.140000 9.340000 0 0 0
1066 107 6 -0.628009 29.030000 5.100000 8.280000 0 0 0
1067 107 7 0.394768 28.520000 5.920000 8.450000 0 0 0
1068 107 8 -0.031221 28.740000 4.830000 10.190000 0 0 0
1069 107 8 0.031089 27.520000 4.150000 9.440000 0 0 0
1070 107 9 0.384852 30.310000 2.840000 9.050000 0 0 0
1071 108 1 0.000000 29.780000 1.840000 5.240000 0 0 0
1072 108 2 -0.541197 28.620000 3.780000 5.290000 0 0 0
1073 108 3 0.826629 28.790000 2.720000 6.080000 0 0 0
1074 108 4 -0.720973 29.590000 1.630000 5.760000 0 0 0
1075 108 5 0.324077 30.450000 1.420000 4.570000 0 0 0
1076 108 6 -0.633848 31.000000 0.150000 4.760000 0 0 0
1077 108 7 0.421918 31.450000 65.278700 3.920000 0 -1 0
1078 108 8 0.026269 31.220000 2.160000 4.820000 0 0 0
1079 108 8 0.072727 29.990000 1.530000 3.580000 0 0 0
1080 108 9 0.403281 29.790000 1.000000 6.520000 0 0 0
1081 109 1 0.000000 28.740000 17.650000 1.130000 0 0 0
1082 109 2 -0.901187 30.170000 17.420000 64.898700 0 0 -1
1083 109 3 0.993526 29.200000 18.390000 65.108700 0 0 -1
1084 109 4 -0.735566 28.250000 18.140000 0.780000 0 0 0
1085 109 5 0.306405 28.630000 17.280000 1.960000 0 0 0
1086 109 6 -0.577392 27.720000 17.240000 2.990000 0 0 0
1087 109 7 0.367197 27.660000 16.280000 3.160000 0 0 0
1088 109 8 0.086304 29.660000 17.510000 2.260000 0 0 0
1089 109 8 0.006047 28.970000 16.290000 1.630000 0 0 0
1090 109 9 0.395381 27.640000 18.950000 0.740000 0 0 0
1091 110 1 0.000000 28.620000 20.450000 4.520000 0 0 0
1092 110 2 -0.723387 28.310000 18.810000 6.160000 0 0 0
1093 110 3 0.686578 29.280000 19.180000 5.340000 0 0 0
1094 110 4 -0.702118 28.940000 20.070000 4.310000 0 0 0
1095 110 5 0.467850 28.130000 21.300000 4.120000 0 0 0
1096 110 6 -0.628009 28.550000 22.260000 3.060000 0 0 0
1097 110 7 0.394768 28.040000 23.080000 3.230000 0 0 0
1098 110 8 -0.031221 28.260000 21.990000 4.970000 0 0 0
1099 110 8 0.031089 27.040000 21.310000 4.220000 0 0 0
1100 110 9 0.384852 29.830000 20.000000 3.830000 0 0 0
1101 111 1 0.000000 27.300000 15.380000 4.990000 0 0 0
1102 111 2 -0.541197 26.140000 17.320000 5.040000 0 0 0
1103 111 3 0.826629 26.310000 16.260000 5.830000 0 0 0
1104 111 4 -0.720973 27.110000 15.170000 5.510000 0 0 0
1105 111 5 0.324077 27.970000 14.960000 4.320000 0 0 0
1106 111 6 -0.633848 28.520000 13.690000 4.510000 0 0 0
1107 111 7 0.421918 28.970000 13.490000 3.670000 0 0 0
1108 111 8 0.026269 28.740000 15.700000 4.570000 0 0 0
1109 111 8 0.072727 27.510000 15.070000 3.330000 0 0 0
1110 111 9 0.403281 27.310000 14.540000 6.270000 0 0 0
1111 112 1 0.000000 42.080000 65.280000 12.380000 0 0 0
1112 112 2 -0.901187 43.510000 65.050000 10.820000 0 0 0
1113 112 3 0.993526 42.540000 0.691300 11.030000 0 1 0
1114 112 4 -0.735566 41.590000 0.441300 12.030000 0 1 0
1115 112 5 0.306405 41.970000 64.910000 13.210000 0 0 0
1116 112 6 -0.577392 41.060000 64.870000 14.240000 0 0 0
1117 112 7 0.367197 41.000000 63.910000 14.410000 0 0 0
1118 112 8 0.086304 43.000000 65.140000 13.510000 0 0 0
1119 112 8 0.006047 42.310000 63.920000 12.880000 0 0 0
1120 112 9 0.395381 40.980000 1.251300 11.990000 0 1 0
1121 113 1 0.000000 37.180000 64.950000 11.590000 0 0 0
1122 113 2 -0.723387 36.870000 63.310000 13.230000 0 0 0
1123 113 3 0.686578 37.840000 63.680000 12.410000 0 0 0
1124 113 4 -0.702118 37.500000 64.570000 11.380000 0 0 0
1125 113 5 0.467850 36.690000 0.471300 11.190000 0 1 0
1126 113 6 -0.628009 37.110000 1.431300 10.130000 0 1 0
1127 113 7 0.394768 36.600000 2.251300 10.300000 0 1 0
1128 113 8 -0.031221 36.820000 1.161300 12.040000 0 1 0
1129 113 8 0.031089 35.600000 0.481300 11.290000 0 1 0
1130 113 9 0.384852 38.390000 64.500000 10.900000 0 0 0
1131 114 1 0.000000 39.710000 2.361300 8.470000 0 1 0
1132 114 2 -0.541197 38.550000 4.301300 8.520000 0 1 0
1133 114 3 0.826629 38.720000 3.241300 9.310000 0 1 0
1134 114 4 -0.720973 39.520000 2.151300 8.990000 0 1 0
1135 114 5 0.324077 40.380000 1.941300 7.800000 0 1 0
1136 114 6 -0.633848 40.930000 0.671300 7.990000 0 1 0
1137 114 7 0.421918 41.380000 0.471300 7.150000 0 1 0
1138 114 8 0.026269 41.150000 2.681300 8.050000 0 1 0
1139 114 8 0.072727 39.920000 2.051300 6.810000 0 1 0
1140 114 9 0.403281 39.720000 1.521300 9.750000 0 1 0
1141 115 1 0.000000 11.630000 21.960000 18.850000 0 0 0
1142 115 2 -0.901187 13.060000 21.730000 17.290000 0 0 0
1143 115 3 0.993526 12.090000 22.700000 17.500000 0 0 0
1144 115 4 -0.735566 11.140000 22.450000 18.500000 0 0 0
1145 115 5 0.306405 11.520000 21.590000 19.680000 0 0 0
1146 115 6 -0.577392 10.610000 21.550000 20.710000 0 0 0
1147 115 7 0.367197 10.550000 20.590000 20.880000 0 0 0
1148 115 8 0.086304 12.550000 21.820000 19.980000 0 0 0
1149 115 8 0.006047 11.860000 20.600000 19.350000 0 0 0
1150 115 9 0.395381 10.530000 23.260000 18.460000 0 0 0
1151 116 1 0.000000 14.990000 24.180000 16.640000 0 0 0
1152 116 2 -0.723387 14.680000 22.540000 18.280000 0 0 0
1153 116 3 0.686578 15.650000 22.910000 17.460000 0 0 0
1154 116 4 -0.702118 15.310000 23.800000 16.430000 0 0 0
1155 116 5 0.467850 14.500000 25.030000 16.240000 0 0 0
1156 116 6 -0.628009 14.920000 25.990000 15.180000 0 0 0
1157 116 7 0.394768 14.410000 26.810000 15.350000 0 0 0
1158 116 8 -0.031221 14.630000 25.720000 17.090000 0 0 0
1159 116 8 0.031089 13.410000 25.040000 16.340000 0 0 0
1160 116 9 0.384852 16.200000 23.730000 15.950000 0 0 0
1161 117 1 0.000000 13.790000 25.820000 20.470000 0 0 0
1162 117 2 -0.541197 12.630000 27.760000 20.520000 0 0 0
1163 117 3 0.826629 12.800000 26.700000 21.310000 0 0 0
1164 117 4 -0.720973 13.600000 25.610000 20.990000 0 0 0
1165 117 5 0.324077 14.460000 25.400000 19.800000 0 0 0
1166 117 6 -0.633848 15.010000 24.130000 19.990000 0 0 0
1167 117 7 0.421918 15.460000 23.930000 19.150000 0 0 0
1168 117 8 0.026269 15.230000 26.140000 20.050000 0 0 0
1169 117 8 0.072727 14.000000 25.510000 18.810000 0 0 0
1170 117 9 0.403281 13.800000 24.980000 21.750000 0 0 0
1171 118 1 0.000000 62.530000 65.260000 0.400000 0 0 0
1172 118 2 -0.901187 63.960000 65.030000 64.168700 0 0 -1
1173 118 3 0.993526 62.990000 0.671300 64.378700 0 1 -1
1174 118 4 -0.735566 62.040000 0.421300 0.050000 0 1 0
1175 118 5 0.306405 62.420000 64.890000 1.230000 0 0 0
1176 118 6 -0.577392 61.510000 64.850000 2.260000 0 0 0
1177 118 7 0.367197 61.450000 63.890000 2.430000 0 0 0
1178 118 8 0.086304 63.450000 65.120000 1.530000 0 0 0
1179 118 8 0.006047 62.760000 63.900000 0.900000 0 0 0
1180 118 9 0.395381 61.430000 1.231300 0.010000 0 1 0
1181 119 1 0.000000 64.730000 61.970000 3.110000 0 0 0
1182 119 2 -0.723387 64.420000 60.330000 4.750000 0 0 0
1183 119 3 0.686578 0.061300 60.700000 3.930000 1 0 0
1184 119 4 -0.702118 65.050000 61.590000 2.900000 0 0 0
1185 119 5 0.467850 64.240000 62.820000 2.710000 0 0 0
1186 119 6 -0.628009 64.660000 63.780000 1.650000 0 0 0
1187 119 7 0.394768 64.150000 64.600000 1.820000 0 0 0
1188 119 8 -0.031221 64.370000 63.510000 3.560000 0 0 0
1189 119 8 0.031089 63.150000 62.830000 2.810000 0 0 0
1190 119 9 0.384852 0.611300 61.520000 2.420000 1 0 0
1191 120 1 0.000000 61.810000 60.630000 64.748700 0 0 -1
1192 120 2 -0.541197 60.650000 62.570000 64.798700 0 0 -1
1193 120 3 0.826629 60.820000 61.510000 0.260000 0 0 0
1194 120 4 -0.720973 61.620000 60.420000 65.268700 0 0 -1
1195 120 5 0.324077 62.480000 60.210000 64.078700 0 0 -1
1196 120 6 -0.633848 63.030000 58.940000 64.268700 0 0 -1
1197 120 7 0.421918 63.480000 58.740000 63.428700 0 0 -1
1198 120 8 0.026269 63.250000 60.950000 64.328700 0 0 -1
1199 120 8 0.072727 62.020000 60.320000 63.088700 0 0 -1
1200 120 9 0.403281 61.820000 59.790000 0.700000 0 0 0
1201 121 1 0.000000 63.330000 48.660000 44.980000 0 0 0
1202 121 2 -0.901187 64.760000 48.430000 43.420000 0 0 0
1203 121 3 0.993526 63.790000 49.400000 43.630000 0 0 0
1204 121 4 -0.735566 62.840000 49.150000 44.630000 0 0 0
1205 121 5 0.306405 63.220000 48.290000 45.810000 0 0 0
1206 121 6 -0.577392 62.310000 48.250000 46.840000 0 0 0
1207 121 7 0.367197 62.250000 47.290000 47.010000 0 0 0
1208 121 8 0.086304 64.250000 48.520000 46.110000 0 0 0
1209 121 8 0.006047 63.560000 47.300000 45.480000 0 0 0
1210 121 9 0.395381 62.230000 49.960000 44.590000 0 0 0
1211 122 1 0.000000 60.540000 47.290000 47.870000 0 0 0
1212 122 2 -0.723387 60.230000 45.650000 49.510000 0 0 0
1213 122 3 0.686578 61.200000 46.020000 48.690000 0 0 0
1214 122 4 -0.702118 60.860000 46.910000 47.660000 0 0 0
1215 122 5 0.467850 60.050000 48.140000 47.470000 0 0 0
1216 122 6 -0.628009 60.470000 49.100000 46.410000 0 0 0
1217 122 7 0.394768 59.960000 49.920000 46.580000 0 0 0
1218 122 8 -0.031221 60.180000 48.830000 48.320000 0 0 0
1219 122 8 0.031089 58.960000 48.150000 47.570000 0 0 0
1220 122 9 0.384852 61.750000 46.840000 47.180000 0 0 0
1221 123 1 0.000000 64.790000 47.430000 48.950000 0 0 0
1222 123 2 -0.541197 63.630000 49.370000 49.000000 0 0 0
1223 123 3 0.826629 63.800000 48.310000 49.790000 0 0 0
1224 123 4 -0.720973 64.600000 47.220000 49.470000 0 0 0
1225 123 5 0.324077 0.131300 47.010000 48.280000 1 0 0
1226 123 6 -0.633848 0.681300 45.740000 48.470000 1 0 0
1227 123 7 0.421918 1.131300 45.540000 47.630000 1 0 0
1228 123 8 0.026269 0.901300 47.750000 48.530000 1 0 0
1229 123 8 0.072727 65.000000 47.120000 47.290000 0 0 0
1230 123 9 0.403281 64.800000 46.590000 50.230000 0 0 0
1231 124 1 0.000000 39.540000 28.790000 33.630000 0 0 0
1232 124 2 -0.901187 40.970000 28.560000 32.070000 0 0 0
1233 124 3 0.993526 40.000000 29.530000 32.280000 0 0 0
1234 124 4 -0.735566 39.050000 29.280000 33.280000 0 0 0
1235 124 5 0.306405 39.430000 28.420000 34.460000 0 0 0
1236 124 6 -0.577392 38.520000 28.380000 35.490000 0 0 0
1237 124 7 0.367197 38.460000 27.420000 35.660000 0 0 0
1238 124 8 0.086304 40.460000 28.650000 34.760000 0 0 0
1239 124 8 0.006047 39.770000 27.430000 34.130000 0 0 0
1240 124 9 0.395381 38.440000 30.090000 33.240000 0 0 0
1241 125 1 0.000000 42.930000 25.430000 34.190000 0 0 0
1242 125 2 -0.723387 42.620000 23.790000 35.830000 0 0 0
1243 125 3 0.686578 43.590000 24.160000 35.010000 0 0 0
1244 125 4 -0.702118 43.250000 25.050000 33.980000 0 0 0
1245 125 5 0.467850 42.440000 26.280000 33.790000 0 0 0
1246 125 6 -0.628009 42.860000 27.240000 32.730000 0 0 0
1247 125 7 0.394768 42.350000 28.060000 32.900000 0 0 0
1248 125 8 -0.031221 42.570000 26.970000 34.640000 0 0 0
1249 125 8 0.031089 41.350000 26.290000 33.890000 0 0 0
1250 125 9 0.384852 44.140000 24.980000 33.500000 0 0 0
1251 126 1 0.000000 39.910000 25.880000 37.640000 0 0 0
1252 126 2 -0.541197 38.750000 27.820000 37.690000 0 0 0
1253 126 3 0.826629 38.920000 26.760000 38.480000 0 0 0
1254 126 4 -0.720973 39.720000 25.670000 38.160000 0 0 0
1255 126 5 0.324077 40.580000 25.460000 36.970000 0 0 0
1256 126 6 -0.633848 41.130000 24.190000 37.160000 0 0 0
1257 126 7 0.421918 41.580000 23.990000 36.320000 0 0 0
1258 126 8 0.026269 41.350000 26.200000 37.220000 0 0 0
1259 126 8 0.072727 40.120000 25.570000 35.980000 0 0 0
1260 126 9 0.403281 39.920000 25.040000 38.920000 0 0 0
1261 127 1 0.000000 60.150000 17.260000 51.540000 0 0 0
1262 127 2 -0.901187 61.580000 17.030000 49.980000 0 0 0
1263 127 3 0.993526 60.610000 18.000000 50.190000 0 0 0
1264 127 4 -0.735566 59.660000 17.750000 51.190000 0 0 0
1265 127 5 0.306405 60.040000 16.890000 52.370000 0 0 0
1266 127 6 -0.577392 59.130000 16.850000 53.400000 0 0 0
1267 127 7 0.367197 59.070000 15.890000 53.570000 0 0 0
1268 127 8 0.086304 61.070000 17.120000 52.670000 0 0 0
1269 127 8 0.006047 60.380000 15.900000 52.040000 0 0 0
1270 127 9 0.395381 59.050000 18.560000 51.150000 0 0 0
1271 128 1 0.000000 58.370000 21.060000 54.020000 0 0 0
1272 128 2 -0.723387 58.060000 19.420000 55.660000 0 0 0
1273 128 3 0.686578 59.030000 19.790000 54.840000 0 0 0
1274 128 4 -0.702118 58.690000 20.680000 53.810000 0 0 0
1275 128 5 0.467850 57.880000 21.910000 53.620000 0 0 0
1276 128 6 -0.628009 58.300000 22.870000 52.560000 0 0 0
1277 128 7 0.394768 57.790000 23.690000 52.730000 0 0 0
1278 128 8 -0.031221 58.010000 22.600000 54.470000 0 0 0
1279 128 8 0.031089 56.790000 21.920000 53.720000 0 0 0
1280 128 9 0.384852 59.580000 20.610000 53.330000 0 0 0
1281 129 1 0.000000 57.530000 20.750000 49.270000 0 0 0
1282 129 2 -0.541197 56.370000 22.690000 49.320000 0 0 0
1283 129 3 0.826629 56.540000 21.630000 50.110000 0 0 0
1284 129 4 -0.720973 57.340000 20.540000 49.790000 0 0 0
1285 129 5 0.324077 58.200000 20.330000 48.600000 0 0 0
1286 129 6 -0.633848 58.750000 19.060000 48.790000 0 0 0
1287 129 7 0.421918 59.200000 18.860000 47.950000 0 0 0
1288 129 8 0.026269 58.970000 21.070000 48.850000 0 0 0
1289 129 8 0.072727 57.740000 20.440000 47.610000 0 0 0
1290 129 9 0.403281 57.540000 19.910000 50.550000 0 0 0
1291 130 1 0.000000 20.850000 3.620000 10.930000 0 0 0
1292 130 2 -0.901187 22.280000 3.390000 9.370000 0 0 0
1293 130 3 0.993526 21.310000 4.360000 9.580000 0 0 0
1294 130 4 -0.735566 20.360000 4.110000 10.580000 0 0 0
1295 130 5 0.306405 20.740000 3.250000 11.760000 0 0 0
1296 130 6 -0.577392 19.830000 3.210000 12.790000 0 0 0
1297 130 7 0.367197 19.770000 2.250000 12.960000 0 0 0
1298 130 8 0.086304 21.770000 3.480000 12.060000 0 0 0
1299 130 8 0.006047 21.080000 2.260000 11.430000 0 0 0
1300 130 9 0.395381 19.750000 4.920000 10.540000 0 0 0
1301 131 1 0.000000 25.210000 4.170000 8.080000 0 0 0
1302 131 2 -0.723387 24.900000 2.530000 9.720000 0 0 0
1303 131 3 0.686578 25.870000 2.900000 8.900000 0 0 0
1304 131 4 -0.702118 25.530000 3.790000 7.870000 0 0 0
1305 131 5 0.467850 24.720000 5.020000 7.680000 0 0 0
1306 131 6 -0.628009 25.140000 5.980000 6.620000 0 0 0
1307 131 7 0.394768 24.630000 6.800000 6.790000 0 0 0
1308 131 8 -0.031221 24.850000 5.710000 8.530000 0 0 0
1309 131 8 0.031089 23.630000 5.030000 7.780000 0 0 0
1310 131 9 0.384852 26.420000 3.720000 7.390000 0 0 0
1311 132 1 0.000000 20.890000 2.530000 6.730000 0 0 0
1312 132 2 -0.541197 19.730000 4.470000 6.780000 0 0 0
1313 132 3 0.826629 19.900000 3.410000 7.570000 0 0 0
1314 132 4 -0.720973 20.700000 2.320000 7.250000 0 0 0
1315 132 5 0.324077 21.560000 2.110000 6.060000 0 0 0
1316 132 6 -0.633848 22.110000 0.840000 6.250000 0 0 0
1317 132 7 0.421918 22.560000 0.640000 5.410000 0 0 0
1318 132 8 0.026269 22.330000 2.850000 6.310000 0 0 0
1319 132 8 0.072727 21.100000 2.220000 5.070000 0 0 0
1320 132 9 0.403281 20.900000 1.690000 8.010000 0 0 0
1321 133 1 0.000000 25.000000 36.100000 28.510000 0 0 0
1322 133 2 -0.901187 26.430000 35.870000 26.950000 0 0 0
1323 133 3 0.993526 25.460000 36.840000 27.160000 0 0 0
1324 133 4 -0.735566 24.510000 36.590000 28.160000 0 0 0
1325 133 5 0.306405 24.890000 35.730000 29.340000 0 0 0
1326 133 6 -0.577392 23.980000 35.690000 30.370000 0 0 0
1327 133 7 0.367197 23.920000 34.730000 30.540000 0 0 0
1328 133 8 0.086304 25.920000 35.960000 29.640000 0 0 0
1329 133 8 0.006047 25.230000 34.740000 29.010000 0 0 0
1330 133 9 0.395381 23.900000 37.400000 28.120000 0 0 0
1331 134 1 0.000000 22.130000 34.380000 25.260000 0 0 0
1332 134 2 -0.723387 21.820000 32.740000 26.900000 0 0 0
1333 134 3 0.686578 22.790000 33.110000 26.080000 0 0 0
1334 134 4 -0.702118 22.450000 34.000000 25.050000 0 0 0
1335 134 5 0.467850 21.640000 35.230000 24.860000 0 0 0
1336 134 6 -0.628009 22.060000 36.190000 23.800000 0 0 0
1337 134 7 0.394768 21.550000 37.010000 23.970000 0 0 0
1338 134 8 -0.031221 21.770000 35.920000 25.710000 0 0 0
1339 134 8 0.031089 20.550000 35.240000 24.960000 0 0 0
1340 134 9 0.384852 23.340000 33.930000 24.570000 0 0 0
1341 135 1 0.000000 20.600000 36.150000 28.920000 0 0 0
1342 135 2 -0.541197 19.440000 38.090000 28.970000 0 0 0
1343 135 3 0.826629 19.610000 37.030000 29.760000 0 0 0
1344 135 4 -0.720973 20.410000 35.940000 29.440000 0 0 0
1345 135 5 0.324077 21.270000 35.730000 28.250000 0 0 0
1346 135 6 -0.633848 21.820000 34.460000 28.440000 0 0 0
1347 135 7 0.421918 22.270000 34.260000 27.600000 0 0 0
1348 135 8 0.026269 22.040000 36.470000 28.500000 0 0 0
1349 135 8 0.072727 20.810000 35.840000 27.260000 0 0 0
1350 135 9 0.403281 20.610000 35.310000 30.200000 0 0 0
1351 136 1 0.000000 11.700000 31.950000 54.880000 0 0 0
1352 136 2 -0.901187 13.130000 31.720000 53.320000 0 0 0
1353 136 3 0.993526 12.160000 32.690000 53.530000 0 0 0
1354 136 4 -0.735566 11.210000 32.440000 54.530000 0 0 0
1355 136 5 0.306405 11.590000 31.580000 55.710000 0 0 0
1356 136 6 -0.577392 10.680000 31.540000 56.740000 0 0 0
1357 136 7 0.367197 10.620000 30.580000 56.910000 0 0 0
1358 136 8 0.086304 12.620000 31.810000 56.010000 0 0 0
1359 136 8 0.006047 11.930000 30.590000 55.380000 0 0 0
1360 136 9 0.395381 10.600000 33.250000 54.490000 0 0 0
1361 137 1 0.000000 8.450000 34.630000 54.460000 0 0 0
1362 137 2 -0.723387 8.140000 32.990000 56.100000 0 0 0
1363 137 3 0.686578 9.110000 33.360000 55.280000 0 0 0
1364 137 4 -0.702118 8.770000 34.250000 54.250000 0 0 0
1365 137 5 0.467850 7.960000 35.480000 54.060000 0 0 0
1366 137 6 -0.628009 8.380000 36.440000 53.000000 0 0 0
1367 137 7 0.394768 7.870000 37.260000 53.170000 0 0 0
1368 137 8 -0.031221 8.090000 36.170000 54.910000 0 0 0
1369 137 8 0.031089 6.870000 35.490000 54.160000 0 0 0
1370 137 9 0.384852 9.660000 34.180000 53.770000 0 0 0
1371 138 1 0.000000 8.390000 32.240000 58.410000 0 0 0
1372 138 2 -0.541197 7.230000 34.180000 58.460000 0 0 0
1373 138 3 0.826629 7.400000 33.120000 59.250000 0 0 0
1374 138 4 -0.720973 8.200000 32.030000 58.930000 0 0 0
1375 138 5 0.324077 9.060000 31.820000 57.740000 0 0 0
1376 138 6 -0.633848 9.610000 30.550000 57.930000 0 0 0
1377 138 7 0.421918 10.060000 30.350000 57.090000 0 0 0
1378 138 8 0.026269 9.830000 32.560000 57.990000 0 0 0
1379 138 8 0.072727 8.600000 31.930000 56.750000 0 0 0
1380 138 9 0.403281 8.400000 31.400000 59.690000 0 0 0
1381 139 1 0.000000 62.720000 54.590000 55.100000 0 0 0
1382 139 2 -0.901187 64.150000 54.360000 53.540000 0 0 0
1383 139 3 0.993526 63.180000 55.330000 53.750000 0 0 0
1384 139 4 -0.735566 62.230000 55.080000 54.750000 0 0 0
1385 139 5 0.306405 62.610000 54.220000 55.930000 0 0 0
1386 139 6 -0.577392 61.700000 54.180000 56.960000 0 0 0
1387 139 7 0.367197 61.640000 53.220000 57.130000 0 0 0
1388 139 8 0.086304 63.640000 54.450000 56.230000 0 0 0
1389 139 8 0.006047 62.950000 53.230000 55.600000 0 0 0
1390 139 9 0.395381 61.620000 55.890000 54.710000 0 0 0
1391 140 1 0.000000 60.410000 50.760000 57.270000 0 0 0
1392 140 2 -0.723387 60.100000 49.120000 58.910000 0 0 0
1393 140 3 0.686578 61.070000 49.490000 58.090000 0 0 0
1394 140 4 -0.702118 60.730000 50.380000 57.060000 0 0 0
1395 140 5 0.467850 59.920000 51.610000 56.870000 0 0 0
1396 140 6 -0.628009 60.340000 52.570000 55.810000 0 0 0
1397 140 7 0.394768 59.830000 53.390000 55.980000 0 0 0
1398 140 8 -0.031221 60.050000 52.300000 57.720000 0 0 0
1399 140 8 0.031089 58.830000 51.620000 56.970000 0 0 0
1400 140 9 0.384852 61.620000 50.310000 56.580000 0 0 0
1401 141 1 0.000000 65.300000 51.590000 57.650000 0 0 0
1402 141 2 -0.541197 64.140000 53.530000 57.700000 0 0 0
1403 141 3 0.826629 64.310000 52.470000 58.490000 0 0 0
1404 141 4 -0.720973 65.110000 51.380000 58.170000 0 0 0
1405 141 5 0.324077 0.641300 51.170000 56.980000 1 0 0
1406 141 6 -0.633848 1.191300 49.900000 57.170000 1 0 0
1407 141 7 0.421918 1.641300 49.700000 56.330000 1 0 0
1408 141 8 0.026269 1.411300 51.910000 57.230000 1 0 0
1409 141 8 0.072727 0.181300 51.280000 55.990000 1 0 0
1410 141 9 0.403281 65.310000 50.750000 58.930000 0 0 0
1411 142 1 0.000000 7.720000 63.550000 19.890000 0 0 0
1412 142 2 -0.901187 9.150000 63.320000 18.330000 0 0 0
1413 142 3 0.993526 8.180000 64.290000 18.540000 0 0 0
1414 142 4 -0.735566 7.230000 64.040000 19.540000 0 0 0
1415 142 5 0.306405 7.610000 63.180000 20.720000 0 0 0
1416 142 6 -0.577392 6.700000 63.140000 21.750000 0 0 0
1417 142 7 0.367197 6.640000 62.180000 21.920000 0 0 0
1418 142 8 0.086304 8.640000 63.410000 21.020000 0 0 0
1419 142 8 0.006047 7.950000 62.190000 20.390000 0 0 0
1420 142 9 0.395381 6.620000 64.850000 19.500000 0 0 0
1421 143 1 0.000000 12.310000 61.930000 19.570000 0 0 0
1422 143 2 -0.723387 12.000000 60.290000 21.210000 0 0 0
1423 143 3 0.686578 12.970000 60.660000 20.390000 0 0 0
1424 143 4 -0.702118 12.630000 61.550000 19.360000 0 0 0
1425 143 5 0.467850 11.820000 62.780000 19.170000 0 0 0
1426 143 6 -0.628009 12.240000 63.740000 18.110000 0 0 0
1427 143 7 0.394768 11.730000 64.560000 18.280000 0 0 0
1428 143 8 -0.031221 11.950000 63.470000 20.020000 0 0 0
1429 143 8 0.031089 10.730000 62.790000 19.270000 0 0 0
1430 143 9 0.384852 13.520000 61.480000 18.880000 0 0 0
1431 144 1 0.000000 8.980000 60.690000 16.050000 0 0 0
1432 144 2 -0.541197 7.820000 62.630000 16.100000 0 0 0
1433 144 3 0.826629 7.990000 61.570000 16.890000 0 0 0
1434 144 4 -0.720973 8.790000 60.480000 16.570000 0 0 0
1435 144 5 0.324077 9.650000 60.270000 15.380000 0 0 0
1436 144 6 -0.633848 10.200000 59.000000 15.570000 0 0 0
1437 144 7 0.421918 10.650000 58.800000 14.730000 0 0 0
1438 144 8 0.026269 10.420000 61.010000 15.630000 0 0 0
1439 144 8 0.072727 9.190000 60.380000 14.390000 0 0 0
1440 144 9 0.403281 8.990000 59.850000 17.330000 0 0 0
1441 145 1 0.000000 31.770000 61.500000 17.730000 0 0 0
1442 145 2 -0.901187 33.200000 61.270000 16.170000 0 0 0
1443 145 3 0.993526 32.230000 62.240000 16.380000 0 0 0
1444 145 4 -0.735566 31.280000 61.990000 17.380000 0 0 0
1445 145 5 0.306405 31.660000 61.130000 18.560000 0 0 0
1446 145 6 -0.577392 30.750000 61.090000 19.590000 0 0 0
1447 145 7 0.367197 30.690000 60.130000 19.760000 0 0 0
1448 145 8 0.086304 32.690000 61.360000 18.860000 0 0 0
1449 145 8 0.006047 32.000000 60.140000 18.230000 0 0 0
1450 145 9 0.395381 30.670000 62.800000 17.340000 0 0 0
1451 146 1 0.000000 34.560000 58.110000 17.000000 0 0 0
1452 146 2 -0.723387 34.250000 56.470000 18.640000 0 0 0
1453 146 3 0.686578 35.220000 56.840000 17.820000 0 0 0
1454 146 4 -0.702118 34.880000 57.730000 16.790000 0 0 0
1455 146 5 0.467850 34.070000 58.960000 16.600000 0 0 0
1456 146 6 -0.628009 34.490000 59.920000 15.540000 0 0 0
1457 146 7 0.394768 33.980000 60.740000 15.710000 0 0 0
1458 146 8 -0.031221 34.200000 59.650000 17.450000 0 0 0
1459 146 8 0.031089 32.980000 58.970000 16.700000 0 0 0
1460 146 9 0.384852 35.770000 57.660000 16.310000 0 0 0
1461 147 1 0.000000 35.300000 62.970000 15.010000 0 0 0
1462 147 2 -0.541197 34.140000 64.910000 15.060000 0 0 0
1463 147 3 0.826629 34.310000 63.850000 15.850000 0 0 0
1464 147 4 -0.720973 35.110000 62.760000 15.530000 0 0 0
1465 147 5 0.324077 35.970000 62.550000 14.340000 0 0 0
1466 147 6 -0.633848 36.520000 61.280000 14.530000 0 0 0
1467 147 7 0.421918 36.970000 61.080000 13.690000 0 0 0
1468 147 8 0.026269 36.740000 63.290000 14.590000 0 0 0
1469 147 8 0.072727 35.510000 62.660000 13.350000 0 0 0
1470 147 9 0.403281 35.310000 62.130000 16.290000 0 0 0
1471 148 1 0.000000 51.960000 5.970000 18.140000 0 0 0
1472 148 2 -0.901187 53.390000 5.740000 16.580000 0 0 0
1473 148 3 0.993526 52.420000 6.710000 16.790000 0 0 0
1474 148 4 -0.735566 51.470000 6.460000 17.790000 0 0 0
1475 148 5 0.306405 51.850000 5.600000 18.970000 0 0 0
1476 148 6 -0.577392 50.940000 5.560000 20.000000 0 0 0
1477 148 7 0.367197 50.880000 4.600000 20.170000 0 0 0
1478 148 8 0.086304 52.880000 5.830000 19.270000 0 0 0
1479 148 8 0.006047 52.190000 4.610000 18.640000 0 0 0
1480 148 9 0.395381 50.860000 7.270000 17.750000 0 0 0
1481 149 1 0.000000 50.470000 10.140000 18.000000 0 0 0
1482 149 2 -0.723387 50.160000 8.500000 19.640000 0 0 0
1483 149 3 0.686578 51.130000 8.870000 18.820000 0 0 0
1484 149 4 -0.702118 50.790000 9.760000 17.790000 0 0 0
1485 149 5 0.467850 49.980000 10.990000 17.600000 0 0 0
1486 149 6 -0.628009 50.400000 11.950000 16.540000 0 0 0
1487 149 7 0.394768 49.890000 12.770000 16.710000 0 0 0
1488 149 8 -0.031221 50.110000 11.680000 18.450000 0 0 0
1489 149 8 0.031089 48.890000 11.000000 17.700000 0 0 0
1490 149 9 0.384852 51.680000 9.690000 17.310000 0 0 0
1491 150 1 0.000000 54.770000 10.570000 18.080000 0 0 0
1492 150 2 -0.541197 53.610000 12.510000 18.130000 0 0 0
1493 150 3 0.826629 53.780000 11.450000 18.920000 0 0 0
1494 150 4 -0.720973 54.580000 10.360000 18.600000 0 0 0
1495 150 5 0.324077 55.440000 10.150000 17.410000 0 0 0
1496 150 6 -0.633848 55.990000 8.880000 17.600000 0 0 0
1497 150 7 0.421918 56.440000 8.680000 16.760000 0 0 0
1498 150 8 0.026269 56.210000 10.890000 17.660000 0 0 0
1499 150 8 0.072727 54.980000 10.260000 16.420000 0 0 0
1500 150 9 0.403281 54.780000 9.730000 19.360000 0 0 0

Bonds

1 1 2 3
2 2 3 4
3 3 4 5
4 4 4 10
5 5 5 6
6 6 5 8
7 6 5 9
8 7 6 7
9 1 12 13
10 2 13 14
11 3 14 15
12 4 14 20
13 5 15 16
14 6 15 18
15 6 15 19
16 7 16 17
17 1 22 23
18 2 23 24
19 3 24 25
20 4 24 30
21 5 25 26
22 6 25 28
23 6 25 29
24 8 26 27
25 1 32 33
26 2 33 34
27 3 34 35
28 4 34 40
29 5 35 36
30 6 35 38
31 6 35 39
32 7 36 37
33 1 42 43
34 2 43 44
35 3 44 45
36 4 44 50
37 5 45 46
38 6 45 48
39 6 45 49
40 7 46 47
41 1 52 53
42 2 53 54
43 3 54 55
44 4 54 60
45 5 55 56
46 6 55 58
47 6 55 59
48 8 56 57
49 1 62 63
50 2 63 64
51 3 64 65
52 4 64 70
53 5 65 66
54 6 65 68
55 6 65 69
56 7 66 67
57 1 72 73
58 2 73 74
59 3 74 75
60 4 74 80
61 5 75 76
62 6 75 78
63 6 75 79
64 7 76 77
65 1 82 83
66 2 83 84
67 3 84 85
68 4 84 90
69 5 85 86
70 6 85 88
71 6 85 89
72 8 86 87
73 1 92 93
74 2 93 94
75 3 94 95
76 4 94 100
77 5 95 96
78 6 95 98
79 6 95 99
80 7 96 97
81 1 102 103
82 2 103 104
83 3 104 105
84 4 104 110
85 5 105 106
86 6 105 108
87 6 105 109
88 7 106 107
89 1 112 113
90 2 113 114
91 3 114 115
92 4 114 120
93 5 115 116
94 6 115 118
95 6 115 119
96 8 116 117
97 1 122 123
98 2 123 124
99 3 124 125
100 4 124 130
101 5 125 126
102 6 125 128
103 6 125 129
104 7 126 127
105 1 132 133
106 2 133 134
107 3 134 135
108 4 134 140
109 5 135 136
110 6 135 138
111 6 135 139
112 7 136 137
113 1 142 143
114 2 143 144
115 3 144 145
116 4 144 150
117 5 145 146
118 6 145 148
119 6 145 149
120 8 146 147
121 1 152 153
122 2 153 154
123 3 154 155
124 4 154 160
125 5 155 156
126 6 155 158
127 6 155 159
128 7 156 157
129 1 162 163
130 2 163 164
131 3 164 165
132 4 164 170
133 5 165 166
134 6 165 168
135 6 165 169
136 7 166 167
137 1 172 173
138 2 173 174
139 3 174 175
140 4 174 180
141 5 175 176
142 6 175 178
143 6 175 179
144 8 176 177
145 1 182 183
146 2 183 184
147 3 184 185
148 4 184 190
149 5 185 186
150 6 185 188
151 6 185 189
152 7 186 187
153 1 192 193
154 2 193 194
155 3 194 195
156 4 194 200
157 5 195 196
158 6 195 198
159 6 195 199
160 7 196 197
161 1 202 203
162 2 203 204
163 3 204 205
164 4 204 210
165 5 205 206
166 6 205 208
167 6 205 209
168 8 206 207
169 1 212 213
170 2 213 214
171 3 214 215
172 4 214 220
173 5 215 216
174 6 215 218
175 6 215 219
176 7 216 217
177 1 222 223
178 2 223 224
179 3 224 225
180 4 224 230
181 5 225 226
182 6 225 228
183 6 225 229
184 7 226 227
185 1 232 233
186 2 233 234
187 3 234 235
188 4 234 240
189 5 235 236
190 6 235 238
191 6 235 239
192 8 236 237
193 1 242 243
194 2 243 244
195 3 244 245
196 4 244 250
197 5 245 246
198 6 245 248
199 6 245 249
200 7 246 247
201 1 252 253
202 2 253 254
203 3 254 255
204 4 254 260
205 5 255 256
206 6 255 258
207 6 255 259
208 7 256 257
209 1 262 263
210 2 263 264
211 3 264 265
212 4 264 270
213 5 265 266
214 6 265 268
215 6 265 269
216 8 266 267
217 1 272 273
218 2 273 274
219 3 274 275
220 4 274 280
221 5 275 276
222 6 275 278
223 6 275 279
224 7 276 277
225 1 282 283
226 2 283 284
227 3 284 285
228 4 284 290
229 5 285 286
230 6 285 288
231 6 285 289
232 7 286 287
233 1 292 293
234 2 293 294
235 3 294 295
236 4 294 300
237 5 295 296
238 6 295 298
239 6 295 299
240 8 296 297
241 1 302 303
242 2 303 304
243 3 304 305
244 4 304 310
245 5 305 306
246 6 305 308
247 6 305 309
248 7 306 307
249 1 312 313
250 2 313 314
251 3 314 315
252 4 314 320
253 5 315 316
254 6 315 318
255 6 315 319
256 7 316 317
257 1 322 323
258 2 323 324
259 3 324 325
260 4 324 330
261 5 325 326
262 6 325 328
263 6 325 329
264 8 326 327
265 1 332 333
266 2 333 334
267 3 334 335
268 4 334 340
269 5 335 336
270 6 335 338
271 6 335 339
272 7 336 337
273 1 342 343
274 2 343 344
275 3 344 345
276 4 344 350
277 5 345 346
278 6 345 348
279 6 345 349
280 7 346 347
281 1 352 353
282 2 353 354
283 3 354 355
284 4 354 360
285 5 355 356
286 6 355 358
287 6 355 359
288 8 356 357
289 1 362 363
290 2 363 364
291 3 364 365
292 4 364 370
293 5 365 366
294 6 365 368
295 6 365 369
296 7 366 367
297 1 372 373
298 2 373 374
299 3 374 375
300 4 374 380
301 5 375 376
302 6 375 378
303 6 375 379
304 7 376 377
305 1 382 383
306 2 383 384
307 3 384 385
308 4 384 390
309 5 385 386
310 6 385 388
311 6 385 389
312 8 386 387
313 1 392 393
314 2 393 394
315 3 394 395
316 4 394 400
317 5 395 396
318 6 395 398
319 6 395 399
320 7 396 397
321 1 402 403
322 2 403 404
323 3 404 405
324 4 404 410
325 5 405 406
326 6 405 408
327 6 405 409
328 7 406 407
329 1 412 413
330 2 413 414
331 3 414 415
332 4 414 420
333 5 415 416
334 6 415 418
335 6 415 419
336 8 416 417
337 1 422 423
338 2 423 424
339 3 424 425
340 4 424 430
341 5 425 426
342 6 425 428
343 6 425 429
344 7 426 427
345 1 432 433
346 2 433 434
347 3 434 435
348 4 434 440
349 5 435 436
350 6 435 438
351 6 435 439
352 7 436 437
353 1 442 443
354 2 443 444
355 3 444 445
356 4 444 450
357 5 445 446
358 6 445 448
359 6 445 449
360 8 446 447
361 1 452 453
362 2 453 454
363 3 454 455
364 4 454 460
365 5 455 456
366 6 455 458
367 6 455 459
368 7 456 457
369 1 462 463
370 2 463 464
371 3 464 465
372 4 464 470
373 5 465 466
374 6 465 468
375 6 465 469
376 7 466 467
377 1 472 473
378 2 473 474
379 3 474 475
380 4 474 480
381 5 475 476
382 6 475 478
383 6 475 479
384 8 476 477
385 1 482 483
386 2 483 484
387 3 484 485
388 4 484 490
389 5 485 486
390 6 485 488
391 6 485 489
392 7 486 487
393 1 492 493
394 2 493 494
395 3 494 495
396 4 494 500
397 5 495 496
398 6 495 498
399 6 495 499
400 7 496 497
401 1 502 503
402 2 503 504
403 3 504 505
404 4 504 510
405 5 505 506
406 6 505 508
407 6 505 509
408 8 506 507
409 1 512 513
410 2 513 514
411 3 514 515
412 4 514 520
413 5 515 516
414 6 515 518
415 6 515 519
416 7 516 517
417 1 522 523
418 2 523 524
419 3 524 525
420 4 524 530
421 5 525 526
422 6 525 528
423 6 525 529
424 7 526 527
425 1 532 533
426 2 533 534
427 3 534 535
428 4 534 540
429 5 535 536
430 6 535 538
431 6 535 539
432 8 536 537
433 1 542 543
434 2 543 544
435 3 544 545
436 4 544 550
437 5 545 546
438 6 545 548
439 6 545 549
440 7 546 547
441 1 552 553
442 2 553 554
443 3 554 555
444 4 554 560
445 5 555 556
446 6 555 558
447 6 555 559
448 7 556 557
449 1 562 563
450 2 563 564
451 3 564 565
452 4 564 570
453 5 565 566
454 6 565 568
455 6 565 569
456 8 566 567
457 1 572 573
458 2 573 574
459 3 574 575
460 4 574 580
461 5 575 576
462 6 575 578
463 6 575 579
464 7 576 577
465 1 582 583
466 2 583 584
467 3 584 585
468 4 584 590
469 5 585 586
470 6 585 588
471 6 585 589
472 7 586 587
473 1 592 593
474 2 593 594
475 3 594 595
476 4 594 600
477 5 595 596
478 6 595 598
479 6 595 599
480 8 596 597
481 1 602 603
482 2 603 604
483 3 604 605
484 4 604 610
485 5 605 606
486 6 605 608
487 6 605 609
488 7 606 607
489 1 612 613
490 2 613 614
491 3 614 615
492 4 614 620
493 5 615 616
494 6 615 618
495 6 615 619
496 7 616 617
497 1 622 623
498 2 623 624
499 3 624 625
500 4 624 630
501 5 625 626
502 6 625 628
503 6 625 629
504 8 626 627
505 1 632 633
506 2 633 634
507 3 634 635
508 4 634 640
509 5 635 636
510 6 635 638
511 6 635 639
512 7 636 637
513 1 642 643
514 2 643 644
515 3 644 645
516 4 644 650
517 5 645 646
518 6 645 648
519 6 645 649
520 7 646 647
521 1 652 653
522 2 653 654
523 3 654 655
524 4 654 660
525 5 655 656
526 6 655 658
527 6 655 659
528 8 656 657
529 1 662 663
530 2 663 664
531 3 664 665
532 4 664 670
533 5 665 666
534 6 665 668
535 6 665 669
536 7 666 667
537 1 672 673
538 2 673 674
539 3 674 675
540 4 674 680
541 5 675 676
542 6 675 678
543 6 675 679
544 7 676 677
545 1 682 683
546 2 683 684
547 3 684 685
548 4 684 690
549 5 685 686
550 6 685 688
551 6 685 689
552 8 686 687
553 1 692 693
554 2 693 694
555 3 694 695
556 4 694 700
557 5 695 696
558 6 695 698
559 6 695 699
560 7 696 697
561 1 702 703
562 2 703 704
563 3 704 705
564 4 704 710
565 5 705 706
566 6 705 708
567 6 705 709
568 7 706 707
569 1 712 713
570 2 713 714
571 3 714 715
572 4 714 720
573 5 715 716
574 6 715 718
575 6 715 719
576 8 716 717
577 1 722 723
578 2 723 724
579 3 724 725
580 4 724 730
581 5 725 726
582 6 725 728
583 6 725 729
584 7 726 727
585 1 732 733
586 2 733 734
587 3 734 735
588 4 734 740
589 5 735 736
590 6 735 738
591 6 735 739
592 7 736 737
593 1 742 743
594 2 743 744
595 3 744 745
596 4 744 750
597 5 745 746
598 6 745 748
599 6 745 749
600 8 746 747
601 1 752 753
602 2 753 754
603 3 754 755
604 4 754 760
605 5 755 756
606 6 755 758
607 6 755 759
608 7 756 757
609 1 762 763
610 2 763 764
611 3 764 765
612 4 764 770
613 5 765 766
614 6 765 768
615 6 765 769
616 7 766 767
617 1 772 773
618 2 773 774
619 3 774 775
620 4 774 780
621 5 775 776
622 6 775 778
623 6 775 779
624 8 776 777
625 1 782 783
626 2 783 784
627 3 784 785
628 4 784 790
629 5 785 786
630 6 785 788
631 6 785 789
632 7 786 787
633 1 792 793
634 2 793 794
635 3 794 795
636 4 794 800
637 5 795 796
638 6 795 798
639 6 795 799
640 7 796 797
641 1 802 803
642 2 803 804
643 3 804 805
644 4 804 810
645 5 805 806
646 6 805 808
647 6 805 809
648 8 806 807
649 1 812 813
650 2 813 814
651 3 814 815
652 4 814 820
653 5 815 816
654 6 815 818
655 6 815 819
656 7 816 817
657 1 822 823
658 2 823 824
659 3 824 825
660 4 824 830
661 5 825 826
662 6 825 828
663 6 825 829
664 7 826 827
665 1 832 833
666 2 833 834
667 3 834 835
668 4 834 840
669 5 835 836
670 6 835 838
671 6 835 839
672 8 836 837
673 1 842 843
674 2 843 844
675 3 844 845
676 4 844 850
677 5 845 846
678 6 845 848
679 6 845 849
680 7 846 847
681 1 852 853
682 2 853 854
683 3 854 855
684 4 854 860
685 5 855 856
686 6 855 858
687 6 855 859
688 7 856 857
689 1 862 863
690 2 863 864
691 3 864 865
692 4 864 870
693 5 865 866
694 6 865 868
695 6 865 869
696 8 866 867
697 1 872 873
698 2 873 874
699 3 874 875
700 4 874 880
701 5 875 876
702 6 875 878
703 6 875 879
704 7 876 877
705 1 882 883
706 2 883 884
707 3 884 885
708 4 884 890
709 5 885 886
710 6 885 888
711 6 885 889
712 7 886 887
713 1 892 893
714 2 893 894
715 3 894 895
716 4 894 900
717 5 895 896
718 6 895 898
719 6 895 899
720 8 896 897
721 1 902 903
722 2 903 904
723 3 904 905
724 4 904 910
725 5 905 906
726 6 905 908
727 6 905 909
728 7 906 907
729 1 912 913
730 2 913 914
731 3 914 915
732 4 914 920
733 5 915 916
734 6 915 918
735 6 915 919
736 7 916 917
737 1 922 923
738 2 923 924
739 3 924 925
740 4 924 930
741 5 925 926
742 6 925 928
743 6 925 929
744 8 926 927
745 1 932 933
746 2 933 934
747 3 934 935
748 4 934 940
749 5 935 936
750 6 935 938
751 6 935 939
752 7 936 937
753 1 942 943
754 2 943 944
755 3 944 945
756 4 944 950
757 5 945 946
758 6 945 948
759 6 945 949
760 7 946 947
761 1 952 953
762 2 953 954
763 3 954 955
764 4 954 960
765 5 955 956
766 6 955 958
767 6 955 959
768 8 956 957
769 1 962 963
770 2 963 964
771 3 964 965
772 4 964 970
773 5 965 966
774 6 965 968
775 6 965 969
776 7 966 967
777 1 972 973
778 2 973 974
779 3 974 975
780 4 974 980
781 5 975 976
782 6 975 978
783 6 975 979
784 7 976 977
785 1 982 983
786 2 983 984
787 3 984 985
788 4 984 990
789 5 985 986
790 6 985 988
791 6 985 989
792 8 986 987
793 1 992 993
794 2 993 994
795 3 994 995
796 4 994 1000
797 5 995 996
798 6 995 998
799 6 995 999
800 7 996 997
801 1 1002 1003
802 2 1003 1004
803 3 1004 1005
804 4 1004 1010
805 5 1005 1006
806 6 1005 1008
807 6 1005 1009
808 7 1006 1007
809 1 1012 1013
810 2 1013 1014
811 3 1014 1015
812 4 1014 1020
813 5 1015 1016
814 6 1015 1018
815 6 1015 1019
816 8 1016 1017
817 1 1022 1023
818 2 1023 1024
819 3 1024 1025
820 4 1024 1030
821 5 1025 1026
822 6 1025 1028
823 6 1025 1029
824 7 1026 1027
825 1 1032 1033
826 2 1033 1034
827 3 1034 1035
828 4 1034 1040
829 5 1035 1036
830 6 1035 1038
831 6 1035 1039
832 7 1036 1037
833 1 1042 1043
834 2 1043 1044
835 3 1044 1045
836 4 1044 1050
837 5 1045 1046
838 6 1045 1048
839 6 1045 1049
840 8 1046 1047
841 1 1052 1053
842 2 1053 1054
843 3 1054 1055
844 4 1054 1060
845 5 1055 1056
846 6 1055 1058
847 6 1055 1059
848 7 1056 1057
849 1 1062 1063
850 2 1063 1064
851 3 1064 1065
852 4 1064 1070
853 5 1065 1066
854 6 1065 1068
855 6 1065 1069
856 7 1066 1067
857 1 1072 1073
858 2 1073 1074
859 3 1074 1075
860 4 1074 1080
861 5 1075 1076
862 6 1075 1078
863 6 1075 1079
864 8 1076 1077
865 1 1082 1083
866 2 1083 1084
867 3 1084 1085
868 4 1084 1090
869 5 1085 1086
870 6 1085 1088
871 6 1085 1089
872 7 1086 1087
873 1 1092 1093
874 2 1093 1094
875 3 1094 1095
876 4 1094 1100
877 5 1095 1096
878 6 1095 1098
879 6 1095 1099
880 7 1096 1097
881 1 1102 1103
882 2 1103 1104
883 3 1104 1105
884 4 1104 1110
885 5 1105 1106
886 6 1105 1108
887 6 1105 1109
888 8 1106 1107
889 1 1112 1113
890 2 1113 1114
891 3 1114 1115
892 4 1114 1120
893 5 1115 1116
894 6 1115 1118
895 6 1115 1119
896 7 1116 1117
897 1 1122 1123
898 2 1123 1124
899 3 1124 1125
900 4 1124 1130
901 5 1125 1126
902 6 1125 1128
903 6 1125 1129
904 7 1126 1127
905 1 1132 1133
906 2 1133 1134
907 3 1134 1135
908 4 1134 1140
909 5 1135 1136
910 6 1135 1138
911 6 1135 1139
912 8 1136 1137
913 1 1142 1143
914 2 1143 1144
915 3 1144 1145
916 4 1144 1150
917 5 1145 1146
918 6 1145 1148
919 6 1145 1149
920 7 1146 1147
921 1 1152 1153
922 2 1153 1154
923 3 1154 1155
924 4 1154 1160
925 5 1155 1156
926 6 1155 1158
927 6 1155 1159
928 7 1156 1157
929 1 1162 1163
930 2 1163 1164
931 3 1164 1165
932 4 1164 1170
933 5 1165 1166
934 6 1165 1168
935 6 1165 1169
936 8 1166 1167
937 1 1172 1173
938 2 1173 1174
939 3 1174 1175
940 4 1174 1180
941 5 1175 1176
942 6 1175 1178
943 6 1175 1179
944 7 1176 1177
945 1 1182 1183
946 2 1183 1184
947 3 1184 1185
948 4 1184 1190
949 5 1185 1186
950 6 1185 1188
951 6 1185 1189
952 7 1186 1187
953 1 1192 1193
954 2 1193 1194
955 3 1194 1195
956 4 1194 1200
957 5 1195 1196
958 6 1195 1198
959 6 1195 1199
960 8 1196 1197
961 1 1202 1203
962 2 1203 1204
963 3 1204 1205
964 4 1204 1210
965 5 1205 1206
966 6 1205 1208
967 6 1205 1209
968 7 1206 1207
969 1 1212 1213
970 2 1213 1214
971 3 1214 1215
972 4 1214 1220
973 5 1215 1216
974 6 1215 1218
975 6 1215 1219
976 7 1216 1217
977 1 1222 1223
978 2 1223 1224
979 3 1224 1225
980 4 1224 1230
981 5 1225 1226
982 6 1225 1228
983 6 1225 1229
984 8 1226 1227
985 1 1232 1233
986 2 1233 1234
987 3 1234 1235
988 4 1234 1240
989 5 1235 1236
990 6 1235 1238
991 6 1235 1239
992 7 1236 1237
993 1 1242 1243
994 2 1243 1244
995 3 1244 1245
996 4 1244 1250
997 5 1245 1246
998 6 1245 1248
999 6 1245 1249
1000 7 1246 1247
1001 1 1252 1253
1002 2 1253 1254
1003 3 1254 1255
1004 4 1254 1260
1005 5 1255 1256
1006 6 1255 1258
1007 6 1255 1259
1008 8 1256 1257
1009 1 1262 1263
1010 2 1263 1264
1011 3 1264 1265
1012 4 1264 1270
1013 5 1265 1266
1014 6 1265 1268
1015 6 1265 1269
1016 7 1266 1267
1017 1 1272 1273
1018 2 1273 1274
1019 3 1274 1275
1020 4 1274 1280
1021 5 1275 1276
1022 6 1275 1278
1023 6 1275 1279
1024 7 1276 1277
1025 1 1282 1283
1026 2 1283 1284
1027 3 1284 1285
1028 4 1284 1290
1029 5 1285 1286
1030 6 1285 1288
1031 6 1285 1289
1032 8 1286 1287
1033 1 1292 1293
1034 2 1293 1294
1035 3 1294 1295
1036 4 1294 1300
1037 5 1295 1296
1038 6 1295 1298
1039 6 1295 1299
1040 7 1296 1297
1041 1 1302 1303
1042 2 1303 1304
1043 3 1304 1305
1044 4 1304 1310
1045 5 1305 1306
1046 6 1305 1308
1047 6 1305 1309
1048 7 1306 1307
1049 1 1312 1313
1050 2 1313 1314
1051 3 1314 1315
1052 4 1314 1320
1053 5 1315 1316
1054 6 1315 1318
1055 6 1315 1319
1056 8 1316 1317
1057 1 1322 1323
1058 2 1323 1324
1059 3 1324 1325
1060 4 1324 1330
1061 5 1325 1326
1062 6 1325 1328
1063 6 1325 1329
1064 7 1326 1327
1065 1 1332 1333
1066 2 1333 1334
1067 3 1334 1335
1068 4 1334 1340
1069 5 1335 1336
1070 6 1335 1338
1071 6 1335 1339
1072 7 1336 1337
1073 1 1342 1343
1074 2 1343 1344
1075 3 1344 1345
1076 4 1344 1350
1077 5 1345 1346
1078 6 1345 1348
1079 6 1345 1349
1080 8 1346 1347
1081 1 1352 1353
1082 2 1353 1354
1083 3 1354 1355
1084 4 1354 1360
1085 5 1355 1356
1086 6 1355 1358
1087 6 1355 1359
1088 7 1356 1357
1089 1 1362 1363
1090 2 1363 1364
1091 3 1364 1365
1092 4 1364 1370
1093 5 1365 1366
1094 6 1365 1368
1095 6 1365 1369
1096 7 1366 1367
1097 1 1372 1373
1098 2 1373 1374
1099 3 1374 1375
1100 4 1374 1380
1101 5 1375 1376
1102 6 1375 1378
1103 6 1375 1379
1104 8 1376 1377
1105 1 1382 1383
1106 2 1383 1384
1107 3 1384 1385
1108 4 1384 1390
1109 5 1385 1386
1110 6 1385 1388
1111 6 1385 1389
1112 7 1386 1387
1113 1 1392 1393
1114 2 1393 1394
1115 3 1394 1395
1116 4 1394 1400
1117 5 1395 1396
1118 6 1395 1398
1119 6 1395 1399
1120 7 1396 1397
1121 1 1402 1403
1122 2 1403 1404
1123 3 1404 1405
1124 4 1404 1410
1125 5 1405 1406
1126 6 1405 1408
1127 6 1405 1409
1128 8 1406 1407
1129 1 1412 1413
1130 2 1413 1414
1131 3 1414 1415
1132 4 1414 1420
1133 5 1415 1416
1134 6 1415 1418
1135 6 1415 1419
1136 7 1416 1417
1137 1 1422 1423
1138 2 1423 1424
1139 3 1424 1425
1140 4 1424 1430
1141 5 1425 1426
1142 6 1425 1428
1143 6 1425 1429
1144 7 1426 1427
1145 1 1432 1433
1146 2 1433 1434
1147 3 1434 1435
1148 4 1434 1440
1149 5 1435 1436
1150 6 1435 1438
1151 6 1435 1439
1152 8 1436 1437
1153 1 1442 1443
1154 2 1443 1444
1155 3 1444 1445
1156 4 1444 1450
1157 5 1445 1446
1158 6 1445 1448
1159 6 1445 1449
1160 7 1446 1447
1161 1 1452 1453
1162 2 1453 1454
1163 3 1454 1455
1164 4 1454 1460
1165 5 1455 1456
1166 6 1455 1458
1167 6 1455 1459
1168 7 1456 1457
1169 1 1462 1463
1170 2 1463 1464
1171 3 1464 1465
1172 4 1464 1470
1173 5 1465 1466
1174 6 1465 1468
1175 6 1465 1469
1176 8 1466 1467
1177 1 1472 1473
1178 2 1473 1474
1179 3 1474 1475
1180 4 1474 1480
1181 5 1475 1476
1182 6 1475 1478
1183 6 1475 1479
1184 7 1476 1477
1185 1 1482 1483
1186 2 1483 1484
1187 3 1484 1485
1188 4 1484 1490
1189 5 1485 1486
1190 6 1485 1488
1191 6 1485 1489
1192 7 1486 1487
1193 1 1492 1493
1194 2 1493 1494
1195 3 1494 1495
1196 4 1494 1500
1197 5 1495 1496
1198 6 1495 1498
1199 6 1495 1499
1200 8 1496 1497
1201 9 1 11
1202 1 2 23
1203 10 3 12
1204 9 11 21
1205 1 13 22
1206 9 21 1
1207 9 31 41
1208 1 32 53
1209 10 33 42
1210 9 41 51
1211 1 43 52
1212 9 51 31
1213 9 61 71
1214 1 62 83
1215 10 63 72
1216 9 71 81
1217 1 73 82
1218 9 81 61
1219 9 91 101
1220 1 92 113
1221 10 93 102
1222 9 101 111
1223 1 103 112
1224 9 111 91
1225 9 121 131
1226 1 122 143
1227 10 123 132
1228 9 131 141
1229 1 133 142
1230 9 141 121
1231 9 151 161
1232 1 152 173
1233 10 153 162
1234 9 161 171
1235 1 163 172
1236 9 171 151
1237 9 181 191
1238 1 182 203
1239 10 183 192
1240 9 191 201
1241 1 193 202
1242 9 201 181
1243 9 211 221
1244 1 212 233
1245 10 213 222
1246 9 221 231
1247 1 223 232
1248 9 231 211
1249 9 241 251
1250 1 242 263
1251 10 243 252
1252 9 251 261
1253 1 253 262
1254 9 261 241
1255 9 271 281
1256 1 272 293
1257 10 273 282
1258 9 281 291
1259 1 283 292
1260 9 291 271
1261 9 301 311
1262 1 302 323
1263 10 303 312
1264 9 311 321
1265 1 313 322
1266 9 321 301
1267 9 331 341
1268 1 332 353
1269 10 333 342
1270 9 341 351
1271 1 343 352
1272 9 351 331
1273 9 361 371
1274 1 362 383
1275 10 363 372
1276 9 371 381
1277 1 373 382
1278 9 381 361
1279 9 391 401
1280 1 392 413
1281 10 393 402
1282 9 401 411
1283 1 403 412
1284 9 411 391
1285 9 421 431
1286 1 422 443
1287 10 423 432
1288 9 431 441
1289 1 433 442
1290 9 441 421
1291 9 451 461
1292 1 452 473
1293 10 453 462
1294 9 461 471
1295 1 463 472
1296 9 471 451
1297 9 481 491
1298 1 482 503
1299 10 483 492
1300 9 491 501
1301 1 493 502
1302 9 501 481
1303 9 511 521
1304 1 512 533
1305 10 513 522
1306 9 521 531
1307 1 523 532
1308 9 531 511
1309 9 541 551
1310 1 542 563
1311 10 543 552
1312 9 551 561
1313 1 553 562
1314 9 561 541
1315 9 571 581
1316 1 572 593
1317 10 573 582
1318 9 581 591
1319 1 583 592
1320 9 591 571
1321 9 601 611
1322 1 602 623
1323 10 603 612
1324 9 611 621
1325 1 613 622
1326 9 621 601
1327 9 631 641
1328 1 632 653
1329 10 633 642
1330 9 641 651
1331 1 643 652
1332 9 651 631
1333 9 661 671
1334 1 662 683
1335 10 663 672
1336 9 671 681
1337 1 673 682
1338 9 681 661
1339 9 691 701
1340 1 692 713
1341 10 693 702
1342 9 701 711
1343 1 703 712
1344 9 711 691
1345 9 721 731
1346 1 722 743
1347 10 723 732
1348 9 731 741
1349 1 733 742
1350 9 741 721
1351 9 751 761
1352 1 752 773
1353 10 753 762
1354 9 761 771
1355 1 763 772
1356 9 771 751
1357 9 781 791
1358 1 782 803
1359 10 783 792
1360 9 791 801
1361 1 793 802
1362 9 801 781
1363 9 811 821
1364 1 812 833
1365 10 813 822
1366 9 821 831
1367 1 823 832
1368 9 831 811
1369 9 841 851
1370 1 842 863
1371 10 843 852
1372 9 851 861
1373 1 853 862
1374 9 861 841
1375 9 871 881
1376 1 872 893
1377 10 873 882
1378 9 881 891
1379 1 883 892
1380 9 891 871
1381 9 901 911
1382 1 902 923
1383 10 903 912
1384 9 911 921
1385 1 913 922
1386 9 921 901
1387 9 931 941
1388 1 932 953
1389 10 933 942
1390 9 941 951
1391 1 943 952
1392 9 951 931
1393 9 961 971
1394 1 962 983
1395 10 963 972
1396 9 971 981
1397 1 973 982
1398 9 981 961
1399 9 991 1001
1400 1 992 1013
1401 10 993 1002
1402 9 1001 1011
1403 1 1003 1012
1404 9 1011 991
1405 9 1021 1031
1406 1 1022 1043
1407 10 1023 1032
1408 9 1031 1041
1409 1 1033 1042
1410 9 1041 1021
1411 9 1051 1061
1412 1 1052 1073
1413 10 1053 1062
1414 9 1061 1071
1415 1 1063 1072
1416 9 1071 1051
1417 9 1081 1091
1418 1 1082 1103
1419 10 1083 1092
1420 9 1091 1101
1421 1 1093 1102
1422 9 1101 1081
1423 9 1111 1121
1424 1 1112 1133
1425 10 1113 1122
1426 9 1121 1131
1427 1 1123 1132
1428 9 1131 1111
1429 9 1141 1151
1430 1 1142 1163
1431 10 1143 1152
1432 9 1151 1161
1433 1 1153 1162
1434 9 1161 1141
1435 9 1171 1181
1436 1 1172 1193
1437 10 1173 1182
1438 9 1181 1191
1439 1 1183 1192
1440 9 1191 1171
1441 9 1201 1211
1442 1 1202 1223
1443 10 1203 1212
1444 9 1211 1221
1445 1 1213 1222
1446 9 1221 1201
1447 9 1231 1241
1448 1 1232 1253
1449 10 1233 1242
1450 9 1241 1251
1451 1 1243 1252
1452 9 1251 1231
1453 9 1261 1271
1454 1 1262 1283
1455 10 1263 1272
1456 9 1271 1281
1457 1 1273 1282
1458 9 1281 1261
1459 9 1291 1301
1460 1 1292 1313
1461 10 1293 1302
1462 9 1301 1311
1463 1 1303 1312
1464 9 1311 1291
1465 9 1321 1331
1466 1 1322 1343
1467 10 1323 1332
1468 9 1331 1341
1469 1 1333 1342
1470 9 1341 1321
1471 9 1351 1361
1472 1 1352 1373
1473 10 1353 1362
1474 9 1361 1371
1475 1 1363 1372
1476 9 1371 1351
1477 9 1381 1391
1478 1 1382 1403
1479 10 1383 1392
1480 9 1391 1401
1481 1 1393 1402
1482 9 1401 1381
1483 9 1411 1421
1484 1 1412 1433
1485 10 1413 1422
1486 9 1421 1431
1487 1 1423 1432
1488 9 1431 1411
1489 9 1441 1451
1490 1 1442 1463
1491 10 1443 1452
1492 9 1451 1461
1493 1 1453 1462
1494 9 1461 1441
1495 9 1471 1481
1496 1 1472 1493
1497 10 1473 1482
1498 9 1481 1491
1499 1 1483 1492
1500 9 1491 1471

Angles

1 1 2 3 4
2 2 3 4 5
3 3 3 4 10
4 4 4 5 6
5 5 4 5 8
6 6 4 5 9
7 7 5 4 10
8 8 5 6 7
9 9 6 5 8
10 10 6 5 9
11 11 8 5 9
12 12 12 13 14
13 13 13 14 15
14 14 13 14 20
15 15 14 15 16
16 16 14 15 18
17 17 14 15 19
18 18 15 14 20
19 19 15 16 17
20 20 16 15 18
21 21 16 15 19
22 22 18 15 19
23 23 22 23 24
24 24 23 24 25
25 25 23 24 30
26 26 24 25 26
27 27 24 25 28
28 28 24 25 29
29 29 25 24 30
30 30 25 26 27
31 31 26 25 28
32 32 26 25 29
33 33 28 25 29
34 1 32 33 34
35 2 33 34 35
36 3 33 34 40
37 4 34 35 36
38 5 34 35 38
39 6 34 35 39
40 7 35 34 40
41 8 35 36 37
42 9 36 35 38
43 10 36 35 39
44 11 38 35 39
45 12 42 43 44
46 13 43 44 45
47 14 43 44 50
48 15 44 45 46
49 16 44 45 48
50 17 44 45 49
51 18 45 44 50
52 19 45 46 47
53 20 46 45 48
54 21 46 45 49
55 22 48 45 49
56 23 52 53 54
57 24 53 54 55
58 25 53 54 60
59 26 54 55 56
60 27 54 55 58
61 28 54 55 59
62 29 55 54 60
63 30 55 56 57
64 31 56 55 58
65 32 56 55 59
66 33 58 55 59
67 1 62 63 64
68 2 63 64 65
69 3 63 64 70
70 4 64 65 66
71 5 64 65 68
72 6 64 65 69
73 7 65 64 70
74 8 65 66 67
75 9 66 65 68
76 10 66 65 69
77 11 68 65 69
78 12 72 73 74
79 13 73 74 75
80 14 73 74 80
81 15 74 75 76
82 16 74 75 78
83 17 74 75 79
84 18 75 74 80
85 19 75 76 77
86 20 76 75 78
87 21 76 75 79
88 22 78 75 79
89 23 82 83 84
90 24 83 84 85
91 25 83 84 90
92 26 84 85 86
93 27 84 85 88
94 28 84 85 89
95 29 85 84 90
96 30 85 86 87
97 31 86 85 88
98 32 86 85 89
99 33 88 85 89
100 1 92 93 94
101 2 93 94 95
102 3 93 94 100
103 4 94 95 96
104 5 94 95 98
105 6 94 95 99
106 7 95 94 100
107 8 95 96 97
108 9 96 95 98
109 10 96 95 99
110 11 98 95 99
111 12 102 103 104
112 13 103 104 105
113 14 103 104 110
114 15 104 105 106
115 16 104 105 108
116 17 104 105 109
117 18 105 104 110
118 19 105 106 107
119 20 106 105 108
120 21 106 105 109
121 22 108 105 109
122 23 112 113 114
123 24 113 114 115
124 25 113 114 120
125 26 114 115 116
126 27 114 115 118
127 28 114 115 119
128 29 115 114 120
129 30 115 116 117
130 31 116 115 118
131 32 116 115 119
132 33 118 115 119
133 1 122 123 124
134 2 123 124 125
135 3 123 124 130
136 4 124 125 126
137 5 124 125 128
138 6 124 125 129
139 7 125 124 130
140 8 125 126 127
141 9 126 125 128
142 10 126 125 129
143 11 128 125 129
144 12 132 133 134
145 13 133 134 135
146 14 133 134 140
147 15 134 135 136
148 16 134 135 138
149 17 134 135 139
150 18 135 134 140
151 19 135 136 137
152 20 136 135 138
153 21 136 135 139
154 22 138 135 139
155 23 142 143 144
156 24 143 144 145
157 25 143 144 150
158 26 144 145 146
159 27 144 145 148
160 28 144 145 149
161 29 145 144 150
162 30 145 146 147
163 31 146 145 148
164 32 146 145 149
165 33 148 145 149
166 1 152 153 154
167 2 153 154 155
168 3 153 154 160
169 4 154 155 156
170 5 154 155 158
171 6 154 155 159
172 7 155 154 160
173 8 155 156 157
174 9 156 155 158
175 10 156 155 159
176 11 158 155 159
177 12 162 163 164
178 13 163 164 165
179 14 163 164 170
180 15 164 165 166
181 16 164 165 168
182 17 164 165 169
183 18 165 164 170
184 19 165 166 167
185 20 166 165 168
186 21 166 165 169
187 22 168 165 169
188 23 172 173 174
189 24 173 174 175
190 25 173 174 180
191 26 174 175 176
192 27 174 175 178
193 28 174 175 179
194 29 175 174 180
195 30 175 176 177
196 31 176 175 178
197 32 176 175 179
198 33 178 175 179
199 1 182 183 184
200 2 183 184 185
201 3 183 184 190
202 4 184 185 186
203 5 184 185 188
204 6 184 185 189
205 7 185 184 190
206 8 185 186 187
207 9 186 185 188
208 10 186 185 189
209 11 188 185 189
210 12 192 193 194
211 13 193 194 195
212 14 193 194 200
213 15 194 195 196
214 16 194 195 198
215 17 194 195 199
216 18 195 194 200
217 19 195 196 197
218 20 196 195 198
219 21 196 195 199
220 22 198 195 199
221 23 202 203 204
222 24 203 204 205
223 25 203 204 210
224 26 204 205 206
225 27 204 205 208
226 28 204 205 209
227 29 205 204 210
228 30 205 206 207
229 31 206 205 208
230 32 206 205 209
231 33 208 205 209
232 1 212 213 214
233 2 213 214 215
234 3 213 214 220
235 4 214 215 216
236 5 214 215 218
237 6 214 215 219
238 7 215 214 220
239 8 215 216 217
240 9 216 215 218
241 10 216 215 219
242 11 218 215 219
243 12 222 223 224
244 13 223 224 225
245 14 223 224 230
246 15 224 225 226
247 16 224 225 228
248 17 224 225 229
249 18 225 224 230
250 19 225 226 227
251 20 226 225 228
252 21 226 225 229
253 22 228 225 229
254 23 232 233 234
255 24 233 234 235
256 25 233 234 240
257 26 234 235 236
258 27 234 235 238
259 28 234 235 239
260 29 235 234 240
261 30 235 236 237
262 31 236 235 238
263 32 236 235 239
264 33 238 235 239
265 1 242 243 244
266 2 243 244 245
267 3 243 244 250
268 4 244 245 246
269 5 244 245 248
270 6 244 245 249
271 7 245 244 250
272 8 245 246 247
273 9 246 245 248
274 10 246 245 249
275 11 248 245 249
276 12 252 253 254
277 13 253 254 255
278 14 253 254 260
279 15 254 255 256
280 16 254 255 258
281 17 254 255 259
282 18 255 254 260
283 19 255 256 257
284 20 256 255 258
285 21 256 255 259
286 22 258 255 259
287 23 262 263 264
288 24 263 264 265
289 25 263 264 270
290 26 264 265 266
291 27 264 265 268
292 28 264 265 269
293 29 265 264 270
294 30 265 266 267
295 31 266 265 268
296 32 266 265 269
297 33 268 265 269
298 1 272 273 274
299 2 273 274 275
300 3 273 274 280
301 4 274 275 276
302 5 274 275 278
303 6 274 275 279
304 7 275 274 280
305 8 275 276 277
306 9 276 275 278
307 10 276 275 279
308 11 278 275 279
309 12 282 283 284
310 13 283 284 285
311 14 283 284 290
312 15 284 285 286
313 16 284 285 288
314 17 284 285 289
315 18 285 284 290
316 19 285 286 287
317 20 286 285 288
318 21 286 285 289
319 22 288 285 289
320 23 292 293 294
321 24 293 294 295
322 25 293 294 300
323 26 294 295 296
324 27 294 295 298
325 28 294 295 299
326 29 295 294 300
327 30 295 296 297
328 31 296 295 298
329 32 296 295 299
330 33 298 295 299
331 1 302 303 304
332 2 303 304 305
333 3 303 304 310
334 4 304 305 306
335 5 304 305 308
336 6 304 305 309
337 7 305 304 310
338 8 305 306 307
339 9 306 305 308
340 10 306 305 309
341 11 308 305 309
342 12 312 313 314
343 13 313 314 315
344 14 313 314 320
345 15 314 315 316
346 16 314 315 318
347 17 314 315 319
348 18 315 314 320
349 19 315 316 317
350 20 316 315 318
351 21 316 315 319
352 22 318 315 319
353 23 322 323 324
354 24 323 324 325
355 25 323 324 330
356 26 324 325 326
357 27 324 325 328
358 28 324 325 329
359 29 325 324 330
360 30 325 326 327
361 31 326 325 328
362 32 326 325 329
363 33 328 325 329
364 1 332 333 334
365 2 333 334 335
366 3 333 334 340
367 4 334 335 336
368 5 334 335 338
369 6 334 335 339
370 7 335 334 340
371 8 335 336 337
372 9 336 335 338
373 10 336 335 339
374 11 338 335 339
375 12 342 343 344
376 13 343 344 345
377 14 343 344 350
378 15 344 345 346
379 16 344 345 348
380 17 344 345 349
381 18 345 344 350
382 19 345 346 347
383 20 346 345 348
384 21 346 345 349
385 22 348 345 349
386 23 352 353 354
387 24 353 354 355
388 25 353 354 360
389 26 354 355 356
390 27 354 355 358
391 28 354 355 359
392 29 355 354 360
393 30 355 356 357
394 31 356 355 358
395 32 356 355 359
396 33 358 355 359
397 1 362 363 364
398 2 363 364 365
399 3 363 364 370
400 4 364 365 366
401 5 364 365 368
402 6 364 365 369
403 7 365 364 370
404 8 365 366 367
405 9 366 365 368
406 10 366 365 369
407 11 368 365 369
408 12 372 373 374
409 13 373 374 375
410 14 373 374 380
411 15 374 375 376
412 16 374 375 378
413 17 374 375 379
414 18 375 374 380
415 19 375 376 377
416 20 376 375 378
417 21 376 375 379
418 22 378 375 379
419 23 382 383 384
420 24 383 384 385
421 25 383 384 390
422 26 384 385 386
423 27 384 385 388
424 28 384 385 389
425 29 385 384 390
426 30 385 386 387
427 31 386 385 388
428 32 386 385 389
429 33 388 385 389
430 1 392 393 394
431 2 393 394 395
432 3 393 394 400
433 4 394 395 396
434 5 394 395 398
435 6 394 395 399
436 7 395 394 400
437 8 395 396 397
438 9 396 395 398
439 10 396 395 399
440 11 398 395 399
441 12 402 403 404
442 13 403 404 405
443 14 403 404 410
444 15 404 405 406
445 16 404 405 408
446 17 404 405 409
447 18 405 404 410
448 19 405 406 407
449 20 406 405 408
450 21 406 405 409
451 22 408 405 409
452 23 412 413 414
453 24 413 414 415
454 25 413 414 420
455 26 414 415 416
456 27 414 415 418
457 28 414 415 419
458 29 415 414 420
459 30 415 416 417
460 31 416 415 418
461 32 416 415 419
462 33 418 415 419
463 1 422 423 424
464 2 423 424 425
465 3 423 424 430
466 4 424 425 426
467 5 424 425 428
468 6 424 425 429
469 7 425 424 430
470 8 425 426 427
471 9 426 425 428
472 10 426 425 429
473 11 428 425 429
474 12 432 433 434
475 13 433 434 435
476 14 433 434 440
477 15 434 435 436
478 16 434 435 438
479 17 434 435 439
480 18 435 434 440
481 19 435 436 437
482 20 436 435 438
483 21 436 435 439
484 22 438 435 439
485 23 442 443 444
486 24 443 444 445
487 25 443 444 450
488 26 444 445 446
489 27 444 445 448
490 28 444 445 449
491 29 445 444 450
492 30 445 446 447
493 31 446 445 448
494 32 446 445 449
495 33 448 445 449
496 1 452 453 454
497 2 453 454 455
498 3 453 454 460
499 4 454 455 456
500 5 454 455 458
501 6 454 455 459
502 7 455 454 460
503 8 455 456 457
504 9 456 455 458
505 10 456 455 459
506 11 458 455 459
507 12 462 463 464
508 13 463 464 465
509 14 463 464 470
510 15 464 465 466
511 16 464 465 468
512 17 464 465 469
513 18 465 464 470
514 19 465 466 467
515 20 466 465 468
516 21 466 465 469
517 22 468 465 469
518 23 472 473 474
519 24 473 474 475
520 25 473 474 480
521 26 474 475 476
522 27 474 475 478
523 28 474 475 479
524 29 475 474 480
525 30 475 476 477
526 31 476 475 478
527 32 476 475 479
528 33 478 475 479
529 1 482 483 484
530 2 483 484 485
531 3 483 484 490
532 4 484 485 486
533 5 484 485 488
534 6 484 485 489
535 7 485 484 490
536 8 485 486 487
537 9 486 485 488
538 10 486 485 489
539 11 488 485 489
540 12 492 493 494
541 13 493 494 495
542 14 493 494 500
543 15 494 495 496
544 16 494 495 498
545 17 494 495 499
546 18 495 494 500
547 19 495 496 497
548 20 496 495 498
549 21 496 495 499
550 22 498 495 499
551 23 502 503 504
552 24 503 504 505
553 25 503 504 510
554 26 504 505 506
555 27 504 505 508
556 28 504 505 509
557 29 505 504 510
558 30 505 506 507
559 31 506 505 508
560 32 506 505 509
561 33 508 505 509
562 1 512 513 514
563 2 513 514 515
564 3 513 514 520
565 4 514 515 516
566 5 514 515 518
567 6 514 515 519
568 7 515 514 520
569 8 515 516 517
570 9 516 515 518
571 10 516 515 519
572 11 518 515 519
573 12 522 523 524
574 13 523 524 525
575 14 523 524 530
576 15 524 525 526
577 16 524 525 528
578 17 524 525 529
579 18 525 524 530
580 19 525 526 527
581 20 526 525 528
582 21 526 525 529
583 22 528 525 529
584 23 532 533 534
585 24 533 534 535
586 25 533 534 540
587 26 534 535 536
588 27 534 535 538
589 28 534 535 539
590 29 535 534 540
591 30 535 536 537
592 31 536 535 538
593 32 536 535 539
594 33 538 535 539
595 1 542 543 544
596 2 543 544 545
597 3 543 544 550
598 4 544 545 546
599 5 544 545 548
600 6 544 545 549
601 7 545 544 550
602 8 545 546 547
603 9 546 545 548
604 10 546 545 549
605 11 548 545 549
606 12 552 553 554
607 13 553 554 555
608 14 553 554 560
609 15 554 555 556
610 16 554 555 558
611 17 554 555 559
612 18 555 554 560
613 19 555 556 557
614 20 556 555 558
615 21 556 555 559
616 22 558 555 559
617 23 562 563 564
618 24 563 564 565
619 25 563 564 570
620 26 564 565 566
621 27 564 565 568
622 28 564 565 569
623 29 565 564 570
624 30 565 566 567
625 31 566 565 568
626 32 566 565 569
627 33 568 565 569
628 1 572 573 574
629 2 573 574 575
630 3 573 574 580
631 4 574 575 576
632 5 574 575 578
633 6 574 575 579
634 7 575 574 580
635 8 575 576 577
636 9 576 575 578
637 10 576 575 579
638 11 578 575 579
639 12 582 583 584
640 13 583 584 585
641 14 583 584 590
642 15 584 585 586
643 16 584 585 588
644 17 584 585 589
645 18 585 584 590
646 19 585 586 587
647 20 586 585 588
648 21 586 585 589
649 22 588 585 589
650 23 592 593 594
651 24 593 594 595
652 25 593 594 600
653 26 594 595 596
654 27 594 595 598
655 28 594 595 599
656 29 595 594 600
657 30 595 596 597
658 31 596 595 598
659 32 596 595 599
660 33 598 595 599
661 1 602 603 604
662 2 603 604 605
663 3 603 604 610
664 4 604 605 606
665 5 604 605 608
666 6 604 605 609
667 7 605 604 610
668 8 605 606 607
669 9 606 605 608
670 10 606 605 609
671 11 608 605 609
672 12 612 613 614
673 13 613 614 615
674 14 613 614 620
675 15 614 615 616
676 16 614 615 618
677 17 614 615 619
678 18 615 614 620
679 19 615 616 617
680 20 616 615 618
681 21 616 615 619
682 22 618 615 619
683 23 622 623 624
684 24 623 624 625
685 25 623 624 630
686 26 624 625 626
687 27 624 625 628
688 28 624 625 629
689 29 625 624 630
690 30 625 626 627
691 31 626 625 628
692 32 626 625 629
693 33 628 625 629
694 1 632 633 634
695 2 633 634 635
696 3 633 634 640
697 4 634 635 636
698 5 634 635 638
699 6 634 635 639
700 7 635 634 640
701 8 635 636 637
702 9 636 635 638
703 10 636 635 639
704 11 638 635 639
705 12 642 643 644
706 13 643 644 645
707 14 643 644 650
708 15 644 645 646
709 16 644 645 648
710 17 644 645 649
711 18 645 644 650
712 19 645 646 647
713 20 646 645 648
714 21 646 645 649
715 22 648 645 649
716 23 652 653 654
717 24 653 654 655
718 25 653 654 660
719 26 654 655 656
720 27 654 655 658
721 28 654 655 659
722 29 655 654 660
723 30 655 656 657
724 31 656 655 658
725 32 656 655 659
726 33 658 655 659
727 1 662 663 664
728 2 663 664 665
729 3 663 664 670
730 4 664 665 666
731 5 664 665 668
732 6 664 665 669
733 7 665 664 670
734 8 665 666 667
735 9 666 665 668
736 10 666 665 669
737 11 668 665 669
738 12 672 673 674
739 13 673 674 675
740 14 673 674 680
741 15 674 675 676
742 16 674 675 678
743 17 674 675 679
744 18 675 674 680
745 19 675 676 677
746 20 676 675 678
747 21 676 675 679
748 22 678 675 679
749 23 682 683 684
750 24 683 684 685
751 25 683 684 690
752 26 684 685 686
753 27 684 685 688
754 28 684 685 689
755 29 685 684 690
756 30 685 686 687
757 31 686 685 688
758 32 686 685 689
759 33 688 685 689
760 1 692 693 694
761 2 693 694 695
762 3 693 694 700
763 4 694 695 696
764 5 694 695 698
765 6 694 695 699
766 7 695 694 700
767 8 695 696 697
768 9 696 695 698
769 10 696 695 699
770 11 698 695 699
771 12 702 703 704
772 13 703 704 705
773 14 703 704 710
774 15 704 705 706
775 16 704 705 708
776 17 704 705 709
777 18 705 704 710
778 19 705 706 707
779 20 706 705 708
780 21 706 705 709
781 22 708 705 709
782 23 712 713 714
783 24 713 714 715
784 25 713 714 720
785 26 714 715 716
786 27 714 715 718
787 28 714 715 719
788 29 715 714 720
789 30 715 716 717
790 31 716 715 718
791 32 716 715 719
792 33 718 715 719
793 1 722 723 724
794 2 723 724 725
795 3 723 724 730
796 4 724 725 726
797 5 724 725 728
798 6 724 725 729
799 7 725 724 730
800 8 725 726 727
801 9 726 725 728
802 10 726 725 729
803 11 728 725 729
804 12 732 733 734
805 13 733 734 735
806 14 733 734 740
807 15 734 735 736
808 16 734 735 738
809 17 734 735 739
810 18 735 734 740
811 19 735 736 737
812 20 736 735 738
813 21 736 735 739
814 22 738 735 739
815 23 742 743 744
816 24 743 744 745
817 25 743 744 750
818 26 744 745 746
819 27 744 745 748
820 28 744 745 749
821 29 745 744 750
822 30 745 746 747
823 31 746 745 748
824 32 746 745 749
825 33 748 745 749
826 1 752 753 754
827 2 753 754 755
828 3 753 754 760
829 4 754 755 756
830 5 754 755 758
831 6 754 755 759
832 7 755 754 760
833 8 755 756 757
834 9 756 755 758
835 10 756 755 759
836 11 758 755 759
837 12 762 763 764
838 13 763 764 765
839 14 763 764 770
840 15 764 765 766
841 16 764 765 768
842 17 764 765 769
843 18 765 764 770
844 19 765 766 767
845 20 766 765 768
846 21 766 765 769
847 22 768 765 769
848 23 772 773 774
849 24 773 774 775
850 25 773 774 780
851 26 774 775 776
852 27 774 775 778
853 28 774 775 779
854 29 775 774 780
855 30 775 776 777
856 31 776 775 778
857 32 776 775 779
858 33 778 775 779
859 1 782 783 784
860 2 783 784 785
861 3 783 784 790
862 4 784 785 786
863 5 784 785 788
864 6 784 785 789
865 7 785 784 790
866 8 785 786 787
867 9 786 785 788
868 10 786 785 789
869 11 788 785 789
870 12 792 793 794
871 13 793 794 795
872 14 793 794 800
873 15 794 795 796
874 16 794 795 798
875 17 794 795 799
876 18 795 794 800
877 19 795 796 797
878 20 796 795 798
879 21 796 795 799
880 22 798 795 799
881 23 802 803 804
882 24 803 804 805
883 25 803 804 810
884 26 804 805 806
885 27 804 805 808
886 28 804 805 809
887 29 805 804 810
888 30 805 806 807
889 31 806 805 808
890 32 806 805 809
891 33 808 805 809
892 1 812 813 814
893 2 813 814 815
894 3 813 814 820
895 4 814 815 816
896 5 814 815 818
897 6 814 815 819
898 7 815 814 820
899 8 815 816 817
900 9 816 815 818
901 10 816 815 819
902 11 818 815 819
903 12 822 823 824
904 13 823 824 825
905 14 823 824 830
906 15 824 825 826
907 16 824 825 828
908 17 824 825 829
909 18 825 824 830
910 19 825 826 827
911 20 826 825 828
912 21 826 825 829
913 22 828 825 829
914 23 832 833 834
915 24 833 834 835
916 25 833 834 840
917 26 834 835 836
918 27 834 835 838
919 28 834 835 839
920 29 835 834 840
921 30 835 836 837
922 31 836 835 838
923 32 836 835 839
924 33 838 835 839
925 1 842 843 844
926 2 843 844 845
927 3 843 844 850
928 4 844 845 846
929 5 844 845 848
930 6 844 845 849
931 7 845 844 850
932 8 845 846 847
933 9 846 845 848
934 10 846 845 849
935 11 848 845 849
936 12 852 853 854
937 13 853 854 855
938 14 853 854 860
939 15 854 855 856
940 16 854 855 858
941 17 854 855 859
942 18 855 854 860
943 19 855 856 857
944 20 856 855 858
945 21 856 855 859
946 22 858 855 859
947 23 862 863 864
948 24 863 864 865
949 25 863 864 870
950 26 864 865 866
951 27 864 865 868
952 28 864 865 869
953 29 865 864 870
954 30 865 866 867
955 31 866 865 868
956 32 866 865 869
957 33 868 865 869
958 1 872 873 874
959 2 873 874 875
960 3 873 874 880
961 4 874 875 876
962 5 874 875 878
963 6 874 875 879
964 7 875 874 880
965 8 875 876 877
966 9 876 875 878
967 10 876 875 879
968 11 878 875 879
969 12 882 883 884
970 13 883 884 885
971 14 883 884 890
972 15 884 885 886
973 16 884 885 888
974 17 884 885 889
975 18 885 884 890
976 19 885 886 887
977 20 886 885 888
978 21 886 885 889
979 22 888 885 889
980 23 892 893 894
981 24 893 894 895
982 25 893 894 900
983 26 894 895 896
984 27 894 895 898
985 28 894 895 899
986 29 895 894 900
987 30 895 896 897
988 31 896 895 898
989 32 896 895 899
990 33 898 895 899
991 1 902 903 904
992 2 903 904 905
993 3 903 904 910
994 4 904 905 906
995 5 904 905 908
996 6 904 905 909
997 7 905 904 910
998 8 905 906 907
999 9 906 905 908
1000 10 906 905 909
1001 11 908 905 909
1002 12 912 913 914
1003 13 913 914 915
1004 14 913 914 920
1005 15 914 915 916
1006 16 914 915 918
1007 17 914 915 919
1008 18 915 914 920
1009 19 915 916 917
1010 20 916 915 918
1011 21 916 915 919
1012 22 918 915 919
1013 23 922 923 924
1014 24 923 924 925
1015 25 923 924 930
1016 26 924 925 926
1017 27 924 925 928
1018 28 924 925 929
1019 29 925 924 930
1020 30 925 926 927
1021 31 926 925 928
1022 32 926 925 929
1023 33 928 925 929
1024 1 932 933 934
1025 2 933 934 935
1026 3 933 934 940
1027 4 934 935 936
1028 5 934 935 938
1029 6 934 935 939
1030 7 935 934 940
1031 8 935 936 937
1032 9 936 935 938
1033 10 936 935 939
1034 11 938 935 939
1035 12 942 943 944
1036 13 943 944 945
1037 14 943 944 950
1038 15 944 945 946
1039 16 944 945 948
1040 17 944 945 949
1041 18 945 944 950
1042 19 945 946 947
1043 20 946 945 948
1044 21 946 945 949
1045 22 948 945 949
1046 23 952 953 954
1047 24 953 954 955
1048 25 953 954 960
1049 26 954 955 956
1050 27 954 955 958
1051 28 954 955 959
1052 29 955 954 960
1053 30 955 956 957
1054 31 956 955 958
1055 32 956 955 959
1056 33 958 955 959
1057 1 962 963 964
1058 2 963 964 965
1059 3 963 964 970
1060 4 964 965 966
1061 5 964 965 968
1062 6 964 965 969
1063 7 965 964 970
1064 8 965 966 967
1065 9 966 965 968
1066 10 966 965 969
1067 11 968 965 969
1068 12 972 973 974
1069 13 973 974 975
1070 14 973 974 980
1071 15 974 975 976
1072 16 974 975 978
1073 17 974 975 979
1074 18 975 974 980
1075 19 975 976 977
1076 20 976 975 978
1077 21 976 975 979
1078 22 978 975 979
1079 23 982 983 984
1080 24 983 984 985
1081 25 983 984 990
1082 26 984 985 986
1083 27 984 985 988
1084 28 984 985 989
1085 29 985 984 990
1086 30 985 986 987
1087 31 986 985 988
1088 32 986 985 989
1089 33 988 985 989
1090 1 992 993 994
1091 2 993 994 995
1092 3 993 994 1000
1093 4 994 995 996
1094 5 994 995 998
1095 6 994 995 999
1096 7 995 994 1000
1097 8 995 996 997
1098 9 996 995 998
1099 10 996 995 999
1100 11 998 995 999
1101 12 1002 1003 1004
1102 13 1003 1004 1005
1103 14 1003 1004 1010
1104 15 1004 1005 1006
1105 16 1004 1005 1008
1106 17 1004 1005 1009
1107 18 1005 1004 1010
1108 19 1005 1006 1007
1109 20 1006 1005 1008
1110 21 1006 1005 1009
1111 22 1008 1005 1009
1112 23 1012 1013 1014
1113 24 1013 1014 1015
1114 25 1013 1014 1020
1115 26 1014 1015 1016
1116 27 1014 1015 1018
1117 28 1014 1015 1019
1118 29 1015 1014 1020
1119 30 1015 1016 1017
1120 31 1016 1015 1018
1121 32 1016 1015 1019
1122 33 1018 1015 1019
1123 1 1022 1023 1024
1124 2 1023 1024 1025
1125 3 1023 1024 1030
1126 4 1024 1025 1026
1127 5 1024 1025 1028
1128 6 1024 1025 1029
1129 7 1025 1024 1030
1130 8 1025 1026 1027
1131 9 1026 1025 1028
1132 10 1026 1025 1029
1133 11 1028 1025 1029
1134 12 1032 1033 1034
1135 13 1033 1034 1035
1136 14 1033 1034 1040
1137 15 1034 1035 1036
1138 16 1034 1035 1038
1139 17 1034 1035 1039
1140 18 1035 1034 1040
1141 19 1035 1036 1037
1142 20 1036 1035 1038
1143 21 1036 1035 1039
1144 22 1038 1035 1039
1145 23 1042 1043 1044
1146 24 1043 1044 1045
1147 25 1043 1044 1050
1148 26 1044 1045 1046
1149 27 1044 1045 1048
1150 28 1044 1045 1049
1151 29 1045 1044 1050
1152 30 1045 1046 1047
1153 31 1046 1045 1048
1154 32 1046 1045 1049
1155 33 1048 1045 1049
1156 1 1052 1053 1054
1157 2 1053 1054 1055
1158 3 1053 1054 1060
1159 4 1054 1055 1056
1160 5 1054 1055 1058
1161 6 1054 1055 1059
1162 7 1055 1054 1060
1163 8 1055 1056 1057
1164 9 1056 1055 1058
1165 10 1056 1055 1059
1166 11 1058 1055 1059
1167 12 1062 1063 1064
1168 13 1063 1064 1065
1169 14 1063 1064 1070
1170 15 1064 1065 1066
1171 16 1064 1065 1068
1172 17 1064 1065 1069
1173 18 1065 1064 1070
1174 19 1065 1066 1067
1175 20 1066 1065 1068
1176 21 1066 1065 1069
1177 22 1068 1065 1069
1178 23 1072 1073 1074
1179 24 1073 1074 1075
1180 25 1073 1074 1080
1181 26 1074 1075 1076
1182 27 1074 1075 1078
1183 28 1074 1075 1079
1184 29 1075 1074 1080
1185 30 1075 1076 1077
1186 31 1076 1075 1078
1187 32 1076 1075 1079
1188 33 1078 1075 1079
1189 1 1082 1083 1084
1190 2 1083 1084 1085
1191 3 1083 1084 1090
1192 4 1084 1085 1086
1193 5 1084 1085 1088
1194 6 1084 1085 1089
1195 7 1085 1084 1090
1196 8 1085 1086 1087
1197 9 1086 1085 1088
1198 10 1086 1085 1089
1199 11 1088 1085 1089
1200 12 1092 1093 1094
1201 13 1093 1094 1095
1202 14 1093 1094 1100
1203 15 1094 1095 1096
1204 16 1094 1095 1098
1205 17 1094 1095 1099
1206 18 1095 1094 1100
1207 19 1095 1096 1097
1208 20 1096 1095 1098
1209 21 1096 1095 1099
1210 22 1098 1095 1099
1211 23 1102 1103 1104
1212 24 1103 1104 1105
1213 25 1103 1104 1110
1214 26 1104 1105 1106
1215 27 1104 1105 1108
1216 28 1104 1105 1109
1217 29 1105 1104 1110
1218 30 1105 1106 1107
1219 31 1106 1105 1108
1220 32 1106 1105 1109
1221 33 1108 1105 1109
1222 1 1112 1113 1114
1223 2 1113 1114 1115
1224 3 1113 1114 1120
1225 4 1114 1115 1116
1226 5 1114 1115 1118
1227 6 1114 1115 1119
1228 7 1115 1114 1120
1229 8 1115 1116 1117
1230 9 1116 1115 1118
1231 10 1116 1115 1119
1232 11 1118 1115 1119
1233 12 1122 1123 1124
1234 13 1123 1124 1125
1235 14 1123 1124 1130
1236 15 1124 1125 1126
1237 16 1124 1125 1128
1238 17 1124 1125 1129
1239 18 1125 1124 1130
1240 19 1125 1126 1127
1241 20 1126 1125 1128
1242 21 1126 1125 1129
1243 22 1128 1125 1129
1244 23 1132 1133 1134
1245 24 1133 1134 1135
1246 25 1133 1134 1140
1247 26 1134 1135 1136
1248 27 1134 1135 1138
1249 28 1134 1135 1139
1250 29 1135 1134 1140
1251 30 1135 1136 1137
1252 31 1136 1135 1138
1253 32 1136 1135 1139
1254 33 1138 1135 1139
1255 1 1142 1143 1144
1256 2 1143 1144 1145
1257 3 1143 1144 1150
1258 4 1144 1145 1146
1259 5 1144 1145 1148
1260 6 1144 1145 1149
1261 7 1145 1144 1150
1262 8 1145 1146 1147
1263 9 1146 1145 1148
1264 10 1146 1145 1149
1265 11 1148 1145 1149
1266 12 1152 1153 1154
1267 13 1153 1154 1155
1268 14 1153 1154 1160
1269 15 1154 1155 1156
1270 16 1154 1155 1158
1271 17 1154 1155 1159
1272 18 1155 1154 1160
1273 19 1155 1156 1157
1274 20 1156 1155 1158
1275 21 1156 1155 1159
1276 22 1158 1155 1159
1277 23 1162 1163 1164
1278 24 1163 1164 1165
1279 25 1163 1164 1170
1280 26 1164 1165 1166
1281 27 1164 1165 1168
1282 28 1164 1165 1169
1283 29 1165 1164 1170
1284 30 1165 1166 1167
1285 31 1166 1165 1168
1286 32 1166 1165 1169
1287 33 1168 1165 1169
1288 1 1172 1173 1174
1289 2 1173 1174 1175
1290 3 1173 1174 1180
1291 4 1174 1175 1176
1292 5 1174 1175 1178
1293 6 1174 1175 1179
1294 7 1175 1174 1180
1295 8 1175 1176 1177
1296 9 1176 1175 1178
1297 10 1176 1175 1179
1298 11 1178 1175 1179
1299 12 1182 1183 1184
1300 13 1183 1184 1185
1301 14 1183 1184 1190
1302 15 1184 1185 1186
1303 16 1184 1185 1188
1304 17 1184 1185 1189
1305 18 1185 1184 1190
1306 19 1185 1186 1187
1307 20 1186 1185 1188
1308 21 1186 1185 1189
1309 22 1188 1185 1189
1310 23 1192 1193 1194
1311 24 1193 1194 1195
1312 25 1193 1194 1200
1313 26 1194 1195 1196
1314 27 1194 1195 1198
1315 28 1194 1195 1199
1316 29 1195 1194 1200
1317 30 1195 1196 1197
1318 31 1196 1195 1198
1319 32 1196 1195 1199
1320 33 1198 1195 1199
1321 1 1202 1203 1204
1322 2 1203 1204 1205
1323 3 1203 1204 1210
1324 4 1204 1205 1206
1325 5 1204 1205 1208
1326 6 1204 1205 1209
1327 7 1205 1204 1210
1328 8 1205 1206 1207
1329 9 1206 1205 1208
1330 10 1206 1205 1209
1331 11 1208 1205 1209
1332 12 1212 1213 1214
1333 13 1213 1214 1215
1334 14 1213 1214 1220
1335 15 1214 1215 1216
1336 16 1214 1215 1218
1337 17 1214 1215 1219
1338 18 1215 1214 1220
1339 19 1215 1216 1217
1340 20 1216 1215 1218
1341 21 1216 1215 1219
1342 22 1218 1215 1219
1343 23 1222 1223 1224
1344 24 1223 1224 1225
1345 25 1223 1224 1230
1346 26 1224 1225 1226
1347 27 1224 1225 1228
1348 28 1224 1225 1229
1349 29 1225 1224 1230
1350 30 1225 1226 1227
1351 31 1226 1225 1228
1352 32 1226 1225 1229
1353 33 1228 1225 1229
1354 1 1232 1233 1234
1355 2 1233 1234 1235
1356 3 1233 1234 1240
1357 4 1234 1235 1236
1358 5 1234 1235 1238
1359 6 1234 1235 1239
1360 7 1235 1234 1240
1361 8 1235 1236 1237
1362 9 1236 1235 1238
1363 10 1236 1235 1239
1364 11 1238 1235 1239
1365 12 1242 1243 1244
1366 13 1243 1244 1245
1367 14 1243 1244 1250
1368 15 1244 1245 1246
1369 16 1244 1245 1248
1370 17 1244 1245 1249
1371 18 1245 1244 1250
1372 19 1245 1246 1247
1373 20 1246 1245 1248
1374 21 1246 1245 1249
1375 22 1248 1245 1249
1376 23 1252 1253 1254
1377 24 1253 1254 1255
1378 25 1253 1254 1260
1379 26 1254 1255 1256
1380 27 1254 1255 1258
1381 28 1254 1255 1259
1382 29 1255 1254 1260
1383 30 1255 1256 1257
1384 31 1256 1255 1258
1385 32 1256 1255 1259
1386 33 1258 1255 1259
1387 1 1262 1263 1264
1388 2 1263 1264 1265
1389 3 1263 1264 1270
1390 4 1264 1265 1266
1391 5 1264 1265 1268
1392 6 1264 1265 1269
1393 7 1265 1264 1270
1394 8 1265 1266 1267
1395 9 1266 1265 1268
1396 10 1266 1265 1269
1397 11 1268 1265 1269
1398 12 1272 1273 1274
1399 13 1273 1274 1275
1400 14 1273 1274 1280
1401 15 1274 1275 1276
1402 16 1274 1275 1278
1403 17 1274 1275 1279
1404 18 1275 1274 1280
1405 19 1275 1276 1277
1406 20 1276 1275 1278
1407 21 1276 1275 1279
1408 22 1278 1275 1279
1409 23 1282 1283 1284
1410 24 1283 1284 1285
1411 25 1283 1284 1290
1412 26 1284 1285 1286
1413 27 1284 1285 1288
1414 28 1284 1285 1289
1415 29 1285 1284 1290
1416 30 1285 1286 1287
1417 31 1286 1285 1288
1418 32 1286 1285 1289
1419 33 1288 1285 1289
1420 1 1292 1293 1294
1421 2 1293 1294 1295
1422 3 1293 1294 1300
1423 4 1294 1295 1296
1424 5 1294 1295 1298
1425 6 1294 1295 1299
1426 7 1295 1294 1300
1427 8 1295 1296 1297
1428 9 1296 1295 1298
1429 10 1296 1295 1299
1430 11 1298 1295 1299
1431 12 1302 1303 1304
1432 13 1303 1304 1305
1433 14 1303 1304 1310
1434 15 1304 1305 1306
1435 16 1304 1305 1308
1436 17 1304 1305 1309
1437 18 1305 1304 1310
1438 19 1305 1306 1307
1439 20 1306 1305 1308
1440 21 1306 1305 1309
1441 22 1308 1305 1309
1442 23 1312 1313 1314
1443 24 1313 1314 1315
1444 25 1313 1314 1320
1445 26 1314 1315 1316
1446 27 1314 1315 1318
1447 28 1314 1315 1319
1448 29 1315 1314 1320
1449 30 1315 1316 1317
1450 31 1316 1315 1318
1451 32 1316 1315 1319
1452 33 1318 1315 1319
1453 1 1322 1323 1324
1454 2 1323 1324 1325
1455 3 1323 1324 1330
1456 4 1324 1325 1326
1457 5 1324 1325 1328
1458 6 1324 1325 1329
1459 7 1325 1324 1330
1460 8 1325 1326 1327
1461 9 1326 1325 1328
1462 10 1326 1325 1329
1463 11 1328 1325 1329
1464 12 1332 1333 1334
1465 13 1333 1334 1335
1466 14 1333 1334 1340
1467 15 1334 1335 1336
1468 16 1334 1335 1338
1469 17 1334 1335 1339
1470 18 1335 1334 1340
1471 19 1335 1336 1337
1472 20 1336 1335 1338
1473 21 1336 1335 1339
1474 22 1338 1335 1339
1475 23 1342 1343 1344
1476 24 1343 1344 1345
1477 25 1343 1344 1350
1478 26 1344 1345 1346
1479 27 1344 1345 1348
1480 28 1344 1345 1349
1481 29 1345 1344 1350
1482 30 1345 1346 1347
1483 31 1346 1345 1348
1484 32 1346 1345 1349
1485 33 1348 1345 1349
1486 1 1352 1353 1354
1487 2 1353 1354 1355
1488 3 1353 1354 1360
1489 4 1354 1355 1356
1490 5 1354 1355 1358
1491 6 1354 1355 1359
1492 7 1355 1354 1360
1493 8 1355 1356 1357
1494 9 1356 1355 1358
1495 10 1356 1355 1359
1496 11 1358 1355 1359
1497 12 1362 1363 1364
1498 13 1363 1364 1365
1499 14 1363 1364 1370
1500 15 1364 1365 1366
1501 16 1364 1365 1368
1502 17 1364 1365 1369
1503 18 1365 1364 1370
1504 19 1365 1366 1367
1505 20 1366 1365 1368
1506 21 1366 1365 1369
1507 22 1368 1365 1369
1508 23 1372 1373 1374
1509 24 1373 1374 1375
1510 25 1373 1374 1380
1511 26 1374 1375 1376
1512 27 1374 1375 1378
1513 28 1374 1375 1379
1514 29 1375 1374 1380
1515 30 1375 1376 1377
1516 31 1376 1375 1378
1517 32 1376 1375 1379
1518 33 1378 1375 1379
1519 1 1382 1383 1384
1520 2 1383 1384 1385
1521 3 1383 1384 1390
1522 4 1384 1385 1386
1523 5 1384 1385 1388
1524 6 1384 1385 1389
1525 7 1385 1384 1390
1526 8 1385 1386 1387
1527 9 1386 1385 1388
1528 10 1386 1385 1389
1529 11 1388 1385 1389
1530 12 1392 1393 1394
1531 13 1393 1394 1395
1532 14 1393 1394 1400
1533 15 1394 1395 1396
1534 16 1394 1395 1398
1535 17 1394 1395 1399
1536 18 1395 1394 1400
1537 19 1395 1396 1397
1538 20 1396 1395 1398
1539 21 1396 1395 1399
1540 22 1398 1395 1399
1541 23 1402 1403 1404
1542 24 1403 1404 1405
1543 25 1403 1404 1410
1544 26 1404 1405 1406
1545 27 1404 1405 1408
1546 28 1404 1405 1409
1547 29 1405 1404 1410
1548 30 1405 1406 1407
1549 31 1406 1405 1408
1550 32 1406 1405 1409
1551 33 1408 1405 1409
1552 1 1412 1413 1414
1553 2 1413 1414 1415
1554 3 1413 1414 1420
1555 4 1414 1415 1416
1556 5 1414 1415 1418
1557 6 1414 1415 1419
1558 7 1415 1414 1420
1559 8 1415 1416 1417
1560 9 1416 1415 1418
1561 10 1416 1415 1419
1562 11 1418 1415 1419
1563 12 1422 1423 1424
1564 13 1423 1424 1425
1565 14 1423 1424 1430
1566 15 1424 1425 1426
1567 16 1424 1425 1428
1568 17 1424 1425 1429
1569 18 1425 1424 1430
1570 19 1425 1426 1427
1571 20 1426 1425 1428
1572 21 1426 1425 1429
1573 22 1428 1425 1429
1574 23 1432 1433 1434
1575 24 1433 1434 1435
1576 25 1433 1434 1440
1577 26 1434 1435 1436
1578 27 1434 1435 1438
1579 28 1434 1435 1439
1580 29 1435 1434 1440
1581 30 1435 1436 1437
1582 31 1436 1435 1438
1583 32 1436 1435 1439
1584 33 1438 1435 1439
1585 1 1442 1443 1444
1586 2 1443 1444 1445
1587 3 1443 1444 1450
1588 4 1444 1445 1446
1589 5 1444 1445 1448
1590 6 1444 1445 1449
1591 7 1445 1444 1450
1592 8 1445 1446 1447
1593 9 1446 1445 1448
1594 10 1446 1445 1449
1595 11 1448 1445 1449
1596 12 1452 1453 1454
1597 13 1453 1454 1455
1598 14 1453 1454 1460
1599 15 1454 1455 1456
1600 16 1454 1455 1458
1601 17 1454 1455 1459
1602 18 1455 1454 1460
1603 19 1455 1456 1457
1604 20 1456 1455 1458
1605 21 1456 1455 1459
1606 22 1458 1455 1459
1607 23 1462 1463 1464
1608 24 1463 1464 1465
1609 25 1463 1464 1470
1610 26 1464 1465 1466
1611 27 1464 1465 1468
1612 28 1464 1465 1469
1613 29 1465 1464 1470
1614 30 1465 1466 1467
1615 31 1466 1465 1468
1616 32 1466 1465 1469
1617 33 1468 1465 1469
1618 1 1472 1473 1474
1619 2 1473 1474 1475
1620 3 1473 1474 1480
1621 4 1474 1475 1476
1622 5 1474 1475 1478
1623 6 1474 1475 1479
1624 7 1475 1474 1480
1625 8 1475 1476 1477
1626 9 1476 1475 1478
1627 10 1476 1475 1479
1628 11 1478 1475 1479
1629 12 1482 1483 1484
1630 13 1483 1484 1485
1631 14 1483 1484 1490
1632 15 1484 1485 1486
1633 16 1484 1485 1488
1634 17 1484 1485 1489
1635 18 1485 1484 1490
1636 19 1485 1486 1487
1637 20 1486 1485 1488
1638 21 1486 1485 1489
1639 22 1488 1485 1489
1640 23 1492 1493 1494
1641 24 1493 1494 1495
1642 25 1493 1494 1500
1643 26 1494 1495 1496
1644 27 1494 1495 1498
1645 28 1494 1495 1499
1646 29 1495 1494 1500
1647 30 1495 1496 1497
1648 31 1496 1495 1498
1649 32 1496 1495 1499
1650 33 1498 1495 1499
1651 34 2 3 12
1652 35 2 23 22
1653 36 2 23 24
1654 37 3 2 23
1655 38 3 12 13
1656 39 4 3 12
1657 40 12 13 22
1658 41 13 22 23
1659 42 14 13 22
1660 34 32 33 42
1661 35 32 53 52
1662 36 32 53 54
1663 37 33 32 53
1664 38 33 42 43
1665 39 34 33 42
1666 40 42 43 52
1667 41 43 52 53
1668 42 44 43 52
1669 34 62 63 72
1670 35 62 83 82
1671 36 62 83 84
1672 37 63 62 83
1673 38 63 72 73
1674 39 64 63 72
1675 40 72 73 82
1676 41 73 82 83
1677 42 74 73 82
1678 34 92 93 102
1679 35 92 113 112
1680 36 92 113 114
1681 37 93 92 113
1682 38 93 102 103
1683 39 94 93 102
1684 40 102 103 112
1685 41 103 112 113
1686 42 104 103 112
1687 34 122 123 132
1688 35 122 143 142
1689 36 122 143 144
1690 37 123 122 143
1691 38 123 132 133
1692 39 124 123 132
1693 40 132 133 142
1694 41 133 142 143
1695 42 134 133 142
1696 34 152 153 162
1697 35 152 173 172
1698 36 152 173 174
1699 37 153 152 173
1700 38 153 162 163
1701 39 154 153 162
1702 40 162 163 172
1703 41 163 172 173
1704 42 164 163 172
1705 34 182 183 192
1706 35 182 203 202
1707 36 182 203 204
1708 37 183 182 203
1709 38 183 192 193
1710 39 184 183 192
1711 40 192 193 202
1712 41 193 202 203
1713 42 194 193 202
1714 34 212 213 222
1715 35 212 233 232
1716 36 212 233 234
1717 37 213 212 233
1718 38 213 222 223
1719 39 214 213 222
1720 40 222 223 232
1721 41 223 232 233
1722 42 224 223 232
1723 34 242 243 252
1724 35 242 263 262
1725 36 242 263 264
1726 37 243 242 263
1727 38 243 252 253
1728 39 244 243 252
1729 40 252 253 262
1730 41 253 262 263
1731 42 254 253 262
1732 34 272 273 282
1733 35 272 293 292
1734 36 272 293 294
1735 37 273 272 293
1736 38 273 282 283
1737 39 274 273 282
1738 40 282 283 292
1739 41 283 292 293
1740 42 284 283 292
1741 34 302 303 312
1742 35 302 323 322
1743 36 302 323 324
1744 37 303 302 323
1745 38 303 312 313
1746 39 304 303 312
1747 40 312 313 322
1748 41 313 322 323
1749 42 314 313 322
1750 34 332 333 342
1751 35 332 353 352
1752 36 332 353 354
1753 37 333 332 353
1754 38 333 342 343
1755 39 334 333 342
1756 40 342 343 352
1757 41 343 352 353
1758 42 344 343 352
1759 34 362 363 372
1760 35 362 383 382
1761 36 362 383 384
1762 37 363 362 383
1763 38 363 372 373
1764 39 364 363 372
1765 40 372 373 382
1766 41 373 382 383
1767 42 374 373 382
1768 34 392 393 402
1769 35 392 413 412
1770 36 392 413 414
1771 37 393 392 413
1772 38 393 402 403
1773 39 394 393 402
1774 40 402 403 412
1775 41 403 412 413
1776 42 404 403 412
1777 34 422 423 432
1778 35 422 443 442
1779 36 422 443 444
1780 37 423 422 443
1781 38 423 432 433
1782 39 424 423 432
1783 40 432 433 442
1784 41 433 442 443
1785 42 434 433 442
1786 34 452 453 462
1787 35 452 473 472
1788 36 452 473 474
1789 37 453 452 473
1790 38 453 462 463
1791 39 454 453 462
1792 40 462 463 472
1793 41 463 472 473
1794 42 464 463 472
1795 34 482 483 492
1796 35 482 503 502
1797 36 482 503 504
1798 37 483 482 503
1799 38 483 492 493
1800 39 484 483 492
1801 40 492 493 502
1802 41 493 502 503
1803 42 494 493 502
1804 34 512 513 522
1805 35 512 533 532
1806 36 512 533 534
1807 37 513 512 533
1808 38 513 522 523
1809 39 514 513 522
1810 40 522 523 532
1811 41 523 532 533
1812 42 524 523 532
1813 34 542 543 552
1814 35 542 563 562
1815 36 542 563 564
1816 37 543 542 563
1817 38 543 552 553
1818 39 544 543 552
1819 40 552 553 562
1820 41 553 562 563
1821 42 554 553 562
1822 34 572 573 582
1823 35 572 593 592
1824 36 572 593 594
1825 37 573 572 593
1826 38 573 582 583
1827 39 574 573 582
1828 40 582 583 592
1829 41 583 592 593
1830 42 584 583 592
1831 34 602 603 612
1832 35 602 623 622
1833 36 602 623 624
1834 37 603 602 623
1835 38 603 612 613
1836 39 604 603 612
1837 40 612 613 622
1838 41 613 622 623
1839 42 614 613 622
1840 34 632 633 642
1841 35 632 653 652
1842 36 632 653 654
1843 37 633 632 653
1844 38 633 642 643
1845 39 634 633 642
1846 40 642 643 652
1847 41 643 652 653
1848 42 644 643 652
1849 34 662 663 672
1850 35 662 683 682
1851 36 662 683 684
1852 37 663 662 683
1853 38 663 672 673
1854 39 664 663 672
1855 40 672 673 682
1856 41 673 682 683
1857 42 674 673 682
1858 34 692 693 702
1859 35 692 713 712
1860 36 692 713 714
1861 37 693 692 713
1862 38 693 702 703
1863 39 694 693 702
1864 40 702 703 712
1865 41 703 712 713
1866 42 704 703 712
1867 34 722 723 732
1868 35 722 743 742
1869 36 722 743 744
1870 37 723 722 743
1871 38 723 732 733
1872 39 724 723 732
1873 40 732 733 742
1874 41 733 742 743
1875 42 734 733 742
1876 34 752 753 762
1877 35 752 773 772
1878 36 752 773 774
1879 37 753 752 773
1880 38 753 762 763
1881 39 754 753 762
1882 40 762 763 772
1883 41 763 772 773
1884 42 764 763 772
1885 34 782 783 792
1886 35 782 803 802
1887 36 782 803 804
1888 37 783 782 803
1889 38 783 792 793
1890 39 784 783 792
1891 40 792 793 802
1892 41 793 802 803
1893 42 794 793 802
1894 34 812 813 822
1895 35 812 833 832
1896 36 812 833 834
1897 37 813 812 833
1898 38 813 822 823
1899 39 814 813 822
1900 40 822 823 832
1901 41 823 832 833
1902 42 824 823 832
1903 34 842 843 852
1904 35 842 863 862
1905 36 842 863 864
1906 37 843 842 863
1907 38 843 852 853
1908 39 844 843 852
1909 40 852 853 862
1910 41 853 862 863
1911 42 854 853 862
1912 34 872 873 882
1913 35 872 893 892
1914 36 872 893 894
1915 37 873 872 893
1916 38 873 882 883
1917 39 874 873 882
1918 40 882 883 892
1919 41 883 892 893
1920 42 884 883 892
1921 34 902 903 912
1922 35 902 923 922
1923 36 902 923 924
1924 37 903 902 923
1925 38 903 912 913
1926 39 904 903 912
1927 40 912 913 922
1928 41 913 922 923
1929 42 914 913 922
1930 34 932 933 942
1931 35 932 953 952
1932 36 932 953 954
1933 37 933 932 953
1934 38 933 942 943
1935 39 934 933 942
1936 40 942 943 952
1937 41 943 952 953
1938 42 944 943 952
1939 34 962 963 972
1940 35 962 983 982
1941 36 962 983 984
1942 37 963 962 983
1943 38 963 972 973
1944 39 964 963 972
1945 40 972 973 982
1946 41 973 982 983
1947 42 974 973 982
1948 34 992 993 1002
1949 35 992 1013 1012
1950 36 992 1013 1014
1951 37 993 992 1013
1952 38 993 1002 1003
1953 39 994 993 1002
1954 40 1002 1003 1012
1955 41 1003 1012 1013
1956 42 1004 1003 1012
1957 34 1022 1023 1032
1958 35 1022 1043 1042
1959 36 1022 1043 1044
1960 37 1023 1022 1043
1961 38 1023 1032 1033
1962 39 1024 1023 1032
1963 40 1032 1033 1042
1964 41 1033 1042 1043
1965 42 1034 1033 1042
1966 34 1052 1053 1062
1967 35 1052 1073 1072
1968 36 1052 1073 1074
1969 37 1053 1052 1073
1970 38 1053 1062 1063
1971 39 1054 1053 1062
1972 40 1062 1063 1072
1973 41 1063 1072 1073
1974 42 1064 1063 1072
1975 34 1082 1083 1092
1976 35 1082 1103 1102
1977 36 1082 1103 1104
1978 37 1083 1082 1103
1979 38 1083 1092 1093
1980 39 1084 1083 1092
1981 40 1092 1093 1102
1982 41 1093 1102 1103
1983 42 1094 1093 1102
1984 34 1112 1113 1122
1985 35 1112 1133 1132
1986 36 1112 1133 1134
1987 37 1113 1112 1133
1988 38 1113 1122 1123
1989 39 1114 1113 1122
1990 40 1122 1123 1132
1991 41 1123 1132 1133
1992 42 1124 1123 1132
1993 34 1142 1143 1152
1994 35 1142 1163 1162
1995 36 1142 1163 1164
1996 37 1143 1142 1163
1997 38 1143 1152 1153
1998 39 1144 1143 1152
1999 40 1152 1153 1162
2000 41 1153 1162 1163
2001 42 1154 1153 1162
2002 34 1172 1173 1182
2003 35 1172 1193 1192
2004 36 1172 1193 1194
2005 37 1173 1172 1193
2006 38 1173 1182 1183
2007 39 1174 1173 1182
2008 40 1182 1183 1192
2009 41 1183 1192 1193
2010 42 1184 1183 1192
2011 34 1202 1203 1212
2012 35 1202 1223 1222
2013 36 1202 1223 1224
2014 37 1203 1202 1223
2015 38 1203 1212 1213
2016 39 1204 1203 1212
2017 40 1212 1213 1222
2018 41 1213 1222 1223
2019 42 1214 1213 1222
2020 34 1232 1233 1242
2021 35 1232 1253 1252
2022 36 1232 1253 1254
2023 37 1233 1232 1253
2024 38 1233 1242 1243
2025 39 1234 1233 1242
2026 40 1242 1243 1252
2027 41 1243 1252 1253
2028 42 1244 1243 1252
2029 34 1262 1263 1272
2030 35 1262 1283 1282
2031 36 1262 1283 1284
2032 37 1263 1262 1283
2033 38 1263 1272 1273
2034 39 1264 1263 1272
2035 40 1272 1273 1282
2036 41 1273 1282 1283
2037 42 1274 1273 1282
2038 34 1292 1293 1302
2039 35 1292 1313 1312
2040 36 1292 1313 1314
2041 37 1293 1292 1313
2042 38 1293 1302 1303
2043 39 1294 1293 1302
2044 40 1302 1303 1312
2045 41 1303 1312 1313
2046 42 1304 1303 1312
2047 34 1322 1323 1332
2048 35 1322 1343 1342
2049 36 1322 1343 1344
2050 37 1323 1322 1343
2051 38 1323 1332 1333
2052 39 1324 1323 1332
2053 40 1332 1333 1342
2054 41 1333 1342 1343
2055 42 1334 1333 1342
2056 34 1352 1353 1362
2057 35 1352 1373 1372
2058 36 1352 1373 1374
2059 37 1353 1352 1373
2060 38 1353 1362 1363
2061 39 1354 1353 1362
2062 40 1362 1363 1372
2063 41 1363 1372 1373
2064 42 1364 1363 1372
2065 34 1382 1383 1392
2066 35 1382 1403 1402
2067 36 1382 1403 1404
2068 37 1383 1382 1403
2069 38 1383 1392 1393
2070 39 1384 1383 1392
2071 40 1392 1393 1402
2072 41 1393 1402 1403
2073 42 1394 1393 1402
2074 34 1412 1413 1422
2075 35 1412 1433 1432
2076 36 1412 1433 1434
2077 37 1413 1412 1433
2078 38 1413 1422 1423
2079 39 1414 1413 1422
2080 40 1422 1423 1432
2081 41 1423 1432 1433
2082 42 1424 1423 1432
2083 34 1442 1443 1452
2084 35 1442 1463 1462
2085 36 1442 1463 1464
2086 37 1443 1442 1463
2087 38 1443 1452 1453
2088 39 1444 1443 1452
2089 40 1452 1453 1462
2090 41 1453 1462 1463
2091 42 1454 1453 1462
2092 34 1472 1473 1482
2093 35 1472 1493 1492
2094 36 1472 1493 1494
2095 37 1473 1472 1493
2096 38 1473 1482 1483
2097 39 1474 1473 1482
2098 40 1482 1483 1492
2099 41 1483 1492 1493
2100 42 1484 1483 1492

Dihedrals

1 1 2 3 4 5
2 2 2 3 4 10
3 3 3 4 5 6
4 4 3 4 5 8
5 4 3 4 5 9
6 5 4 5 6 7
7 6 8 5 6 7
8 6 9 5 6 7
9 2 10 4 5 6
10 7 10 4 5 8
11 7 10 4 5 9
12 1 12 13 14 15
13 2 12 13 14 20
14 3 13 14 15 16
15 4 13 14 15 18
16 4 13 14 15 19
17 5 14 15 16 17
18 6 18 15 16 17
19 6 19 15 16 17
20 2 20 14 15 16
21 7 20 14 15 18
22 7 20 14 15 19
23 1 22 23 24 25
24 2 22 23 24 30
25 3 23 24 25 26
26 4 23 24 25 28
27 4 23 24 25 29
28 5 24 25 26 27
29 6 28 25 26 27
30 6 29 25 26 27
31 2 30 24 25 26
32 7 30 24 25 28
33 7 30 24 25 29
34 1 32 33 34 35
35 2 32 33 34 40
36 3 33 34 35 36
37 4 33 34 35 38
38 4 33 34 35 39
39 5 34 35 36 37
40 6 38 35 36 37
41 6 39 35 36 37
42 2 40 34 35 36
43 7 40 34 35 38
44 7 40 34 35 39
45 1 42 43 44 45
46 2 42 43 44 50
47 3 43 44 45 46
48 4 43 44 45 48
49 4 43 44 45 49
50 5 44 45 46 47
51 6 48 45 46 47
52 6 49 45 46 47
53 2 50 44 45 46
54 7 50 44 45 48
55 7 50 44 45 49
56 1 52 53 54 55
57 2 52 53 54 60
58 3 53 54 55 56
59 4 53 54 55 58
60 4 53 54 55 59
61 5 54 55 56 57
62 6 58 55 56 57
63 6 59 55 56 57
64 2 60 54 55 56
65 7 60 54 55 58
66 7 60 54 55 59
67 1 62 63 64 65
68 2 62 63 64 70
69 3 63 64 65 66
70 4 63 64 65 68
71 4 63 64 65 69
72 5 64 65 66 67
73 6 68 65 66 67
74 6 69 65 66 67
75 2 70 64 65 66
76 7 70 64 65 68
77 7 70 64 65 69
78 1 72 73 74 75
79 2 72 73 74 80
80 3 73 74 75 76
81 4 73 74 75 78
82 4 73 74 75 79
83 5 74 75 76 77
84 6 78 75 76 77
85 6 79 75 76 77
86 2 80 74 75 76
87 7 80 74 75 78
88 7 80 74 75 79
89 1 82 83 84 85
90 2 82 83 84 90
91 3 83 84 85 86
92 4 83 84 85 88
93 4 83 84 85 89
94 5 84 85 86 87
95 6 88 85 86 87
96 6 89 85 86 87
97 2 90 84 85 86
98 7 90 84 85 88
99 7 90 84 85 89
100 1 92 93 94 95
101 2 92 93 94 100
102 3 93 94 95 96
103 4 93 94 95 98
104 4 93 94 95 99
105 5 94 95 96 97
106 6 98 95 96 97
107 6 99 95 96 97
108 2 100 94 95 96
109 7 100 94 95 98
110 7 100 94 95 99
111 1 102 103 104 105
112 2 102 103 104 110
113 3 103 104 105 106
114 4 103 104 105 108
115 4 103 104 105 109
116 5 104 105 106 107
117 6 108 105 106 107
118 6 109 105 106 107
119 2 110 104 105 106
120 7 110 104 105 108
121 7 110 104 105 109
122 1 112 113 114 115
123 2 112 113 114 120
124 3 113 114 115 116
125 4 113 114 115 118
126 4 113 114 115 119
127 5 114 115 116 117
128 6 118 115 116 117
129 6 119 115 116 117
130 2 120 114 115 116
131 7 120 114 115 118
132 7 120 114 115 119
133 1 122 123 124 125
134 2 122 123 124 130
135 3 123 124 125 126
136 4 123 124 125 128
137 4 123 124 125 129
138 5 124 125 126 127
139 6 128 125 126 127
140 6 129 125 126 127
141 2 130 124 125 126
142 7 130 124 125 128
143 7 130 124 125 129
144 1 132 133 134 135
145 2 132 133 134 140
146 3 133 134 135 136
147 4 133 134 135 138
148 4 133 134 135 139
149 5 134 135 136 137
150 6 138 135 136 137
151 6 139 135 136 137
152 2 140 134 135 136
153 7 140 134 135 138
154 7 140 134 135 139
155 1 142 143 144 145
156 2 142 143 144 150
157 3 143 144 145 146
158 4 143 144 145 148
159 4 143 144 145 149
160 5 144 145 146 147
161 6 148 145 146 147
162 6 149 145 146 147
163 2 150 144 145 146
164 7 150 144 145 148
165 7 150 144 145 149
166 1 152 153 154 155
167 2 152 153 154 160
168 3 153 154 155 156
169 4 153 154 155 158
170 4 153 154 155 159
171 5 154 155 156 157
172 6 158 155 156 157
173 6 159 155 156 157
174 2 160 154 155 156
175 7 160 154 155 158
176 7 160 154 155 159
177 1 162 163 164 165
178 2 162 163 164 170
179 3 163 164 165 166
180 4 163 164 165 168
181 4 163 164 165 169
182 5 164 165 166 167
183 6 168 165 166 167
184 6 169 165 166 167
185 2 170 164 165 166
186 7 170 164 165 168
187 7 170 164 165 169
188 1 172 173 174 175
189 2 172 173 174 180
190 3 173 174 175 176
191 4 173 174 175 178
192 4 173 174 175 179
193 5 174 175 176 177
194 6 178 175 176 177
195 6 179 175 176 177
196 2 180 174 175 176
197 7 180 174 175 178
198 7 180 174 175 179
199 1 182 183 184 185
200 2 182 183 184 190
201 3 183 184 185 186
202 4 183 184 185 188
203 4 183 184 185 189
204 5 184 185 186 187
205 6 188 185 186 187
206 6 189 185 186 187
207 2 190 184 185 186
208 7 190 184 185 188
209 7 190 184 185 189
210 1 192 193 194 195
211 2 192 193 194 200
212 3 193 194 195 196
213 4 193 194 195 198
214 4 193 194 195 199
215 5 194 195 196 197
216 6 198 195 196 197
217 6 199 195 196 197
218 2 200 194 195 196
219 7 200 194 195 198
220 7 200 194 195 199
221 1 202 203 204 205
222 2 202 203 204 210
223 3 203 204 205 206
224 4 203 204 205 208
225 4 203 204 205 209
226 5 204 205 206 207
227 6 208 205 206 207
228 6 209 205 206 207
229 2 210 204 205 206
230 7 210 204 205 208
231 7 210 204 205 209
232 1 212 213 214 215
233 2 212 213 214 220
234 3 213 214 215 216
235 4 213 214 215 218
236 4 213 214 215 219
237 5 214 215 216 217
238 6 218 215 216 217
239 6 219 215 216 217
240 2 220 214 215 216
241 7 220 214 215 218
242 7 220 214 215 219
243 1 222 223 224 225
244 2 222 223 224 230
245 3 223 224 225 226
246 4 223 224 225 228
247 4 223 224 225 229
248 5 224 225 226 227
249 6 228 225 226 227
250 6 229 225 226 227
251 2 230 224 225 226
252 7 230 224 225 228
253 7 230 224 225 229
254 1 232 233 234 235
255 2 232 233 234 240
256 3 233 234 235 236
257 4 233 234 235 238
258 4 233 234 235 239
259 5 234 235 236 237
260 6 238 235 236 237
261 6 239 235 236 237
262 2 240 234 235 236
263 7 240 234 235 238
264 7 240 234 235 239
265 1 242 243 244 245
266 2 242 243 244 250
267 3 243 244 245 246
268 4 243 244 245 248
269 4 243 244 245 249
270 5 244 245 246 247
271 6 248 245 246 247
272 6 249 245 246 247
273 2 250 244 245 246
274 7 250 244 245 248
275 7 250 244 245 249
276 1 252 253 254 255
277 2 252 253 254 260
278 3 253 254 255 256
279 4 253 254 255 258
280 4 253 254 255 259
281 5 254 255 256 257
282 6 258 255 256 257
283 6 259 255 256 257
284 2 260 254 255 256
285 7 260 254 255 258
286 7 260 254 255 259
287 1 262 263 264 265
288 2 262 263 264 270
289 3 263 264 265 266
290 4 263 264 265 268
291 4 263 264 265 269
292 5 264 265 266 267
293 6 268 265 266 267
294 6 269 265 266 267
295 2 270 264 265 266
296 7 270 264 265 268
297 7 270 264 265 269
298 1 272 273 274 275
299 2 272 273 274 280
300 3 273 274 275 276
301 4 273 274 275 278
302 4 273 274 275 279
303 5 274 275 276 277
304 6 278 275 276 277
305 6 279 275 276 277
306 2 280 274 275 276
307 7 280 274 275 278
308 7 280 274 275 279
309 1 282 283 284 285
310 2 282 283 284 290
311 3 283 284 285 286
312 4 283 284 285 288
313 4 283 284 285 289
314 5 284 285 286 287
315 6 288 285 286 287
316 6 289 285 286 287
317 2 290 284 285 286
318 7 290 284 285 288
319 7 290 284 285 289
320 1 292 293 294 295
321 2 292 293 294 300
322 3 293 294 295 296
323 4 293 294 295 298
324 4 293 294 295 299
325 5 294 295 296 297
326 6 298 295 296 297
327 6 299 295 296 297
328 2 300 294 295 296
329 7 300 294 295 298
330 7 300 294 295 299
331 1 302 303 304 305
332 2 302 303 304 310
333 3 303 304 305 306
334 4 303 304 305 308
335 4 303 304 305 309
336 5 304 305 306 307
337 6 308 305 306 307
338 6 309 305 306 307
339 2 310 304 305 306
340 7 310 304 305 308
341 7 310 304 305 309
342 1 312 313 314 315
343 2 312 313 314 320
344 3 313 314 315 316
345 4 313 314 315 318
346 4 313 314 315 319
347 5 314 315 316 317
348 6 318 315 316 317
349 6 319 315 316 317
350 2 320 314 315 316
351 7 320 314 315 318
352 7 320 314 315 319
353 1 322 323 324 325
354 2 322 323 324 330
355 3 323 324 325 326
356 4 323 324 325 328
357 4 323 324 325 329
358 5 324 325 326 327
359 6 328 325 326 327
360 6 329 325 326 327
361 2 330 324 325 326
362 7 330 324 325 328
363 7 330 324 325 329
364 1 332 333 334 335
365 2 332 333 334 340
366 3 333 334 335 336
367 4 333 334 335 338
368 4 333 334 335 339
369 5 334 335 336 337
370 6 338 335 336 337
371 6 339 335 336 337
372 2 340 334 335 336
373 7 340 334 335 338
374 7 340 334 335 339
375 1 342 343 344 345
376 2 342 343 344 350
377 3 343 344 345 346
378 4 343 344 345 348
379 4 343 344 345 349
380 5 344 345 346 347
381 6 348 345 346 347
382 6 349 345 346 347
383 2 350 344 345 346
384 7 350 344 345 348
385 7 350 344 345 349
386 1 352 353 354 355
387 2 352 353 354 360
388 3 353 354 355 356
389 4 353 354 355 358
390 4 353 354 355 359
391 5 354 355 356 357
392 6 358 355 356 357
393 6 359 355 356 357
394 2 360 354 355 356
395 7 360 354 355 358
396 7 360 354 355 359
397 1 362 363 364 365
398 2 362 363 364 370
399 3 363 364 365 366
400 4 363 364 365 368
401 4 363 364 365 369
402 5 364 365 366 367
403 6 368 365 366 367
404 6 369 365 366 367
405 2 370 364 365 366
406 7 370 364 365 368
407 7 370 364 365 369
408 1 372 373 374 375
409 2 372 373 374 380
410 3 373 374 375 376
411 4 373 374 375 378
412 4 373 374 375 379
413 5 374 375 376 377
414 6 378 375 376 377
415 6 379 375 376 377
416 2 380 374 375 376
417 7 380 374 375 378
418 7 380 374 375 379
419 1 382 383 384 385
420 2 382 383 384 390
421 3 383 384 385 386
422 4 383 384 385 388
423 4 383 384 385 389
424 5 384 385 386 387
425 6 388 385 386 387
426 6 389 385 386 387
427 2 390 384 385 386
428 7 390 384 385 388
429 7 390 384 385 389
430 1 392 393 394 395
431 2 392 393 394 400
432 3 393 394 395 396
433 4 393 394 395 398
434 4 393 394 395 399
435 5 394 395 396 397
436 6 398 395 396 397
437 6 399 395 396 397
438 2 400 394 395 396
439 7 400 394 395 398
440 7 400 394 395 399
441 1 402 403 404 405
442 2 402 403 404 410
443 3 403 404 405 406
444 4 403 404 405 408
445 4 403 404 405 409
446 5 404 405 406 407
447 6 408 405 406 407
448 6 409 405 406 407
449 2 410 404 405 406
450 7 410 404 405 408
451 7 410 404 405 409
452 1 412 413 414 415
453 2 412 413 414 420
454 3 413 414 415 416
455 4 413 414 415 418
456 4 413 414 415 419
457 5 414 415 416 417
458 6 418 415 416 417
459 6 419 415 416 417
460 2 420 414 415 416
461 7 420 414 415 418
462 7 420 414 415 419
463 1 422 423 424 425
464 2 422 423 424 430
465 3 423 424 425 426
466 4 423 424 425 428
467 4 423 424 425 429
468 5 424 425 426 427
469 6 428 425 426 427
470 6 429 425 426 427
471 2 430 424 425 426
472 7 430 424 425 428
473 7 430 424 425 429
474 1 432 433 434 435
475 2 432 433 434 440
476 3 433 434 435 436
477 4 433 434 435 438
478 4 433 434 435 439
479 5 434 435 436 437
480 6 438 435 436 437
481 6 439 435 436 437
482 2 440 434 435 436
483 7 440 434 435 438
484 7 440 434 435 439
485 1 442 443 444 445
486 2 442 443 444 450
487 3 443 444 445 446
488 4 443 444 445 448
489 4 443 444 445 449
490 5 444 445 446 447
491 6 448 445 446 447
492 6 449 445 446 447
493 2 450 444 445 446
494 7 450 444 445 448
495 7 450 444 445 449
496 1 452 453 454 455
497 2 452 453 454 460
498 3 453 454 455 456
499 4 453 454 455 458
500 4 453 454 455 459
501 5 454 455 456 457
502 6 458 455 456 457
503 6 459 455 456 457
504 2 460 454 455 456
505 7 460 454 455 458
506 7 460 454 455 459
507 1 462 463 464 465
508 2 462 463 464 470
509 3 463 464 465 466
510 4 463 464 465 468
511 4 463 464 465 469
512 5 464 465 466 467
513 6 468 465 466 467
514 6 469 465 466 467
515 2 470 464 465 466
516 7 470 464 465 468
517 7 470 464 465 469
518 1 472 473 474 475
519 2 472 473 474 480
520 3 473 474 475 476
521 4 473 474 475 478
522 4 473 474 475 479
523 5 474 475 476 477
524 6 478 475 476 477
525 6 479 475 476 477
526 2 480 474 475 476
527 7 480 474 475 478
528 7 480 474 475 479
529 1 482 483 484 485
530 2 482 483 484 490
531 3 483 484 485 486
532 4 483 484 485 488
533 4 483 484 485 489
534 5 484 485 486 487
535 6 488 485 486 487
536 6 489 485 486 487
537 2 490 484 485 486
538 7 490 484 485 488
539 7 490 484 485 489
540 1 492 493 494 495
541 2 492 493 494 500
542 3 493 494 495 496
543 4 493 494 495 498
544 4 493 494 495 499
545 5 494 495 496 497
546 6 498 495 496 497
547 6 499 495 496 497
548 2 500 494 495 496
549 7 500 494 495 498
550 7 500 494 495 499
551 1 502 503 504 505
552 2 502 503 504 510
553 3 503 504 505 506
554 4 503 504 505 508
555 4 503 504 505 509
556 5 504 505 506 507
557 6 508 505 506 507
558 6 509 505 506 507
559 2 510 504 505 506
560 7 510 504 505 508
561 7 510 504 505 509
562 1 512 513 514 515
563 2 512 513 514 520
564 3 513 514 515 516
565 4 513 514 515 518
566 4 513 514 515 519
567 5 514 515 516 517
568 6 518 515 516 517
569 6 519 515 516 517
570 2 520 514 515 516
571 7 520 514 515 518
572 7 520 514 515 519
573 1 522 523 524 525
574 2 522 523 524 530
575 3 523 524 525 526
576 4 523 524 525 528
577 4 523 524 525 529
578 5 524 525 526 527
579 6 528 525 526 527
580 6 529 525 526 527
581 2 530 524 525 526
582 7 530 524 525 528
583 7 530 524 525 529
584 1 532 533 534 535
585 2 532 533 534 540
586 3 533 534 535 536
587 4 533 534 535 538
588 4 533 534 535 539
589 5 534 535 536 537
590 6 538 535 536 537
591 6 539 535 536 537
592 2 540 534 535 536
593 7 540 534 535 538
594 7 540 534 535 539
595 1 542 543 544 545
596 2 542 543 544 550
597 3 543 544 545 546
598 4 543 544 545 548
599 4 543 544 545 549
600 5 544 545 546 547
601 6 548 545 546 547
602 6 549 545 546 547
603 2 550 544 545 546
604 7 550 544 545 548
605 7 550 544 545 549
606 1 552 553 554 555
607 2 552 553 554 560
608 3 553 554 555 556
609 4 553 554 555 558
610 4 553 554 555 559
611 5 554 555 556 557
612 6 558 555 556 557
613 6 559 555 556 557
614 2 560 554 555 556
615 7 560 554 555 558
616 7 560 554 555 559
617 1 562 563 564 565
618 2 562 563 564 570
619 3 563 564 565 566
620 4 563 564 565 568
621 4 563 564 565 569
622 5 564 565 566 567
623 6 568 565 566 567
624 6 569 565 566 567
625 2 570 564 565 566
626 7 570 564 565 568
627 7 570 564 565 569
628 1 572 573 574 575
629 2 572 573 574 580
630 3 573 574 575 576
631 4 573 574 575 578
632 4 573 574 575 579
633 5 574 575 576 577
634 6 578 575 576 577
635 6 579 575 576 577
636 2 580 574 575 576
637 7 580 574 575 578
638 7 580 574 575 579
639 1 582 583 584 585
640 2 582 583 584 590
641 3 583 584 585 586
642 4 583 584 585 588
643 4 583 584 585 589
644 5 584 585 586 587
645 6 588 585 586 587
646 6 589 585 586 587
647 2 590 584 585 586
648 7 590 584 585 588
649 7 590 584 585 589
650 1 592 593 594 595
651 2 592 593 594 600
652 3 593 594 595 596
653 4 593 594 595 598
654 4 593 594 595 599
655 5 594 595 596 597
656 6 598 595 596 597
657 6 599 595 596 597
658 2 600 594 595 596
659 7 600 594 595 598
660 7 600 594 595 599
661 1 602 603 604 605
662 2 602 603 604 610
663 3 603 604 605 606
664 4 603 604 605 608
665 4 603 604 605 609
666 5 604 605 606 607
667 6 608 605 606 607
668 6 609 605 606 607
669 2 610 604 605 606
670 7 610 604 605 608
671 7 610 604 605 609
672 1 612 613 614 615
673 2 612 613 614 620
674 3 613 614 615 616
675 4 613 614 615 618
676 4 613 614 615 619
677 5 614 615 616 617
678 6 618 615 616 617
679 6 619 615 616 617
680 2 620 614 615 616
681 7 620 614 615 618
682 7 620 614 615 619
683 1 622 623 624 625
684 2 622 623 624 630
685 3 623 624 625 626
686 4 623 624 625 628
687 4 623 624 625 629
688 5 624 625 626 627
689 6 628 625 626 627
690 6 629 625 626 627
691 2 630 624 625 626
692 7 630 624 625 628
693 7 630 624 625 629
694 1 632 633 634 635
695 2 632 633 634 640
696 3 633 634 635 636
697 4 633 634 635 638
698 4 633 634 635 639
699 5 634 635 636 637
700 6 638 635 636 637
701 6 639 635 636 637
702 2 640 634 635 636
703 7 640 634 635 638
704 7 640 634 635 639
705 1 642 643 644 645
706 2 642 643 644 650
707 3 643 644 645 646
708 4 643 644 645 648
709 4 643 644 645 649
710 5 644 645 646 647
711 6 648 645 646 647
712 6 649 645 646 647
713 2 650 644 645 646
714 7 650 644 645 648
715 7 650 644 645 649
716 1 652 653 654 655
717 2 652 653 654 660
718 3 653 654 655 656
719 4 653 654 655 658
720 4 653 654 655 659
721 5 654 655 656 657
722 6 658 655 656 657
723 6 659 655 656 657
724 2 660 654 655 656
725 7 660 654 655 658
726 7 660 654 655 659
727 1 662 663 664 665
728 2 662 663 664 670
729 3 663 664 665 666
730 4 663 664 665 668
731 4 663 664 665 669
732 5 664 665 666 667
733 6 668 665 666 667
734 6 669 665 666 667
735 2 670 664 665 666
736 7 670 664 665 668
737 7 670 664 665 669
738 1 672 673 674 675
739 2 672 673 674 680
740 3 673 674 675 676
741 4 673 674 675 678
742 4 673 674 675 679
743 5 674 675 676 677
744 6 678 675 676 677
745 6 679 675 676 677
746 2 680 674 675 676
747 7 680 674 675 678
748 7 680 674 675 679
749 1 682 683 684 685
750 2 682 683 684 690
751 3 683 684 685 686
752 4 683 684 685 688
753 4 683 684 685 689
754 5 684 685 686 687
755 6 688 685 686 687
756 6 689 685 686 687
757 2 690 684 685 686
758 7 690 684 685 688
759 7 690 684 685 689
760 1 692 693 694 695
761 2 692 693 694 700
762 3 693 694 695 696
763 4 693 694 695 698
764 4 693 694 695 699
765 5 694 695 696 697
766 6 698 695 696 697
767 6 699 695 696 697
768 2 700 694 695 696
769 7 700 694 695 698
770 7 700 694 695 699
771 1 702 703 704 705
772 2 702 703 704 710
773 3 703 704 705 706
774 4 703 704 705 708
775 4 703 704 705 709
776 5 704 705 706 707
777 6 708 705 706 707
778 6 709 705 706 707
779 2 710 704 705 706
780 7 710 704 705 708
781 7 710 704 705 709
782 1 712 713 714 715
783 2 712 713 714 720
784 3 713 714 715 716
785 4 713 714 715 718
786 4 713 714 715 719
787 5 714 715 716 717
788 6 718 715 716 717
789 6 719 715 716 717
790 2 720 714 715 716
791 7 720 714 715 718
792 7 720 714 715 719
793 1 722 723 724 725
794 2 722 723 724 730
795 3 723 724 725 726
796 4 723 724 725 728
797 4 723 724 725 729
798 5 724 725 726 727
799 6 728 725 726 727
800 6 729 725 726 727
801 2 730 724 725 726
802 7 730 724 725 728
803 7 730 724 725 729
804 1 732 733 734 735
805 2 732 733 734 740
806 3 733 734 735 736
807 4 733 734 735 738
808 4 733 734 735 739
809 5 734 735 736 737
810 6 738 735 736 737
811 6 739 735 736 737
812 2 740 734 735 736
813 7 740 734 735 738
814 7 740 734 735 739
815 1 742 743 744 745
816 2 742 743 744 750
817 3 743 744 745 746
818 4 743 744 745 748
819 4 743 744 745 749
820 5 744 745 746 747
821 6 748 745 746 747
822 6 749 745 746 747
823 2 750 744 745 746
824 7 750 744 745 748
825 7 750 744 745 749
826 1 752 753 754 755
827 2 752 753 754 760
828 3 753 754 755 756
829 4 753 754 755 758
830 4 753 754 755 759
831 5 754 755 756 757
832 6 758 755 756 757
833 6 759 755 756 757
834 2 760 754 755 756
835 7 760 754 755 758
836 7 760 754 755 759
837 1 762 763 764 765
838 2 762 763 764 770
839 3 763 764 765 766
840 4 763 764 765 768
841 4 763 764 765 769
842 5 764 765 766 767
843 6 768 765 766 767
844 6 769 765 766 767
845 2 770 764 765 766
846 7 770 764 765 768
847 7 770 764 765 769
848 1 772 773 774 775
849 2 772 773 774 780
850 3 773 774 775 776
851 4 773 774 775 778
852 4 773 774 775 779
853 5 774 775 776 777
854 6 778 775 776 777
855 6 779 775 776 777
856 2 780 774 775 776
857 7 780 774 775 778
858 7 780 774 775 779
859 1 782 783 784 785
860 2 782 783 784 790
861 3 783 784 785 786
862 4 783 784 785 788
863 4 783 784 785 789
864 5 784 785 786 787
865 6 788 785 786 787
866 6 789 785 786 787
867 2 790 784 785 786
868 7 790 784 785 788
869 7 790 784 785 789
870 1 792 793 794 795
871 2 792 793 794 800
872 3 793 794 795 796
873 4 793 794 795 798
874 4 793 794 795 799
875 5 794 795 796 797
876 6 798 795 796 797
877 6 799 795 796 797
878 2 800 794 795 796
879 7 800 794 795 798
880 7 800 794 795 799
881 1 802 803 804 805
882 2 802 803 804 810
883 3 803 804 805 806
884 4 803 804 805 808
885 4 803 804 805 809
886 5 804 805 806 807
887 6 808 805 806 807
888 6 809 805 806 807
889 2 810 804 805 806
890 7 810 804 805 808
891 7 810 804 805 809
892 1 812 813 814 815
893 2 812 813 814 820
894 3 813 814 815 816
895 4 813 814 815 818
896 4 813 814 815 819
897 5 814 815 816 817
898 6 818 815 816 817
899 6 819 815 816 817
900 2 820 814 815 816
901 7 820 814 815 818
902 7 820 814 815 819
903 1 822 823 824 825
904 2 822 823 824 830
905 3 823 824 825 826
906 4 823 824 825 828
907 4 823 824 825 829
908 5 824 825 826 827
909 6 828 825 826 827
910 6 829 825 826 827
911 2 830 824 825 826
912 7 830 824 825 828
913 7 830 824 825 829
914 1 832 833 834 835
915 2 832 833 834 840
916 3 833 834 835 836
917 4 833 834 835 838
918 4 833 834 835 839
919 5 834 835 836 837
920 6 838 835 836 837
921 6 839 835 836 837
922 2 840 834 835 836
923 7 840 834 835 838
924 7 840 834 835 839
925 1 842 843 844 845
926 2 842 843 844 850
927 3 843 844 845 846
928 4 843 844 845 848
929 4 843 844 845 849
930 5 844 845 846 847
931 6 848 845 846 847
932 6 849 845 846 847
933 2 850 844 845 846
934 7 850 844 845 848
935 7 850 844 845 849
936 1 852 853 854 855
937 2 852 853 854 860
938 3 853 854 855 856
939 4 853 854 855 858
940 4 853 854 855 859
941 5 854 855 856 857
942 6 858 855 856 857
943 6 859 855 856 857
944 2 860 854 855 856
945 7 860 854 855 858
946 7 860 854 855 859
947 1 862 863 864 865
948 2 862 863 864 870
949 3 863 864 865 866
950 4 863 864 865 868
951 4 863 864 865 869
952 5 864 865 866 867
953 6 868 865 866 867
954 6 869 865 866 867
955 2 870 864 865 866
956 7 870 864 865 868
957 7 870 864 865 869
958 1 872 873 874 875
959 2 872 873 874 880
960 3 873 874 875 876
961 4 873 874 875 878
962 4 873 874 875 879
963 5 874 875 876 877
964 6 878 875 876 877
965 6 879 875 876 877
966 2 880 874 875 876
967 7 880 874 875 878
968 7 880 874 875 879
969 1 882 883 884 885
970 2 882 883 884 890
971 3 883 884 885 886
972 4 883 884 885 888
973 4 883 884 885 889
974 5 884 885 886 887
975 6 888 885 886 887
976 6 889 885 886 887
977 2 890 884 885 886
978 7 890 884 885 888
979 7 890 884 885 889
980 1 892 893 894 895
981 2 892 893 894 900
982 3 893 894 895 896
983 4 893 894 895 898
984 4 893 894 895 899
985 5 894 895 896 897
986 6 898 895 896 897
987 6 899 895 896 897
988 2 900 894 895 896
989 7 900 894 895 898
990 7 900 894 895 899
991 1 902 903 904 905
992 2 902 903 904 910
993 3 903 904 905 906
994 4 903 904 905 908
995 4 903 904 905 909
996 5 904 905 906 907
997 6 908 905 906 907
998 6 909 905 906 907
999 2 910 904 905 906
1000 7 910 904 905 908
1001 7 910 904 905 909
1002 1 912 913 914 915
1003 2 912 913 914 920
1004 3 913 914 915 916
1005 4 913 914 915 918
1006 4 913 914 915 919
1007 5 914 915 916 917
1008 6 918 915 916 917
1009 6 919 915 916 917
1010 2 920 914 915 916
1011 7 920 914 915 918
1012 7 920 914 915 919
1013 1 922 923 924 925
1014 2 922 923 924 930
1015 3 923 924 925 926
1016 4 923 924 925 928
1017 4 923 924 925 929
1018 5 924 925 926 927
1019 6 928 925 926 927
1020 6 929 925 926 927
1021 2 930 924 925 926
1022 7 930 924 925 928
1023 7 930 924 925 929
1024 1 932 933 934 935
1025 2 932 933 934 940
1026 3 933 934 935 936
1027 4 933 934 935 938
1028 4 933 934 935 939
1029 5 934 935 936 937
1030 6 938 935 936 937
1031 6 939 935 936 937
1032 2 940 934 935 936
1033 7 940 934 935 938
1034 7 940 934 935 939
1035 1 942 943 944 945
1036 2 942 943 944 950
1037 3 943 944 945 946
1038 4 943 944 945 948
1039 4 943 944 945 949
1040 5 944 945 946 947
1041 6 948 945 946 947
1042 6 949 945 946 947
1043 2 950 944 945 946
1044 7 950 944 945 948
1045 7 950 944 945 949
1046 1 952 953 954 955
1047 2 952 953 954 960
1048 3 953 954 955 956
1049 4 953 954 955 958
1050 4 953 954 955 959
1051 5 954 955 956 957
1052 6 958 955 956 957
1053 6 959 955 956 957
1054 2 960 954 955 956
1055 7 960 954 955 958
1056 7 960 954 955 959
1057 1 962 963 964 965
1058 2 962 963 964 970
1059 3 963 964 965 966
1060 4 963 964 965 968
1061 4 963 964 965 969
1062 5 964 965 966 967
1063 6 968 965 966 967
1064 6 969 965 966 967
1065 2 970 964 965 966
1066 7 970 964 965 968
1067 7 970 964 965 969
1068 1 972 973 974 975
1069 2 972 973 974 980
1070 3 973 974 975 976
1071 4 973 974 975 978
1072 4 973 974 975 979
1073 5 974 975 976 977
1074 6 978 975 976 977
1075 6 979 975 976 977
1076 2 980 974 975 976
1077 7 980 974 975 978
1078 7 980 974 975 979
1079 1 982 983 984 985
1080 2 982 983 984 990
1081 3 983 984 985 986
1082 4 983 984 985 988
1083 4 983 984 985 989
1084 5 984 985 986 987
1085 6 988 985 986 987
1086 6 989 985 986 987
1087 2 990 984 985 986
1088 7 990 984 985 988
1089 7 990 984 985 989
1090 1 992 993 994 995
1091 2 992 993 994 1000
1092 3 993 994 995 996
1093 4 993 994 995 998
1094 4 993 994 995 999
1095 5 994 995 996 997
1096 6 998 995 996 997
1097 6 999 995 996 997
1098 2 1000 994 995 996
1099 7 1000 994 995 998
1100 7 1000 994 995 999
1101 1 1002 1003 1004 1005
1102 2 1002 1003 1004 1010
1103 3 1003 1004 1005 1006
1104 4 1003 1004 1005 1008
1105 4 1003 1004 1005 1009
1106 5 1004 1005 1006 1007
1107 6 1008 1005 1006 1007
1108 6 1009 1005 1006 1007
1109 2 1010 1004 1005 1006
1110 7 1010 1004 1005 1008
1111 7 1010 1004 1005 1009
1112 1 1012 1013 1014 1015
1113 2 1012 1013 1014 1020
1114 3 1013 1014 1015 1016
1115 4 1013 1014 1015 1018
1116 4 1013 1014 1015 1019
1117 5 1014 1015 1016 1017
1118 6 1018 1015 1016 1017
1119 6 1019 1015 1016 1017
1120 2 1020 1014 1015 1016
1121 7 1020 1014 1015 1018
1122 7 1020 1014 1015 1019
1123 1 1022 1023 1024 1025
1124 2 1022 1023 1024 1030
1125 3 1023 1024 1025 1026
1126 4 1023 1024 1025 1028
1127 4 1023 1024 1025 1029
1128 5 1024 1025 1026 1027
1129 6 1028 1025 1026 1027
1130 6 1029 1025 1026 1027
1131 2 1030 1024 1025 1026
1132 7 1030 1024 1025 1028
1133 7 1030 1024 1025 1029
1134 1 1032 1033 1034 1035
1135 2 1032 1033 1034 1040
1136 3 1033 1034 1035 1036
1137 4 1033 1034 1035 1038
1138 4 1033 1034 1035 1039
1139 5 1034 1035 1036 1037
1140 6 1038 1035 1036 1037
1141 6 1039 1035 1036 1037
1142 2 1040 1034 1035 1036
1143 7 1040 1034 1035 1038
1144 7 1040 1034 1035 1039
1145 1 1042 1043 1044 1045
1146 2 1042 1043 1044 1050
1147 3 1043 1044 1045 1046
1148 4 1043 1044 1045 1048
1149 4 1043 1044 1045 1049
1150 5 1044 1045 1046 1047
1151 6 1048 1045 1046 1047
1152 6 1049 1045 1046 1047
1153 2 1050 1044 1045 1046
1154 7 1050 1044 1045 1048
1155 7 1050 1044 1045 1049
1156 1 1052 1053 1054 1055
1157 2 1052 1053 1054 1060
1158 3 1053 1054 1055 1056
1159 4 1053 1054 1055 1058
1160 4 1053 1054 1055 1059
1161 5 1054 1055 1056 1057
1162 6 1058 1055 1056 1057
1163 6 1059 1055 1056 1057
1164 2 1060 1054 1055 1056
1165 7 1060 1054 1055 1058
1166 7 1060 1054 1055 1059
1167 1 1062 1063 1064 1065
1168 2 1062 1063 1064 1070
1169 3 1063 1064 1065 1066
1170 4 1063 1064 1065 1068
1171 4 1063 1064 1065 1069
1172 5 1064 1065 1066 1067
1173 6 1068 1065 1066 1067
1174 6 1069 1065 1066 1067
1175 2 1070 1064 1065 1066
1176 7 1070 1064 1065 1068
1177 7 1070 1064 1065 1069
1178 1 1072 1073 1074 1075
1179 2 1072 1073 1074 1080
1180 3 1073 1074 1075 1076
1181 4 1073 1074 1075 1078
1182 4 1073 1074 1075 1079
1183 5 1074 1075 1076 1077
1184 6 1078 1075 1076 1077
1185 6 1079 1075 1076 1077
1186 2 1080 1074 1075 1076
1187 7 1080 1074 1075 1078
1188 7 1080 1074 1075 1079
1189 1 1082 1083 1084 1085
1190 2 1082 1083 1084 1090
1191 3 1083 1084 1085 1086
1192 4 1083 1084 1085 1088
1193 4 1083 1084 1085 1089
1194 5 1084 1085 1086 1087
1195 6 1088 1085 1086 1087
1196 6 1089 1085 1086 1087
1197 2 1090 1084 1085 1086
1198 7 1090 1084 1085 1088
1199 7 1090 1084 1085 1089
1200 1 1092 1093 1094 1095
1201 2 1092 1093 1094 1100
1202 3 1093 1094 1095 1096
1203 4 1093 1094 1095 1098
1204 4 1093 1094 1095 1099
1205 5 1094 1095 1096 1097
1206 6 1098 1095 1096 1097
1207 6 1099 1095 1096 1097
1208 2 1100 1094 1095 1096
1209 7 1100 1094 1095 1098
1210 7 1100 1094 1095 1099
1211 1 1102 1103 1104 1105
1212 2 1102 1103 1104 1110
1213 3 1103 1104 1105 1106
1214 4 1103 1104 1105 1108
1215 4 1103 1104 1105 1109
1216 5 1104 1105 1106 1107
1217 6 1108 1105 1106 1107
1218 6 1109 1105 1106 1107
1219 2 1110 1104 1105 1106
1220 7 1110 1104 1105 1108
1221 7 1110 1104 1105 1109
1222 1 1112 1113 1114 1115
1223 2 1112 1113 1114 1120
1224 3 1113 1114 1115 1116
1225 4 1113 1114 1115 1118
1226 4 1113 1114 1115 1119
1227 5 1114 1115 1116 1117
1228 6 1118 1115 1116 1117
1229 6 1119 1115 1116 1117
1230 2 1120 1114 1115 1116
1231 7 1120 1114 1115 1118
1232 7 1120 1114 1115 1119
1233 1 1122 1123 1124 1125
1234 2 1122 1123 1124 1130
1235 3 1123 1124 1125 1126
1236 4 1123 1124 1125 1128
1237 4 1123 1124 1125 1129
1238 5 1124 1125 1126 1127
1239 6 1128 1125 1126 1127
1240 6 1129 1125 1126 1127
1241 2 1130 1124 1125 1126
1242 7 1130 1124 1125 1128
1243 7 1130 1124 1125 1129
1244 1 1132 1133 1134 1135
1245 2 1132 1133 1134 1140
1246 3 1133 1134 1135 1136
1247 4 1133 1134 1135 1138
1248 4 1133 1134 1135 1139
1249 5 1134 1135 1136 1137
1250 6 1138 1135 1136 1137
1251 6 1139 1135 1136 1137
1252 2 1140 1134 1135 1136
1253 7 1140 1134 1135 1138
1254 7 1140 1134 1135 1139
1255 1 1142 1143 1144 1145
1256 2 1142 1143 1144 1150
1257 3 1143 1144 1145 1146
1258 4 1143 1144 1145 1148
1259 4 1143 1144 1145 1149
1260 5 1144 1145 1146 1147
1261 6 1148 1145 1146 1147
1262 6 1149 1145 1146 1147
1263 2 1150 1144 1145 1146
1264 7 1150 1144 1145 1148
1265 7 1150 1144 1145 1149
1266 1 1152 1153 1154 1155
1267 2 1152 1153 1154 1160
1268 3 1153 1154 1155 1156
1269 4 1153 1154 1155 1158
1270 4 1153 1154 1155 1159
1271 5 1154 1155 1156 1157
1272 6 1158 1155 1156 1157
1273 6 1159 1155 1156 1157
1274 2 1160 1154 1155 1156
1275 7 1160 1154 1155 1158
1276 7 1160 1154 1155 1159
1277 1 1162 1163 1164 1165
1278 2 1162 1163 1164 1170
1279 3 1163 1164 1165 1166
1280 4 1163 1164 1165 1168
1281 4 1163 1164 1165 1169
1282 5 1164 1165 1166 1167
1283 6 1168 1165 1166 1167
1284 6 1169 1165 1166 1167
1285 2 1170 1164 1165 1166
1286 7 1170 1164 1165 1168
1287 7 1170 1164 1165 1169
1288 1 1172 1173 1174 1175
1289 2 1172 1173 1174 1180
1290 3 1173 1174 1175 1176
1291 4 1173 1174 1175 1178
1292 4 1173 1174 1175 1179
1293 5 1174 1175 1176 1177
1294 6 1178 1175 1176 1177
1295 6 1179 1175 1176 1177
1296 2 1180 1174 1175 1176
1297 7 1180 1174 1175 1178
1298 7 1180 1174 1175 1179
1299 1 1182 1183 1184 1185
1300 2 1182 1183 1184 1190
1301 3 1183 1184 1185 1186
1302 4 1183 1184 1185 1188
1303 4 1183 1184 1185 1189
1304 5 1184 1185 1186 1187
1305 6 1188 1185 1186 1187
1306 6 1189 1185 1186 1187
1307 2 1190 1184 1185 1186
1308 7 1190 1184 1185 1188
1309 7 1190 1184 1185 1189
1310 1 1192 1193 1194 1195
1311 2 1192 1193 1194 1200
1312 3 1193 1194 1195 1196
1313 4 1193 1194 1195 1198
1314 4 1193 1194 1195 1199
1315 5 1194 1195 1196 1197
1316 6 1198 1195 1196 1197
1317 6 1199 1195 1196 1197
1318 2 1200 1194 1195 1196
1319 7 1200 1194 1195 1198
1320 7 1200 1194 1195 1199
1321 1 1202 1203 1204 1205
1322 2 1202 1203 1204 1210
1323 3 1203 1204 1205 1206
1324 4 1203 1204 1205 1208
1325 4 1203 1204 1205 1209
1326 5 1204 1205 1206 1207
1327 6 1208 1205 1206 1207
1328 6 1209 1205 1206 1207
1329 2 1210 1204 1205 1206
1330 7 1210 1204 1205 1208
1331 7 1210 1204 1205 1209
1332 1 1212 1213 1214 1215
1333 2 1212 1213 1214 1220
1334 3 1213 1214 1215 1216
1335 4 1213 1214 1215 1218
1336 4 1213 1214 1215 1219
1337 5 1214 1215 1216 1217
1338 6 1218 1215 1216 1217
1339 6 1219 1215 1216 1217
1340 2 1220 1214 1215 1216
1341 7 1220 1214 1215 1218
1342 7 1220 1214 1215 1219
1343 1 1222 1223 1224 1225
1344 2 1222 1223 1224 1230
1345 3 1223 1224 1225 1226
1346 4 1223 1224 1225 1228
1347 4 1223 1224 1225 1229
1348 5 1224 1225 1226 1227
1349 6 1228 1225 1226 1227
1350 6 1229 1225 1226 1227
1351 2 1230 1224 1225 1226
1352 7 1230 1224 1225 1228
1353 7 1230 1224 1225 1229
1354 1 1232 1233 1234 1235
1355 2 1232 1233 1234 1240
1356 3 1233 1234 1235 1236
1357 4 1233 1234 1235 1238
1358 4 1233 1234 1235 1239
1359 5 1234 1235 1236 1237
1360 6 1238 1235 1236 1237
1361 6 1239 1235 1236 1237
1362 2 1240 1234 1235 1236
1363 7 1240 1234 1235 1238
1364 7 1240 1234 1235 1239
1365 1 1242 1243 1244 1245
1366 2 1242 1243 1244 1250
1367 3 1243 1244 1245 1246
1368 4 1243 1244 1245 1248
1369 4 1243 1244 1245 1249
1370 5 1244 1245 1246 1247
1371 6 1248 1245 1246 1247
1372 6 1249 1245 1246 1247
1373 2 1250 1244 1245 1246
1374 7 1250 1244 1245 1248
1375 7 1250 1244 1245 1249
1376 1 1252 1253 1254 1255
1377 2 1252 1253 1254 1260
1378 3 1253 1254 1255 1256
1379 4 1253 1254 1255 1258
1380 4 1253 1254 1255 1259
1381 5 1254 1255 1256 1257
1382 6 1258 1255 1256 1257
1383 6 1259 1255 1256 1257
1384 2 1260 1254 1255 1256
1385 7 1260 1254 1255 1258
1386 7 1260 1254 1255 1259
1387 1 1262 1263 1264 1265
1388 2 1262 1263 1264 1270
1389 3 1263 1264 1265 1266
1390 4 1263 1264 1265 1268
1391 4 1263 1264 1265 1269
1392 5 1264 1265 1266 1267
1393 6 1268 1265 1266 1267
1394 6 1269 1265 1266 1267
1395 2 1270 1264 1265 1266
1396 7 1270 1264 1265 1268
1397 7 1270 1264 1265 1269
1398 1 1272 1273 1274 1275
1399 2 1272 1273 1274 1280
1400 3 1273 1274 1275 1276
1401 4 1273 1274 1275 1278
1402 4 1273 1274 1275 1279
1403 5 1274 1275 1276 1277
1404 6 1278 1275 1276 1277
1405 6 1279 1275 1276 1277
1406 2 1280 1274 1275 1276
1407 7 1280 1274 1275 1278
1408 7 1280 1274 1275 1279
1409 1 1282 1283 1284 1285
1410 2 1282 1283 1284 1290
1411 3 1283 1284 1285 1286
1412 4 1283 1284 1285 1288
1413 4 1283 1284 1285 1289
1414 5 1284 1285 1286 1287
1415 6 1288 1285 1286 1287
1416 6 1289 1285 1286 1287
1417 2 1290 1284 1285 1286
1418 7 1290 1284 1285 1288
1419 7 1290 1284 1285 1289
1420 1 1292 1293 1294 1295
1421 2 1292 1293 1294 1300
1422 3 1293 1294 1295 1296
1423 4 1293 1294 1295 1298
1424 4 1293 1294 1295 1299
1425 5 1294 1295 1296 1297
1426 6 1298 1295 1296 1297
1427 6 1299 1295 1296 1297
1428 2 1300 1294 1295 1296
1429 7 1300 1294 1295 1298
1430 7 1300 1294 1295 1299
1431 1 1302 1303 1304 1305
1432 2 1302 1303 1304 1310
1433 3 1303 1304 1305 1306
1434 4 1303 1304 1305 1308
1435 4 1303 1304 1305 1309
1436 5 1304 1305 1306 1307
1437 6 1308 1305 1306 1307
1438 6 1309 1305 1306 1307
1439 2 1310 1304 1305 1306
1440 7 1310 1304 1305 1308
1441 7 1310 1304 1305 1309
1442 1 1312 1313 1314 1315
1443 2 1312 1313 1314 1320
1444 3 1313 1314 1315 1316
1445 4 1313 1314 1315 1318
1446 4 1313 1314 1315 1319
1447 5 1314 1315 1316 1317
1448 6 1318 1315 1316 1317
1449 6 1319 1315 1316 1317
1450 2 1320 1314 1315 1316
1451 7 1320 1314 1315 1318
1452 7 1320 1314 1315 1319
1453 1 1322 1323 1324 1325
1454 2 1322 1323 1324 1330
1455 3 1323 1324 1325 1326
1456 4 1323 1324 1325 1328
1457 4 1323 1324 1325 1329
1458 5 1324 1325 1326 1327
1459 6 1328 1325 1326 1327
1460 6 1329 1325 1326 1327
1461 2 1330 1324 1325 1326
1462 7 1330 1324 1325 1328
1463 7 1330 1324 1325 1329
1464 1 1332 1333 1334 1335
1465 2 1332 1333 1334 1340
1466 3 1333 1334 1335 1336
1467 4 1333 1334 1335 1338
1468 4 1333 1334 1335 1339
1469 5 1334 1335 1336 1337
1470 6 1338 1335 1336 1337
1471 6 1339 1335 1336 1337
1472 2 1340 1334 1335 1336
1473 7 1340 1334 1335 1338
1474 7 1340 1334 1335 1339
1475 1 1342 1343 1344 1345
1476 2 1342 1343 1344 1350
1477 3 1343 1344 1345 1346
1478 4 1343 1344 1345 1348
1479 4 1343 1344 1345 1349
1480 5 1344 1345 1346 1347
1481 6 1348 1345 1346 1347
1482 6 1349 1345 1346 1347
1483 2 1350 1344 1345 1346
1484 7 1350 1344 1345 1348
1485 7 1350 1344 1345 1349
1486 1 1352 1353 1354 1355
1487 2 1352 1353 1354 1360
1488 3 1353 1354 1355 1356
1489 4 1353 1354 1355 1358
1490 4 1353 1354 1355 1359
1491 5 1354 1355 1356 1357
1492 6 1358 1355 1356 1357
1493 6 1359 1355 1356 1357
1494 2 1360 1354 1355 1356
1495 7 1360 1354 1355 1358
1496 7 1360 1354 1355 1359
1497 1 1362 1363 1364 1365
1498 2 1362 1363 1364 1370
1499 3 1363 1364 1365 1366
1500 4 1363 1364 1365 1368
1501 4 1363 1364 1365 1369
1502 5 1364 1365 1366 1367
1503 6 1368 1365 1366 1367
1504 6 1369 1365 1366 1367
1505 2 1370 1364 1365 1366
1506 7 1370 1364 1365 1368
1507 7 1370 1364 1365 1369
1508 1 1372 1373 1374 1375
1509 2 1372 1373 1374 1380
1510 3 1373 1374 1375 1376
1511 4 1373 1374 1375 1378
1512 4 1373 1374 1375 1379
1513 5 1374 1375 1376 1377
1514 6 1378 1375 1376 1377
1515 6 1379 1375 1376 1377
1516 2 1380 1374 1375 1376
1517 7 1380 1374 1375 1378
1518 7 1380 1374 1375 1379
1519 1 1382 1383 1384 1385
1520 2 1382 1383 1384 1390
1521 3 1383 1384 1385 1386
1522 4 1383 1384 1385 1388
1523 4 1383 1384 1385 1389
1524 5 1384 1385 1386 1387
1525 6 1388 1385 1386 1387
1526 6 1389 1385 1386 1387
1527 2 1390 1384 1385 1386
1528 7 1390 1384 1385 1388
1529 7 1390 1384 1385 1389
1530 1 1392 1393 1394 1395
1531 2 1392 1393 1394 1400
1532 3 1393 1394 1395 1396
1533 4 1393 1394 1395 1398
1534 4 1393 1394 1395 1399
1535 5 1394 1395 1396 1397
1536 6 1398 1395 1396 1397
1537 6 1399 1395 1396 1397
1538 2 1400 1394 1395 1396
1539 7 1400 1394 1395 1398
1540 7 1400 1394 1395 1399
1541 1 1402 1403 1404 1405
1542 2 1402 1403 1404 1410
1543 3 1403 1404 1405 1406
1544 4 1403 1404 1405 1408
1545 4 1403 1404 1405 1409
1546 5 1404 1405 1406 1407
1547 6 1408 1405 1406 1407
1548 6 1409 1405 1406 1407
1549 2 1410 1404 1405 1406
1550 7 1410 1404 1405 1408
1551 7 1410 1404 1405 1409
1552 1 1412 1413 1414 1415
1553 2 1412 1413 1414 1420
1554 3 1413 1414 1415 1416
1555 4 1413 1414 1415 1418
1556 4 1413 1414 1415 1419
1557 5 1414 1415 1416 1417
1558 6 1418 1415 1416 1417
1559 6 1419 1415 1416 1417
1560 2 1420 1414 1415 1416
1561 7 1420 1414 1415 1418
1562 7 1420 1414 1415 1419
1563 1 1422 1423 1424 1425
1564 2 1422 1423 1424 1430
1565 3 1423 1424 1425 1426
1566 4 1423 1424 1425 1428
1567 4 1423 1424 1425 1429
1568 5 1424 1425 1426 1427
1569 6 1428 1425 1426 1427
1570 6 1429 1425 1426 1427
1571 2 1430 1424 1425 1426
1572 7 1430 1424 1425 1428
1573 7 1430 1424 1425 1429
1574 1 1432 1433 1434 1435
1575 2 1432 1433 1434 1440
1576 3 1433 1434 1435 1436
1577 4 1433 1434 1435 1438
1578 4 1433 1434 1435 1439
1579 5 1434 1435 1436 1437
1580 6 1438 1435 1436 1437
1581 6 1439 1435 1436 1437
1582 2 1440 1434 1435 1436
1583 7 1440 1434 1435 1438
1584 7 1440 1434 1435 1439
1585 1 1442 1443 1444 1445
1586 2 1442 1443 1444 1450
1587 3 1443 1444 1445 1446
1588 4 1443 1444 1445 1448
1589 4 1443 1444 1445 1449
1590 5 1444 1445 1446 1447
1591 6 1448 1445 1446 1447
1592 6 1449 1445 1446 1447
1593 2 1450 1444 1445 1446
1594 7 1450 1444 1445 1448
1595 7 1450 1444 1445 1449
1596 1 1452 1453 1454 1455
1597 2 1452 1453 1454 1460
1598 3 1453 1454 1455 1456
1599 4 1453 1454 1455 1458
1600 4 1453 1454 1455 1459
1601 5 1454 1455 1456 1457
1602 6 1458 1455 1456 1457
1603 6 1459 1455 1456 1457
1604 2 1460 1454 1455 1456
1605 7 1460 1454 1455 1458
1606 7 1460 1454 1455 1459
1607 1 1462 1463 1464 1465
1608 2 1462 1463 1464 1470
1609 3 1463 1464 1465 1466
1610 4 1463 1464 1465 1468
1611 4 1463 1464 1465 1469
1612 5 1464 1465 1466 1467
1613 6 1468 1465 1466 1467
1614 6 1469 1465 1466 1467
1615 2 1470 1464 1465 1466
1616 7 1470 1464 1465 1468
1617 7 1470 1464 1465 1469
1618 1 1472 1473 1474 1475
1619 2 1472 1473 1474 1480
1620 3 1473 1474 1475 1476
1621 4 1473 1474 1475 1478
1622 4 1473 1474 1475 1479
1623 5 1474 1475 1476 1477
1624 6 1478 1475 1476 1477
1625 6 1479 1475 1476 1477
1626 2 1480 1474 1475 1476
1627 7 1480 1474 1475 1478
1628 7 1480 1474 1475 1479
1629 1 1482 1483 1484 1485
1630 2 1482 1483 1484 1490
1631 3 1483 1484 1485 1486
1632 4 1483 1484 1485 1488
1633 4 1483 1484 1485 1489
1634 5 1484 1485 1486 1487
1635 6 1488 1485 1486 1487
1636 6 1489 1485 1486 1487
1637 2 1490 1484 1485 1486
1638 7 1490 1484 1485 1488
1639 7 1490 1484 1485 1489
1640 1 1492 1493 1494 1495
1641 2 1492 1493 1494 1500
1642 3 1493 1494 1495 1496
1643 4 1493 1494 1495 1498
1644 4 1493 1494 1495 1499
1645 5 1494 1495 1496 1497
1646 6 1498 1495 1496 1497
1647 6 1499 1495 1496 1497
1648 2 1500 1494 1495 1496
1649 7 1500 1494 1495 1498
1650 7 1500 1494 1495 1499
1651 8 2 3 12 13
1652 9 2 23 24 25
1653 10 2 23 24 30
1654 8 3 2 23 22
1655 9 3 2 23 24
1656 9 3 12 13 14
1657 8 3 12 13 22
1658 9 4 3 12 13
1659 9 12 3 4 5
1660 10 12 3 4 10
1661 8 12 13 22 23
1662 8 13 22 23 2
1663 9 13 22 23 24
1664 9 14 13 22 23
1665 9 22 13 14 15
1666 10 22 13 14 20
1667 9 23 2 3 4
1668 8 23 2 3 12
1669 8 32 33 42 43
1670 9 32 53 54 55
1671 10 32 53 54 60
1672 8 33 32 53 52
1673 9 33 32 53 54
1674 9 33 42 43 44
1675 8 33 42 43 52
1676 9 34 33 42 43
1677 9 42 33 34 35
1678 10 42 33 34 40
1679 8 42 43 52 53
1680 8 43 52 53 32
1681 9 43 52 53 54
1682 9 44 43 52 53
1683 9 52 43 44 45
1684 10 52 43 44 50
1685 9 53 32 33 34
1686 8 53 32 33 42
1687 8 62 63 72 73
1688 9 62 83 84 85
1689 10 62 83 84 90
1690 8 63 62 83 82
1691 9 63 62 83 84
1692 9 63 72 73 74
1693 8 63 72 73 82
1694 9 64 63 72 73
1695 9 72 63 64 65
1696 10 72 63 64 70
1697 8 72 73 82 83
1698 8 73 82 83 62
1699 9 73 82 83 84
1700 9 74 73 82 83
1701 9 82 73 74 75
1702 10 82 73 74 80
1703 9 83 62 63 64
1704 8 83 62 63 72
1705 8 92 93 102 103
1706 9 92 113 114 115
1707 10 92 113 114 120
1708 8 93 92 113 112
1709 9 93 92 113 114
1710 9 93 102 103 104
1711 8 93 102 103 112
1712 9 94 93 102 103
1713 9 102 93 94 95
1714 10 102 93 94 100
1715 8 102 103 112 113
1716 8 103 112 113 92
1717 9 103 112 113 114
1718 9 104 103 112 113
1719 9 112 103 104 105
1720 10 112 103 104 110
1721 9 113 92 93 94
1722 8 113 92 93 102
1723 8 122 123 132 133
1724 9 122 143 144 145
1725 10 122 143 144 150
1726 8 123 122 143 142
1727 9 123 122 143 144
1728 9 123 132 133 134
1729 8 123 132 133 142
1730 9 124 123 132 133
1731 9 132 123 124 125
1732 10 132 123 124 130
1733 8 132 133 142 143
1734 8 133 142 143 122
1735 9 133 142 143 144
1736 9 134 133 142 143
1737 9 142 133 134 135
1738 10 142 133 134 140
1739 9 143 122 123 124
1740 8 143 122 123 132
1741 8 152 153 162 163
1742 9 152 173 174 175
1743 10 152 173 174 180
1744 8 153 152 173 172
1745 9 153 152 173 174
1746 9 153 162 163 164
1747 8 153 162 163 172
1748 9 154 153 162 163
1749 9 162 153 154 155
1750 10 162 153 154 160
1751 8 162 163 172 173
1752 8 163 172 173 152
1753 9 163 172 173 174
1754 9 164 163 172 173
1755 9 172 163 164 165
1756 10 172 163 164 170
1757 9 173 152 153 154
1758 8 173 152 153 162
1759 8 182 183 192 193
1760 9 182 203 204 205
1761 10 182 203 204 210
1762 8 183 182 203 202
1763 9 183 182 203 204
1764 9 183 192 193 194
1765 8 183 192 193 202
1766 9 184 183 192 193
1767 9 192 183 184 185
1768 10 192 183 184 190
1769 8 192 193 202 203
1770 8 193 202 203 182
1771 9 193 202 203 204
1772 9 194 193 202 203
1773 9 202 193 194 195
1774 10 202 193 194 200
1775 9 203 182 183 184
1776 8 203 182 183 192
1777 8 212 213 222 223
1778 9 212 233 234 235
1779 10 212 233 234 240
1780 8 213 212 233 232
1781 9 213 212 233 234
1782 9 213 222 223 224
1783 8 213 222 223 232
1784 9 214 213 222 223
1785 9 222 213 214 215
1786 10 222 213 214 220
1787 8 222 223 232 233
1788 8 223 232 233 212
1789 9 223 232 233 234
1790 9 224 223 232 233
1791 9 232 223 224 225
1792 10 232 223 224 230
1793 9 233 212 213 214
1794 8 233 212 213 222
1795 8 242 243 252 253
1796 9 242 263 264 265
1797 10 242 263 264 270
1798 8 243 242 263 262
1799 9 243 242 263 264
1800 9 243 252 253 254
1801 8 243 252 253 262
1802 9 244 243 252 253
1803 9 252 243 244 245
1804 10 252 243 244 250
1805 8 252 253 262 263
1806 8 253 262 263 242
1807 9 253 262 263 264
1808 9 254 253 262 263
1809 9 262 253 254 255
1810 10 262 253 254 260
1811 9 263 242 243 244
1812 8 263 242 243 252
1813 8 272 273 282 283
1814 9 272 293 294 295
1815 10 272 293 294 300
1816 8 273 272 293 292
1817 9 273 272 293 294
1818 9 273 282 283 284
1819 8 273 282 283 292
1820 9 274 273 282 283
1821 9 282 273 274 275
1822 10 282 273 274 280
1823 8 282 283 292 293
1824 8 283 292 293 272
1825 9 283 292 293 294
1826 9 284 283 292 293
1827 9 292 283 284 285
1828 10 292 283 284 290
1829 9 293 272 273 274
1830 8 293 272 273 282
1831 8 302 303 312 313
1832 9 302 323 324 325
1833 10 302 323 324 330
1834 8 303 302 323 322
1835 9 303 302 323 324
1836 9 303 312 313 314
1837 8 303 312 313 322
1838 9 304 303 312 313
1839 9 312 303 304 305
1840 10 312 303 304 310
1841 8 312 313 322 323
1842 8 313 322 323 302
1843 9 313 322 323 324
1844 9 314 313 322 323
1845 9 322 313 314 315
1846 10 322 313 314 320
1847 9 323 302 303 304
1848 8 323 302 303 312
1849 8 332 333 342 343
1850 9 332 353 354 355
1851 10 332 353 354 360
1852 8 333 332 353 352
1853 9 333 332 353 354
1854 9 333 342 343 344
1855 8 333 342 343 352
1856 9 334 333 342 343
1857 9 342 333 334 335
1858 10 342 333 334 340
1859 8 342 343 352 353
1860 8 343 352 353 332
1861 9 343 352 353 354
1862 9 344 343 352 353
1863 9 352 343 344 345
1864 10 352 343 344 350
1865 9 353 332 333 334
1866 8 353 332 333 342
1867 8 362 363 372 373
1868 9 362 383 384 385
1869 10 362 383 384 390
1870 8 363 362 383 382
1871 9 363 362 383 384
1872 9 363 372 373 374
1873 8 363 372 373 382
1874 9 364 363 372 373
1875 9 372 363 364 365
1876 10 372 363 364 370
1877 8 372 373 382 383
1878 8 373 382 383 362
1879 9 373 382 383 384
1880 9 374 373 382 383
1881 9 382 373 374 375
1882 10 382 373 374 380
1883 9 383 362 363 364
1884 8 383 362 363 372
1885 8 392 393 402 403
1886 9 392 413 414 415
1887 10 392 413 414 420
1888 8 393 392 413 412
1889 9 393 392 413 414
1890 9 393 402 403 404
1891 8 393 402 403 412
1892 9 394 393 402 403
1893 9 402 393 394 395
1894 10 402 393 394 400
1895 8 402 403 412 413
1896 8 403 412 413 392
1897 9 403 412 413 414
1898 9 404 403 412 413
1899 9 412 403 404 405
1900 10 412 403 404 410
1901 9 413 392 393 394
1902 8 413 392 393 402
1903 8 422 423 432 433
1904 9 422 443 444 445
1905 10 422 443 444 450
1906 8 423 422 443 442
1907 9 423 422 443 444
1908 9 423 432 433 434
1909 8 423 432 433 442
1910 9 424 423 432 433
1911 9 432 423 424 425
1912 10 432 423 424 430
1913 8 432 433 442 443
1914 8 433 442 443 422
1915 9 433 442 443 444
1916 9 434 433 442 443
1917 9 442 433 434 435
1918 10 442 433 434 440
1919 9 443 422 423 424
1920 8 443 422 423 432
1921 8 452 453 462 463
1922 9 452 473 474 475
1923 10 452 473 474 480
1924 8 453 452 473 472
1925 9 453 452 473 474
1926 9 453 462 463 464
1927 8 453 462 463 472
1928 9 454 453 462 463
1929 9 462 453 454 455
1930 10 462 453 454 460
1931 8 462 463 472 473
1932 8 463 472 473 452
1933 9 463 472 473 474
1934 9 464 463 472 473
1935 9 472 463 464 465
1936 10 472 463 464 470
1937 9 473 452 453 454
1938 8 473 452 453 462
1939 8 482 483 492 493
1940 9 482 503 504 505
1941 10 482 503 504 510
1942 8 483 482 503 502
1943 9 483 482 503 504
1944 9 483 492 493 494
1945 8 483 492 493 502
1946 9 484 483 492 493
1947 9 492 483 484 485
1948 10 492 483 484 490
1949 8 492 493 502 503
1950 8 493 502 503 482
1951 9 493 502 503 504
1952 9 494 493 502 503
1953 9 502 493 494 495
1954 10 502 493 494 500
1955 9 503 482 483 484
1956 8 503 482 483 492
1957 8 512 513 522 523
1958 9 512 533 534 535
1959 10 512 533 534 540
1960 8 513 512 533 532
1961 9 513 512 533 534
1962 9 513 522 523 524
1963 8 513 522 523 532
1964 9 514 513 522 523
1965 9 522 513 514 515
1966 10 522 513 514 520
1967 8 522 523 532 533
1968 8 523 532 533 512
1969 9 523 532 533 534
1970 9 524 523 532 533
1971 9 532 523 524 525
1972 10 532 523 524 530
1973 9 533 512 513 514
1974 8 533 512 513 522
1975 8 542 543 552 553
1976 9 542 563 564 565
1977 10 542 563 564 570
1978 8 543 542 563 562
1979 9 543 542 563 564
1980 9 543 552 553 554
1981 8 543 552 553 562
1982 9 544 543 552 553
1983 9 552 543 544 545
1984 10 552 543 544 550
1985 8 552 553 562 563
1986 8 553 562 563 542
1987 9 553 562 563 564
1988 9 554 553 562 563
1989 9 562 553 554 555
1990 10 562 553 554 560
1991 9 563 542 543 544
1992 8 563 542 543 552
1993 8 572 573 582 583
1994 9 572 593 594 595
1995 10 572 593 594 600
1996 8 573 572 593 592
1997 9 573 572 593 594
1998 9 573 582 583 584
1999 8 573 582 583 592
2000 9 574 573 582 583
2001 9 582 573 574 575
2002 10 582 573 574 580
2003 8 582 583 592 593
2004 8 583 592 593 572
2005 9 583 592 593 594
2006 9 584 583 592 593
2007 9 592 583 584 585
2008 10 592 583 584 590
2009 9 593 572 573 574
2010 8 593 572 573 582
2011 8 602 603 612 613
2012 9 602 623 624 625
2013 10 602 623 624 630
2014 8 603 602 623 622
2015 9 603 602 623 624
2016 9 603 612 613 614
2017 8 603 612 613 622
2018 9 604 603 612 613
2019 9 612 603 604 605
2020 10 612 603 604 610
2021 8 612 613 622 623
2022 8 613 622 623 602
2023 9 613 622 623 624
2024 9 614 613 622 623
2025 9 622 613 614 615
2026 10 622 613 614 620
2027 9 623 602 603 604
2028 8 623 602 603 612
2029 8 632 633 642 643
2030 9 632 653 654 655
2031 10 632 653 654 660
2032 8 633 632 653 652
2033 9 633 632 653 654
2034 9 633 642 643 644
2035 8 633 642 643 652
2036 9 634 633 642 643
2037 9 642 633 634 635
2038 10 642 633 634 640
2039 8 642 643 652 653
2040 8 643 652 653 632
2041 9 643 652 653 654
2042 9 644 643 652 653
2043 9 652 643 644 645
2044 10 652 643 644 650
2045 9 653 632 633 634
2046 8 653 632 633 642
2047 8 662 663 672 673
2048 9 662 683 684 685
2049 10 662 683 684 690
2050 8 663 662 683 682
2051 9 663 662 683 684
2052 9 663 672 673 674
2053 8 663 672 673 682
2054 9 664 663 672 673
2055 9 672 663 664 665
2056 10 672 663 664 670
2057 8 672 673 682 683
2058 8 673 682 683 662
2059 9 673 682 683 684
2060 9 674 673 682 683
2061 9 682 673 674 675
2062 10 682 673 674 680
2063 9 683 662 663 664
2064 8 683 662 663 672
2065 8 692 693 702 703
2066 9 692 713 714 715
2067 10 692 713 714 720
2068 8 693 692 713 712
2069 9 693 692 713 714
2070 9 693 702 703 704
2071 8 693 702 703 712
2072 9 694 693 702 703
2073 9 702 693 694 695
2074 10 702 693 694 700
2075 8 702 703 712 713
2076 8 703 712 713 692
2077 9 703 712 713 714
2078 9 704 703 712 713
2079 9 712 703 704 705
2080 10 712 703 704 710
2081 9 713 692 693 694
2082 8 713 692 693 702
2083 8 722 723 732 733
2084 9 722 743 744 745
2085 10 722 743 744 750
2086 8 723 722 743 742
2087 9 723 722 743 744
2088 9 723 732 733 734
2089 8 723 732 733 742
2090 9 724 723 732 733
2091 9 732 723 724 725
2092 10 732 723 724 730
2093 8 732 733 742 743
2094 8 733 742 743 722
2095 9 733 742 743 744
2096 9 734 733 742 743
2097 9 742 733 734 735
2098 10 742 733 734 740
2099 9 743 722 723 724
2100 8 743 722 723 732
2101 8 752 753 762 763
2102 9 752 773 774 775
2103 10 752 773 774 780
2104 8 753 752 773 772
2105 9 753 752 773 774
2106 9 753 762 763 764
2107 8 753 762 763 772
2108 9 754 753 762 763
2109 9 762 753 754 755
2110 10 762 753 754 760
2111 8 762 763 772 773
2112 8 763 772 773 752
2113 9 763 772 773 774
2114 9 764 763 772 773
2115 9 772 763 764 765
2116 10 772 763 764 770
2117 9 773 752 753 754
2118 8 773 752 753 762
2119 8 782 783 792 793
2120 9 782 803 804 805
2121 10 782 803 804 810
2122 8 783 782 803 802
2123 9 783 782 803 804
2124 9 783 792 793 794
2125 8 783 792 793 802
2126 9 784 783 792 793
2127 9 792 783 784 785
2128 10 792 783 784 790
2129 8 792 793 802 803
2130 8 793 802 803 782
2131 9 793 802 803 804
2132 9 794 793 802 803
2133 9 802 793 794 795
2134 10 802 793 794 800
2135 9 803 782 783 784
2136 8 803 782 783 792
2137 8 812 813 822 823
2138 9 812 833 834 835
2139 10 812 833 834 840
2140 8 813 812 833 832
2141 9 813 812 833 834
2142 9 813 822 823 824
2143 8 813 822 823 832
2144 9 814 813 822 823
2145 9 822 813 814 815
2146 10 822 813 814 820
2147 8 822 823 832 833
2148 8 823 832 833 812
2149 9 823 832 833 834
2150 9 824 823 832 833
2151 9 832 823 824 825
2152 10 832 823 824 830
2153 9 833 812 813 814
2154 8 833 812 813 822
2155 8 842 843 852 853
2156 9 842 863 864 865
2157 10 842 863 864 870
2158 8 843 842 863 862
2159 9 843 842 863 864
2160 9 843 852 853 854
2161 8 843 852 853 862
2162 9 844 843 852 853
2163 9 852 843 844 845
2164 10 852 843 844 850
2165 8 852 853 862 863
2166 8 853 862 863 842
2167 9 853 862 863 864
2168 9 854 853 862 863
2169 9 862 853 854 855
2170 10 862 853 854 860
2171 9 863 842 843 844
2172 8 863 842 843 852
2173 8 872 873 882 883
2174 9 872 893 894 895
2175 10 872 893 894 900
2176 8 873 872 893 892
2177 9 873 872 893 894
2178 9 873 882 883 884
2179 8 873 882 883 892
2180 9 874 873 882 883
2181 9 882 873 874 875
2182 10 882 873 874 880
2183 8 882 883 892 893
2184 8 883 892 893 872
2185 9 883 892 893 894
2186 9 884 883 892 893
2187 9 892 883 884 885
2188 10 892 883 884 890
2189 9 893 872 873 874
2190 8 893 872 873 882
2191 8 902 903 912 913
2192 9 902 923 924 925
2193 10 902 923 924 930
2194 8 903 902 923 922
2195 9 903 902 923 924
2196 9 903 912 913 914
2197 8 903 912 913 922
2198 9 904 903 912 913
2199 9 912 903 904 905
2200 10 912 903 904 910
2201 8 912 913 922 923
2202 8 913 922 923 902
2203 9 913 922 923 924
2204 9 914 913 922 923
2205 9 922 913 914 915
2206 10 922 913 914 920
2207 9 923 902 903 904
2208 8 923 902 903 912
2209 8 932 933 942 943
2210 9 932 953 954 955
2211 10 932 953 954 960
2212 8 933 932 953 952
2213 9 933 932 953 954
2214 9 933 942 943 944
2215 8 933 942 943 952
2216 9 934 933 942 943
2217 9 942 933 934 935
2218 10 942 933 934 940
2219 8 942 943 952 953
2220 8 943 952 953 932
2221 9 943 952 953 954
2222 9 944 943 952 953
2223 9 952 943 944 945
2224 10 952 943 944 950
2225 9 953 932 933 934
2226 8 953 932 933 942
2227 8 962 963 972 973
2228 9 962 983 984 985
2229 10 962 983 984 990
2230 8 963 962 983 982
2231 9 963 962 983 984
2232 9 963 972 973 974
2233 8 963 972 973 982
2234 9 964 963 972 973
2235 9 972 963 964 965
2236 10 972 963 964 970
2237 8 972 973 982 983
2238 8 973 982 983 962
2239 9 973 982 983 984
2240 9 974 973 982 983
2241 9 982 973 974 975
2242 10 982 973 974 980
2243 9 983 962 963 964
2244 8 983 962 963 972
2245 8 992 993 1002 1003
2246 9 992 1013 1014 1015
2247 10 992 1013 1014 1020
2248 8 993 992 1013 1012
2249 9 993 992 1013 1014
2250 9 993 1002 1003 1004
2251 8 993 1002 1003 1012
2252 9 994 993 1002 1003
2253 9 1002 993 994 995
2254 10 1002 993 994 1000
2255 8 1002 1003 1012 1013
2256 8 1003 1012 1013 992
2257 9 1003 1012 1013 1014
2258 9 1004 1003 1012 1013
2259 9 1012 1003 1004 1005
2260 10 1012 1003 1004 1010
2261 9 1013 992 993 994
2262 8 1013 992 993 1002
2263 8 1022 1023 1032 1033
2264 9 1022 1043 1044 1045
2265 10 1022 1043 1044 1050
2266 8 1023 1022 1043 1042
2267 9 1023 1022 1043 1044
2268 9 1023 1032 1033 1034
2269 8 1023 1032 1033 1042
2270 9 1024 1023 1032 1033
2271 9 1032 1023 1024 1025
2272 10 1032 1023 1024 1030
2273 8 1032 1033 1042 1043
2274 8 1033 1042 1043 1022
2275 9 1033 1042 1043 1044
2276 9 1034 1033 1042 1043
2277 9 1042 1033 1034 1035
2278 10 1042 1033 1034 1040
2279 9 1043 1022 1023 1024
2280 8 1043 1022 1023 1032
2281 8 1052 1053 1062 1063
2282 9 1052 1073 1074 1075
2283 10 1052 1073 1074 1080
2284 8 1053 1052 1073 1072
2285 9 1053 1052 1073 1074
2286 9 1053 1062 1063 1064
2287 8 1053 1062 1063 1072
2288 9 1054 1053 1062 1063
2289 9 1062 1053 1054 1055
2290 10 1062 1053 1054 1060
2291 8 1062 1063 1072 1073
2292 8 1063 1072 1073 1052
2293 9 1063 1072 1073 1074
2294 9 1064 1063 1072 1073
2295 9 1072 1063 1064 1065
2296 10 1072 1063 1064 1070
2297 9 1073 1052 1053 1054
2298 8 1073 1052 1053 1062
2299 8 1082 1083 1092 1093
2300 9 1082 1103 1104 1105
2301 10 1082 1103 1104 1110
2302 8 1083 1082 1103 1102
2303 9 1083 1082 1103 1104
2304 9 1083 1092 1093 1094
2305 8 1083 1092 1093 1102
2306 9 1084 1083 1092 1093
2307 9 1092 1083 1084 1085
2308 10 1092 1083 1084 1090
2309 8 1092 1093 1102 1103
2310 8 1093 1102 1103 1082
2311 9 1093 1102 1103 1104
2312 9 1094 1093 1102 1103
2313 9 1102 1093 1094 1095
2314 10 1102 1093 1094 1100
2315 9 1103 1082 1083 1084
2316 8 1103 1082 1083 1092
2317 8 1112 1113 1122 1123
2318 9 1112 1133 1134 1135
2319 10 1112 1133 1134 1140
2320 8 1113 1112 1133 1132
2321 9 1113 1112 1133 1134
2322 9 1113 1122 1123 1124
2323 8 1113 1122 1123 1132
2324 9 1114 1113 1122 1123
2325 9 1122 1113 1114 1115
2326 10 1122 1113 1114 1120
2327 8 1122 1123 1132 1133
2328 8 1123 1132 1133 1112
2329 9 1123 1132 1133 1134
2330 9 1124 1123 1132 1133
2331 9 1132 1123 1124 1125
2332 10 1132 1123 1124 1130
2333 9 1133 1112 1113 1114
2334 8 1133 1112 1113 1122
2335 8 1142 1143 1152 1153
2336 9 1142 1163 1164 1165
2337 10 1142 1163 1164 1170
2338 8 1143 1142 1163 1162
2339 9 1143 1142 1163 1164
2340 9 1143 1152 1153 1154
2341 8 1143 1152 1153 1162
2342 9 1144 1143 1152 1153
2343 9 1152 1143 1144 1145
2344 10 1152 1143 1144 1150
2345 8 1152 1153 1162 1163
2346 8 1153 1162 1163 1142
2347 9 1153 1162 1163 1164
2348 9 1154 1153 1162 1163
2349 9 1162 1153 1154 1155
2350 10 1162 1153 1154 1160
2351 9 1163 1142 1143 1144
2352 8 1163 1142 1143 1152
2353 8 1172 1173 1182 1183
2354 9 1172 1193 1194 1195
2355 10 1172 1193 1194 1200
2356 8 1173 1172 1193 1192
2357 9 1173 1172 1193 1194
2358 9 1173 1182 1183 1184
2359 8 1173 1182 1183 1192
2360 9 1174 1173 1182 1183
2361 9 1182 1173 1174 1175
2362 10 1182 1173 1174 1180
2363 8 1182 1183 1192 1193
2364 8 1183 1192 1193 1172
2365 9 1183 1192 1193 1194
2366 9 1184 1183 1192 1193
2367 9 1192 1183 1184 1185
2368 10 1192 1183 1184 1190
2369 9 1193 1172 1173 1174
2370 8 1193 1172 1173 1182
2371 8 1202 1203 1212 1213
2372 9 1202 1223 1224 1225
2373 10 1202 1223 1224 1230
2374 8 1203 1202 1223 1222
2375 9 1203 1202 1223 1224
2376 9 1203 1212 1213 1214
2377 8 1203 1212 1213 1222
2378 9 1204 1203 1212 1213
2379 9 1212 1203 1204 1205
2380 10 1212 1203 1204 1210
2381 8 1212 1213 1222 1223
2382 8 1213 1222 1223 1202
2383 9 1213 1222 1223 1224
2384 9 1214 1213 1222 1223
2385 9 1222 1213 1214 1215
2386 10 1222 1213 1214 1220
2387 9 1223 1202 1203 1204
2388 8 1223 1202 1203 1212
2389 8 1232 1233 1242 1243
2390 9 1232 1253 1254 1255
2391 10 1232 1253 1254 1260
2392 8 1233 1232 1253 1252
2393 9 1233 1232 1253 1254
2394 9 1233 1242 1243 1244
2395 8 1233 1242 1243 1252
2396 9 1234 1233 1242 1243
2397 9 1242 1233 1234 1235
2398 10 1242 1233 1234 1240
2399 8 1242 1243 1252 1253
2400 8 1243 1252 1253 1232
2401 9 1243 1252 1253 1254
2402 9 1244 1243 1252 1253
2403 9 1252 1243 1244 1245
2404 10 1252 1243 1244 1250
2405 9 1253 1232 1233 1234
2406 8 1253 1232 1233 1242
2407 8 1262 1263 1272 1273
2408 9 1262 1283 1284 1285
2409 10 1262 1283 1284 1290
2410 8 1263 1262 1283 1282
2411 9 1263 1262 1283 1284
2412 9 1263 1272 1273 1274
2413 8 1263 1272 1273 1282
2414 9 1264 1263 1272 1273
2415 9 1272 1263 1264 1265
2416 10 1272 1263 1264 1270
2417 8 1272 1273 1282 1283
2418 8 1273 1282 1283 1262
2419 9 1273 1282 1283 1284
2420 9 1274 1273 1282 1283
2421 9 1282 1273 1274 1275
2422 10 1282 1273 1274 1280
2423 9 1283 1262 1263 1264
2424 8 1283 1262 1263 1272
2425 8 1292 1293 1302 1303
2426 9 1292 1313 1314 1315
2427 10 1292 1313 1314 1320
2428 8 1293 1292 1313 1312
2429 9 1293 1292 1313 1314
2430 9 1293 1302 1303 1304
2431 8 1293 1302 1303 1312
2432 9 1294 1293 1302 1303
2433 9 1302 1293 1294 1295
2434 10 1302 1293 1294 1300
2435 8 1302 1303 1312 1313
2436 8 1303 1312 1313 1292
2437 9 1303 1312 1313 1314
2438 9 1304 1303 1312 1313
2439 9 1312 1303 1304 1305
2440 10 1312 1303 1304 1310
2441 9 1313 1292 1293 1294
2442 8 1313 1292 1293 1302
2443 8 1322 1323 1332 1333
2444 9 1322 1343 1344 1345
2445 10 1322 1343 1344 1350
2446 8 1323 1322 1343 1342
2447 9 1323 1322 1343 1344
2448 9 1323 1332 1333 1334
2449 8 1323 1332 1333 1342
2450 9 1324 1323 1332 1333
2451 9 1332 1323 1324 1325
2452 10 1332 1323 1324 1330
2453 8 1332 1333 1342 1343
2454 8 1333 1342 1343 1322
2455 9 1333 1342 1343 1344
2456 9 1334 1333 1342 1343
2457 9 1342 1333 1334 1335
2458 10 1342 1333 1334 1340
2459 9 1343 1322 1323 1324
2460 8 1343 1322 1323 1332
2461 8 1352 1353 1362 1363
2462 9 1352 1373 1374 1375
2463 10 1352 1373 1374 1380
2464 8 1353 1352 1373 1372
2465 9 1353 1352 1373 1374
2466 9 1353 1362 1363 1364
2467 8 1353 1362 1363 1372
2468 9 1354 1353 1362 1363
2469 9 1362 1353 1354 1355
2470 10 1362 1353 1354 1360
2471 8 1362 1363 1372 1373
2472 8 1363 1372 1373 1352
2473 9 1363 1372 1373 1374
2474 9 1364 1363 1372 1373
2475 9 1372 1363 1364 1365
2476 10 1372 1363 1364 1370
2477 9 1373 1352 1353 1354
2478 8 1373 1352 1353 1362
2479 8 1382 1383 1392 1393
2480 9 1382 1403 1404 1405
2481 10 1382 1403 1404 1410
2482 8 1383 1382 1403 1402
2483 9 1383 1382 1403 1404
2484 9 1383 1392 1393 1394
2485 8 1383 1392 1393 1402
2486 9 1384 1383 1392 1393
2487 9 1392 1383 1384 1385
2488 10 1392 1383 1384 1390
2489 8 1392 1393 1402 1403
2490 8 1393 1402 1403 1382
2491 9 1393 1402 1403 1404
2492 9 1394 1393 1402 1403
2493 9 1402 1393 1394 1395
2494 10 1402 1393 1394 1400
2495 9 1403 1382 1383 1384
2496 8 1403 1382 1383 1392
2497 8 1412 1413 1422 1423
2498 9 1412 1433 1434 1435
2499 10 1412 1433 1434 1440
2500 8 1413 1412 1433 1432
2501 9 1413 1412 1433 1434
2502 9 1413 1422 1423 1424
2503 8 1413 1422 1423 1432
2504 9 1414 1413 1422 1423
2505 9 1422 1413 1414 1415
2506 10 1422 1413 1414 1420
2507 8 1422 1423 1432 1433
2508 8 1423 1432 1433 1412
2509 9 1423 1432 1433 1434
2510 9 1424 1423 1432 1433
2511 9 1432 1423 1424 1425
2512 10 1432 1423 1424 1430
2513 9 1433 1412 1413 1414
2514 8 1433 1412 1413 1422
2515 8 1442 1443 1452 1453
2516 9 1442 1463 1464 1465
2517 10 1442 1463 1464 1470
2518 8 1443 1442 1463 1462
2519 9 1443 1442 1463 1464
2520 9 1443 1452 1453 1454
2521 8 1443 1452 1453 1462
2522 9 1444 1443 1452 1453
2523 9 1452 1443 1444 1445
2524 10 1452 1443 1444 1450
2525 8 1452 1453 1462 1463
2526 8 1453 1462 1463 1442
2527 9 1453 1462 1463 1464
2528 9 1454 1453 1462 1463
2529 9 1462 1453 1454 1455
2530 10 1462 1453 1454 1460
2531 9 1463 1442 1443 1444
2532 8 1463 1442 1443 1452
2533 8 1472 1473 1482 1483
2534 9 1472 1493 1494 1495
2535 10 1472 1493 1494 1500
2536 8 1473 1472 1493 1492
2537 9 1473 1472 1493 1494
2538 9 1473 1482 1483 1484
2539 8 1473 1482 1483 1492
2540 9 1474 1473 1482 1483
2541 9 1482 1473 1474 1475
2542 10 1482 1473 1474 1480
2543 8 1482 1483 1492 1493
2544 8 1483 1492 1493 1472
2545 9 1483 1492 1493 1494
2546 9 1484 1483 1492 1493
2547 9 1492 1483 1484 1485
2548 10 1492 1483 1484 1490
2549 9 1493 1472 1473 1474
2550 8 1493 1472 1473 1482
